Test system of 16 polymers of length 1000 and 160 tetrahedral crosslinkers, bond length = 1.0, crosslinker radius = 3.0

16800 atoms
16624 bonds
0 angles
0 dihedrals
0 impropers

3 atom types
3 bond types
0 angle types
0 dihedral types
0 improper types

-100.0 100.0 xlo xhi
-100.0 100.0 ylo yhi
-100.0 100.0 zlo zhi

Masses

1 1.000
2 20.000
3 20.000

PairIJ Coeffs

1 1 1.0000000000 1.0000000000 1.1224620483
1 2 4.0000000000 1.0000000000 5.0000000000
1 3 4.0000000000 1.0000000000 5.0000000000
2 2 2.0000000000 1.0000000000 5.0000000000
2 3 2.0000000000 1.0000000000 5.0000000000
3 3 2.0000000000 1.0000000000 5.0000000000

Bond Coeffs

1 fene 30.0000000000 2.5000000000 1.0000000000 1.0000000000
2 harmonic 100.0000000000 1.0000000000
3 harmonic 100.0000000000 3.0000000000

Atoms

1 1 1 27.392337 -46.042657 -91.805295
2 1 1 27.552552 -46.860786 -91.253030
3 1 1 28.294057 -46.322239 -91.653202
4 1 1 28.658919 -45.398174 -91.767132
5 1 1 29.534917 -45.824610 -91.541790
6 1 1 30.304591 -45.744521 -92.175183
7 1 1 29.336858 -45.945018 -92.327803
8 1 1 29.793393 -46.721683 -92.761815
9 1 1 29.589556 -47.268039 -91.949444
10 1 1 28.825266 -46.761036 -92.347952
11 1 1 28.069868 -47.139486 -91.813024
12 1 1 27.589027 -47.426204 -92.641628
13 1 1 26.758671 -47.016503 -92.263932
14 1 1 26.585327 -46.066867 -92.524976
15 1 1 26.015719 -45.873417 -91.726149
16 1 1 25.231815 -45.592254 -91.172578
17 1 1 25.113963 -46.362917 -90.546328
18 1 1 24.309548 -46.810906 -90.156170
19 1 1 23.354479 -46.646912 -90.403047
20 1 1 23.750265 -47.079301 -89.592866
21 1 1 24.200916 -46.555637 -88.869892
22 1 1 24.881675 -45.826050 -88.804552
23 1 1 23.966011 -45.659712 -89.170465
24 1 1 23.274914 -46.359666 -88.990332
25 1 1 22.394618 -45.902387 -88.863935
26 1 1 23.016807 -45.357345 -88.301965
27 1 1 23.179657 -45.540334 -89.271498
28 1 1 22.859237 -45.447708 -90.214234
29 1 1 22.534152 -45.455051 -91.159891
30 1 1 22.779042 -45.541440 -92.125585
31 1 1 21.808288 -45.333767 -92.246041
32 1 1 21.530345 -45.457610 -91.293460
33 1 1 21.578499 -44.531710 -90.918772
34 1 1 21.960883 -44.626618 -91.837888
35 1 1 21.645255 -43.706726 -91.605127
36 1 1 22.611978 -43.751737 -91.856963
37 1 1 23.370886 -44.344107 -92.127439
38 1 1 22.900039 -43.759930 -92.788530
39 1 1 22.571436 -44.619795 -92.397823
40 1 1 22.564457 -45.162896 -93.237461
41 1 1 23.399747 -45.183968 -93.786867
42 1 1 22.789711 -44.546243 -94.257146
43 1 1 23.591526 -43.955453 -94.346931
44 1 1 22.997548 -43.469835 -93.705553
45 1 1 23.812623 -43.687081 -93.168471
46 1 1 23.546608 -42.729224 -93.060090
47 1 1 23.399750 -41.747963 -93.184831
48 1 1 22.413629 -41.584923 -93.216190
49 1 1 22.092413 -40.677899 -93.488451
50 1 1 21.717585 -41.559664 -93.774796
51 1 1 21.711595 -40.776951 -94.397149
52 1 1 21.599068 -41.634949 -94.898325
53 1 1 22.503254 -41.293315 -95.154711
54 1 1 22.526611 -41.793963 -96.020047
55 1 1 23.451036 -41.500406 -96.263484
56 1 1 23.377275 -41.677414 -97.244926
57 1 1 23.455886 -42.405016 -97.926406
58 1 1 23.035201 -41.923857 -98.695504
59 1 1 22.211995 -41.556614 -98.262533
60 1 1 21.377633 -41.067275 -98.516281
61 1 1 22.195318 -40.634346 -98.136856
62 1 1 22.806891 -41.025802 -98.824418
63 1 1 23.717834 -41.134116 -98.426360
64 1 1 24.686897 -40.949871 -98.590587
65 1 1 25.402367 -40.686579 -99.237719
66 1 1 26.305407 -40.862578 -99.629566
67 1 1 27.275231 -40.895296 -99.871165
68 1 1 27.440693 -40.256332 -99.119935
69 1 1 26.912614 -39.488914 -98.756339
70 1 1 26.626209 -40.107236 -99.488220
71 1 1 27.459975 -39.732552 -99.893740
72 1 1 26.726636 -39.062044 -99.781340
73 1 1 25.809452 -38.684412 -99.654185
74 1 1 26.409603 -37.892865 -99.769387
75 1 1 25.763028 -37.292073 -99.299292
76 1 1 25.624373 -36.315020 -99.460973
77 1 1 24.902165 -36.414018 -98.776419
78 1 1 24.502064 -35.581245 -99.159052
79 1 1 25.362255 -35.090538 -99.297898
80 1 1 25.833392 -35.744484 -98.705966
81 1 1 25.764702 -36.329559 -97.897901
82 1 1 26.208101 -36.007522 -97.061427
83 1 1 26.821239 -35.279339 -97.367713
84 1 1 27.007065 -34.297244 -97.398663
85 1 1 27.310942 -33.867971 -96.548143
86 1 1 26.706565 -33.073335 -96.605428
87 1 1 26.150246 -32.465294 -96.039041
88 1 1 26.033347 -32.600728 -97.022907
89 1 1 26.143143 -31.643845 -97.291830
90 1 1 26.429620 -30.720284 -97.546714
91 1 1 26.498103 -31.233451 -98.402266
92 1 1 26.500857 -32.217722 -98.225621
93 1 1 25.562966 -32.323783 -97.895301
94 1 1 24.856910 -32.133213 -97.213268
95 1 1 25.096258 -33.024907 -97.597449
96 1 1 24.637465 -32.799123 -98.456828
97 1 1 24.555315 -32.000180 -99.052597
98 1 1 25.159174 -31.411152 -99.589627
99 1 1 24.892708 -30.459227 -99.438516
100 1 1 24.827874 -29.543203 -99.042667
101 1 1 25.024243 -29.719288 -98.078077
102 1 1 24.816286 -29.509603 -97.122678
103 1 1 24.790430 -29.367067 -96.133227
104 1 1 24.911812 -28.526115 -96.660547
105 1 1 25.174124 -28.222099 -97.576389
106 1 1 25.264663 -28.387335 -98.558478
107 1 1 25.983817 -28.658861 -99.198081
108 1 1 26.398737 -27.827883 -99.568643
109 1 1 26.981223 -27.871680 -98.756983
110 1 1 26.422354 -28.305806 -98.050443
111 1 1 25.951356 -29.168037 -97.864112
112 1 1 26.483914 -29.183180 -98.710370
113 1 1 25.787784 -29.900714 -98.686981
114 1 1 25.923347 -29.401725 -99.542921
115 1 1 25.069072 -28.883121 -99.578473
116 1 1 24.809483 -29.783435 -99.927827
117 1 1 23.877808 -29.952582 -99.606315
118 1 1 23.124673 -29.935454 -98.948671
119 1 1 23.451211 -29.463665 -98.129654
120 1 1 23.349944 -30.325587 -97.632828
121 1 1 22.762864 -30.880994 -98.221776
122 1 1 21.887575 -30.840765 -98.703701
123 1 1 21.818121 -29.901946 -99.041036
124 1 1 21.472019 -29.031015 -98.692190
125 1 1 22.234682 -29.308496 -98.107940
126 1 1 21.628973 -29.905231 -97.581610
127 1 1 21.397224 -29.608128 -96.655315
128 1 1 20.616435 -29.956443 -96.136621
129 1 1 20.522580 -29.205304 -96.790058
130 1 1 20.722184 -29.940751 -97.437572
131 1 1 20.685773 -29.646204 -98.392515
132 1 1 20.080322 -28.855619 -98.300837
133 1 1 20.507956 -28.259586 -97.621224
134 1 1 21.279104 -27.644435 -97.785298
135 1 1 21.003012 -26.695742 -97.939426
136 1 1 20.310246 -26.020954 -97.684994
137 1 1 19.319491 -26.144265 -97.628427
138 1 1 19.912352 -25.956826 -98.411614
139 1 1 19.633341 -25.246275 -99.057579
140 1 1 19.402790 -24.470078 -99.644404
141 1 1 20.015231 -24.064512 -98.965852
142 1 1 20.617098 -23.596744 -98.318590
143 1 1 20.406107 -22.658776 -98.593724
144 1 1 19.822830 -22.319829 -97.855548
145 1 1 19.011948 -22.405660 -98.434429
146 1 1 18.719109 -22.370194 -99.389933
147 1 1 18.545203 -23.288392 -99.745838
148 1 1 17.683486 -22.839105 -99.981602
149 1 1 17.986403 -22.498267 -99.091618
150 1 1 17.341776 -21.880730 -98.640946
151 1 1 17.574723 -20.911817 -98.557624
152 1 1 18.093562 -21.378193 -97.841174
153 1 1 18.170866 -21.586025 -96.866069
154 1 1 17.331617 -21.561625 -97.409268
155 1 1 16.692624 -21.112384 -96.784872
156 1 1 16.829388 -22.023405 -96.395854
157 1 1 16.579603 -22.890868 -95.965603
158 1 1 16.784884 -23.271295 -95.063863
159 1 1 16.282554 -23.990972 -95.543164
160 1 1 17.243075 -24.109859 -95.794691
161 1 1 17.175104 -24.762266 -96.549505
162 1 1 16.490990 -25.080095 -97.205990
163 1 1 15.624318 -25.011714 -97.700159
164 1 1 15.209669 -25.912558 -97.828793
165 1 1 15.203611 -26.768382 -97.311561
166 1 1 15.601635 -26.684105 -96.398066
167 1 1 14.910848 -26.115389 -96.844581
168 1 1 13.925954 -26.286799 -96.869106
169 1 1 13.856218 -27.232018 -96.550204
170 1 1 14.552643 -27.949647 -96.549497
171 1 1 14.536844 -28.949283 -96.527606
172 1 1 13.668252 -28.463391 -96.624858
173 1 1 13.701446 -29.205576 -95.955487
174 1 1 13.979873 -28.859098 -95.059701
175 1 1 13.936501 -27.865287 -95.161963
176 1 1 14.594424 -27.255361 -94.720230
177 1 1 15.500874 -27.673896 -94.663865
178 1 1 15.766835 -26.805500 -95.082378
179 1 1 15.912745 -26.728601 -94.096073
180 1 1 16.812961 -26.774041 -94.529139
181 1 1 16.558723 -27.116337 -93.624597
182 1 1 15.952127 -27.616463 -93.006603
183 1 1 15.634897 -27.324659 -92.104265
184 1 1 16.433445 -26.851244 -92.476017
185 1 1 17.220475 -26.648627 -93.058709
186 1 1 16.643396 -25.831947 -93.062287
187 1 1 16.210655 -25.005269 -92.702648
188 1 1 15.450331 -24.553275 -93.169134
189 1 1 15.214251 -23.666735 -93.567019
190 1 1 15.752722 -23.300391 -94.325860
191 1 1 15.159103 -22.945961 -95.048353
192 1 1 14.915276 -22.044295 -94.691218
193 1 1 14.092803 -21.888303 -95.238215
194 1 1 13.371219 -22.559333 -95.067820
195 1 1 13.346699 -22.554596 -96.067508
196 1 1 13.215579 -23.293969 -96.727913
197 1 1 13.108744 -24.189005 -96.294905
198 1 1 14.017872 -24.021274 -96.676158
199 1 1 13.850827 -24.979393 -96.908762
200 1 1 14.243488 -24.523208 -97.707332
201 1 1 13.614388 -25.298996 -97.658483
202 1 1 12.634493 -25.476709 -97.749166
203 1 1 12.358995 -26.426662 -97.896439
204 1 1 11.812642 -25.893765 -98.542596
205 1 1 11.394581 -26.238685 -97.702207
206 1 1 10.444105 -26.365852 -97.418616
207 1 1 10.218447 -27.318511 -97.214850
208 1 1 10.490495 -27.537071 -98.151985
209 1 1 9.867529 -27.800965 -98.888377
210 1 1 8.939669 -28.172696 -98.918213
211 1 1 7.963505 -28.318185 -98.757159
212 1 1 8.323689 -27.432836 -98.463179
213 1 1 7.494893 -26.997689 -98.814952
214 1 1 7.432075 -27.600048 -98.019202
215 1 1 7.247168 -26.648139 -97.774912
216 1 1 6.260279 -26.728068 -97.915131
217 1 1 6.204693 -26.781173 -98.912172
218 1 1 5.563305 -27.185451 -98.260113
219 1 1 4.859327 -26.881070 -98.901804
220 1 1 4.664749 -26.599248 -97.962274
221 1 1 4.105725 -26.667001 -97.135895
222 1 1 3.153083 -26.435451 -97.333020
223 1 1 2.331906 -26.298885 -96.778929
224 1 1 1.422699 -25.920101 -96.606109
225 1 1 0.875123 -25.235125 -96.125517
226 1 1 0.211223 -25.688029 -95.530442
227 1 1 -0.016580 -26.533916 -95.048175
228 1 1 -0.651346 -26.381063 -94.290740
229 1 1 -1.405829 -26.969218 -93.999483
230 1 1 -2.326916 -27.283995 -93.770322
231 1 1 -2.553635 -27.912477 -93.026272
232 1 1 -3.463667 -28.250135 -93.266747
233 1 1 -3.248991 -29.204186 -93.475796
234 1 1 -2.837458 -29.824595 -92.808164
235 1 1 -2.665137 -30.564738 -93.458160
236 1 1 -2.266440 -31.428834 -93.150949
237 1 1 -1.858244 -30.757715 -92.532098
238 1 1 -1.659140 -30.605123 -91.564073
239 1 1 -0.778401 -30.907604 -91.199649
240 1 1 0.184170 -30.792043 -90.954493
241 1 1 0.636204 -29.923387 -90.751757
242 1 1 0.867702 -28.974938 -90.535298
243 1 1 1.142101 -28.476394 -89.713010
244 1 1 2.085669 -28.186323 -89.553204
245 1 1 1.244463 -27.651957 -89.635824
246 1 1 1.573551 -28.088894 -88.798693
247 1 1 1.678271 -27.223779 -88.308174
248 1 1 2.191609 -26.791255 -89.049395
249 1 1 2.964211 -26.952383 -88.435291
250 1 1 3.263262 -27.641376 -89.095486
251 1 1 2.954824 -27.724982 -90.043049
252 1 1 3.592572 -27.025331 -90.365178
253 1 1 4.144042 -27.290128 -89.574126
254 1 1 4.498143 -27.119348 -90.493607
255 1 1 5.404874 -27.141043 -90.072456
256 1 1 6.081741 -27.670887 -89.561461
257 1 1 6.436117 -27.276267 -88.713704
258 1 1 6.766167 -27.557628 -87.812647
259 1 1 6.705467 -26.918370 -87.046055
260 1 1 6.288583 -26.259837 -87.672587
261 1 1 7.268680 -26.296788 -87.477536
262 1 1 7.927034 -26.503797 -86.753853
263 1 1 7.305078 -26.018344 -86.139437
264 1 1 6.612422 -25.859702 -85.435831
265 1 1 6.432430 -26.486751 -86.193731
266 1 1 6.039548 -25.575014 -86.313642
267 1 1 5.239375 -26.044868 -86.686417
268 1 1 5.472498 -26.624150 -87.467497
269 1 1 5.771697 -26.872787 -88.388724
270 1 1 5.266359 -26.693007 -89.232710
271 1 1 4.722920 -26.038776 -88.706729
272 1 1 3.834172 -26.064970 -88.249084
273 1 1 3.248847 -25.972304 -89.054570
274 1 1 2.577003 -25.231736 -89.068178
275 1 1 2.445703 -25.270000 -88.077574
276 1 1 2.936358 -25.637636 -87.287573
277 1 1 2.098244 -25.138189 -87.068215
278 1 1 1.591503 -24.854475 -86.254139
279 1 1 1.047417 -24.828486 -85.415513
280 1 1 1.636824 -24.044051 -85.608542
281 1 1 1.118644 -23.301570 -85.184027
282 1 1 1.090168 -23.558755 -86.149970
283 1 1 1.942536 -23.118364 -86.431972
284 1 1 1.622307 -22.207282 -86.691553
285 1 1 1.604272 -21.494279 -85.990623
286 1 1 1.571238 -21.347985 -86.979313
287 1 1 0.643455 -21.721060 -86.985094
288 1 1 0.497922 -21.652509 -85.998118
289 1 1 0.389894 -20.877716 -86.621036
290 1 1 0.468463 -20.270210 -85.830616
291 1 1 0.748791 -19.584357 -85.159034
292 1 1 0.906707 -19.397404 -86.128627
293 1 1 1.093047 -19.400367 -87.111108
294 1 1 0.827412 -18.810813 -87.873909
295 1 1 1.753475 -18.470743 -88.037490
296 1 1 1.667772 -17.970998 -88.899412
297 1 1 2.545000 -18.320649 -89.228371
298 1 1 3.165462 -17.919101 -88.554734
299 1 1 3.783434 -17.696724 -89.308830
300 1 1 2.861862 -17.309963 -89.342319
301 1 1 2.149397 -16.947478 -88.741487
302 1 1 1.512312 -16.441160 -89.322661
303 1 1 1.742239 -15.789997 -88.599390
304 1 1 1.495579 -15.451372 -87.691375
305 1 1 1.781097 -14.536384 -87.406284
306 1 1 1.553048 -13.580370 -87.590761
307 1 1 1.674669 -13.502366 -88.580267
308 1 1 2.286987 -12.862133 -89.044129
309 1 1 3.225798 -12.972866 -89.370278
310 1 1 2.983185 -12.167618 -89.911309
311 1 1 3.385259 -12.114602 -88.997238
312 1 1 4.032583 -12.158201 -89.758205
313 1 1 4.648340 -11.530210 -90.234095
314 1 1 5.203948 -12.127220 -90.812782
315 1 1 5.499401 -11.259398 -90.413293
316 1 1 5.909034 -10.734343 -91.159294
317 1 1 5.886139 -11.535655 -91.757102
318 1 1 4.900706 -11.378259 -91.821493
319 1 1 4.196712 -11.090981 -91.171982
320 1 1 3.947149 -10.129379 -91.286175
321 1 1 3.097054 -9.731893 -91.631639
322 1 1 2.446470 -9.744340 -90.872306
323 1 1 3.328789 -9.994180 -90.473441
324 1 1 3.430304 -9.776729 -89.502663
325 1 1 4.101329 -9.655198 -90.234070
326 1 1 4.473871 -9.076239 -89.508798
327 1 1 3.607194 -8.750410 -89.886563
328 1 1 3.331833 -8.606525 -90.837076
329 1 1 3.718763 -8.723404 -91.751748
330 1 1 4.208080 -7.950453 -92.155622
331 1 1 4.660978 -8.230456 -93.002075
332 1 1 4.932576 -7.453338 -92.434341
333 1 1 4.819996 -7.776261 -91.494635
334 1 1 4.357835 -7.060138 -90.971592
335 1 1 4.956494 -6.783311 -91.723239
336 1 1 5.545051 -7.437833 -91.248684
337 1 1 5.534314 -8.403446 -91.508444
338 1 1 6.200929 -8.729292 -92.178853
339 1 1 6.011192 -9.266773 -93.000506
340 1 1 6.422261 -8.516886 -93.518861
341 1 1 7.217169 -9.104429 -93.670236
342 1 1 7.295173 -8.160511 -93.349403
343 1 1 6.423318 -7.710384 -93.542418
344 1 1 6.381829 -7.987872 -94.502251
345 1 1 5.389987 -7.913515 -94.398717
346 1 1 5.208528 -7.164131 -95.035502
347 1 1 5.179982 -6.167550 -95.113033
348 1 1 4.476097 -5.880438 -94.463331
349 1 1 5.054053 -5.593577 -93.699343
350 1 1 5.682693 -6.329360 -93.951206
351 1 1 6.531364 -5.852550 -93.722276
352 1 1 6.995965 -5.194729 -94.315081
353 1 1 6.033909 -5.408764 -94.484309
354 1 1 6.543961 -6.268688 -94.503735
355 1 1 6.437013 -5.548287 -95.188997
356 1 1 7.280876 -6.048275 -95.383691
357 1 1 6.998935 -5.233168 -95.889764
358 1 1 7.672873 -4.583553 -95.537900
359 1 1 7.941745 -5.540198 -95.425926
360 1 1 8.066717 -6.013340 -94.553849
361 1 1 8.495998 -6.360087 -95.387806
362 1 1 9.344693 -6.754428 -95.035367
363 1 1 9.801554 -7.173017 -95.820262
364 1 1 8.895185 -7.580016 -95.706923
365 1 1 9.735500 -8.053596 -95.970726
366 1 1 9.252939 -8.425853 -95.177908
367 1 1 9.703828 -9.119124 -94.615703
368 1 1 9.985971 -9.498830 -95.496736
369 1 1 9.725972 -10.105311 -96.248122
370 1 1 10.166386 -9.539774 -96.945405
371 1 1 9.914680 -9.886887 -97.848819
372 1 1 10.136568 -8.944116 -98.097712
373 1 1 9.418515 -9.044227 -97.408962
374 1 1 8.629962 -9.658181 -97.444263
375 1 1 7.931983 -10.371192 -97.377630
376 1 1 7.543749 -9.756833 -98.064534
377 1 1 7.652354 -9.924248 -99.044420
378 1 1 7.416717 -9.180568 -99.670052
379 1 1 6.447365 -9.295744 -99.887058
380 1 1 5.952588 -9.100680 -99.040213
381 1 1 6.172805 -8.906250 -98.084336
382 1 1 6.522398 -9.835954 -98.200248
383 1 1 5.686237 -10.201454 -97.791291
384 1 1 5.542475 -10.507571 -96.850214
385 1 1 4.604678 -10.566076 -96.507993
386 1 1 4.625417 -11.565673 -96.527386
387 1 1 5.485919 -11.184979 -96.188847
388 1 1 4.635108 -11.417351 -95.717547
389 1 1 4.345891 -10.514962 -95.398096
390 1 1 3.513295 -11.013714 -95.157200
391 1 1 3.692149 -11.043745 -94.173783
392 1 1 4.561652 -10.549817 -94.174504
393 1 1 3.798534 -9.989192 -93.853023
394 1 1 3.822870 -9.550533 -94.751347
395 1 1 4.076353 -8.778570 -95.334288
396 1 1 5.020950 -8.931842 -95.044040
397 1 1 4.872409 -8.331380 -95.829776
398 1 1 3.968595 -8.295810 -96.256221
399 1 1 3.102603 -8.181897 -96.743132
400 1 1 3.956239 -8.282869 -97.254122
401 1 1 3.869301 -8.843902 -98.077337
402 1 1 3.030947 -9.285287 -98.397248
403 1 1 3.008714 -10.081154 -97.792185
404 1 1 3.141848 -10.598065 -96.946562
405 1 1 2.516391 -10.862899 -96.212623
406 1 1 1.694550 -10.302211 -96.111601
407 1 1 0.824195 -9.899656 -95.827996
408 1 1 0.464331 -10.466093 -95.086614
409 1 1 0.638897 -10.102827 -94.171428
410 1 1 1.418137 -9.606156 -93.789194
411 1 1 0.739554 -10.198349 -93.354644
412 1 1 1.287801 -9.759396 -92.642784
413 1 1 1.341980 -8.952257 -93.230654
414 1 1 2.081025 -8.523083 -92.711403
415 1 1 2.661712 -8.816763 -91.952091
416 1 1 3.124990 -7.985793 -92.260089
417 1 1 2.543763 -7.331794 -92.744300
418 1 1 1.755870 -6.737886 -92.581519
419 1 1 0.993834 -7.367348 -92.733438
420 1 1 0.682630 -6.905964 -93.564266
421 1 1 0.911724 -5.940876 -93.437296
422 1 1 0.640605 -5.404644 -94.236640
423 1 1 1.269653 -6.181852 -94.252380
424 1 1 0.364902 -6.453361 -94.580569
425 1 1 -0.257183 -6.307240 -95.349763
426 1 1 -0.762145 -6.974102 -94.801759
427 1 1 -1.114787 -7.908383 -94.854327
428 1 1 -1.821398 -7.915006 -94.146756
429 1 1 -2.219596 -8.716399 -93.700429
430 1 1 -2.539522 -9.489843 -93.153226
431 1 1 -3.240165 -8.810687 -92.934487
432 1 1 -4.015598 -8.746680 -93.562664
433 1 1 -4.372409 -9.338936 -92.840225
434 1 1 -5.123808 -9.477576 -93.485345
435 1 1 -5.137986 -9.697856 -94.460679
436 1 1 -4.483256 -8.986869 -94.717245
437 1 1 -3.605807 -9.237038 -94.307980
438 1 1 -3.472386 -10.222087 -94.198999
439 1 1 -4.029400 -10.944550 -94.608613
440 1 1 -3.850154 -11.556564 -95.378879
441 1 1 -4.276645 -11.102167 -96.160946
442 1 1 -4.769382 -11.921621 -96.453699
443 1 1 -4.905659 -11.821059 -95.468146
444 1 1 -4.424913 -12.512309 -96.007643
445 1 1 -3.645347 -13.042916 -96.340408
446 1 1 -3.969120 -12.671023 -97.210389
447 1 1 -3.016564 -12.856411 -97.451779
448 1 1 -2.807402 -13.772786 -97.793113
449 1 1 -1.915567 -13.630405 -98.222483
450 1 1 -1.445955 -13.349924 -99.059618
451 1 1 -0.634175 -13.319483 -98.476449
452 1 1 -0.296721 -13.569354 -99.384022
453 1 1 -0.313417 -14.451320 -99.855039
454 1 1 -0.400139 -15.188607 -99.185048
455 1 1 0.425523 -15.706701 -98.961752
456 1 1 0.593863 -14.761836 -98.680872
457 1 1 0.331404 -14.339398 -97.813312
458 1 1 0.485883 -13.657756 -98.528504
459 1 1 1.026558 -13.575992 -97.691256
460 1 1 0.983093 -14.311090 -97.014690
461 1 1 0.163482 -13.745313 -97.104874
462 1 1 0.375833 -13.395149 -96.192573
463 1 1 0.466983 -13.162797 -95.224222
464 1 1 -0.414415 -13.094257 -94.756846
465 1 1 -0.674400 -12.159478 -94.998913
466 1 1 0.313751 -12.306376 -94.954436
467 1 1 -0.218633 -12.749182 -95.675887
468 1 1 0.107395 -12.233469 -96.468191
469 1 1 -0.124655 -11.398895 -95.968552
470 1 1 0.440638 -11.573754 -96.774697
471 1 1 -0.470365 -11.901975 -97.024386
472 1 1 -0.208256 -12.233008 -97.930872
473 1 1 0.019573 -12.684164 -98.793747
474 1 1 -0.050374 -12.254127 -99.693845
475 1 1 0.710049 -12.865628 -99.475157
476 1 1 1.035978 -12.611083 -98.564675
477 1 1 1.871895 -12.500844 -99.102347
478 1 1 1.261486 -11.737686 -99.314459
479 1 1 1.065696 -10.975952 -99.932058
480 1 1 1.064950 -10.001271 -99.708461
481 1 1 1.741264 -10.063189 -98.974454
482 1 1 1.267611 -9.194033 -99.116653
483 1 1 1.574115 -8.299259 -98.791946
484 1 1 2.556188 -8.409314 -98.638906
485 1 1 2.455911 -8.791495 -99.557537
486 1 1 1.894834 -7.964643 -99.596389
487 1 1 1.289362 -7.171666 -99.664138
488 1 1 0.963374 -7.781498 -98.941756
489 1 1 1.150447 -6.891826 -98.525237
490 1 1 0.956945 -6.040522 -99.012924
491 1 1 0.960470 -5.769848 -98.050259
492 1 1 1.900713 -5.910197 -98.360494
493 1 1 2.365858 -5.816740 -97.480206
494 1 1 3.086857 -6.481538 -97.675665
495 1 1 3.409809 -6.099307 -98.541461
496 1 1 3.330075 -7.054028 -98.828079
497 1 1 2.423991 -7.177136 -99.232871
498 1 1 2.445829 -6.703486 -98.352428
499 1 1 2.584995 -5.968631 -99.016222
500 1 1 2.082560 -5.203789 -99.419428
501 1 1 1.219251 -4.786944 -99.703922
502 1 1 0.341762 -4.309150 -99.662367
503 1 1 -0.349172 -3.703172 -99.268159
504 1 1 -0.302114 -3.054292 -98.508724
505 1 1 0.667034 -2.940945 -98.727593
506 1 1 0.277416 -2.217242 -99.297200
507 1 1 -0.490438 -1.751250 -98.857595
508 1 1 -0.656785 -0.903075 -98.354676
509 1 1 -1.286469 -1.617393 -98.049310
510 1 1 -1.623566 -0.774943 -97.629020
511 1 1 -1.374671 -0.542435 -98.569228
512 1 1 -2.042494 -1.284600 -98.512627
513 1 1 -2.742694 -1.639386 -97.893073
514 1 1 -3.518070 -1.022420 -98.027777
515 1 1 -4.228897 -0.494628 -97.562847
516 1 1 -4.701876 0.320485 -97.897335
517 1 1 -4.525749 0.895523 -98.696279
518 1 1 -3.897737 1.357514 -99.322509
519 1 1 -3.415365 0.509128 -99.104429
520 1 1 -3.711330 0.567080 -98.150990
521 1 1 -3.324368 -0.293814 -98.481327
522 1 1 -3.032757 -0.191656 -99.432393
523 1 1 -3.098381 -1.040615 -98.908025
524 1 1 -2.331852 -1.591665 -99.237840
525 1 1 -1.389550 -1.301861 -99.405412
526 1 1 -1.976591 -0.550568 -99.103845
527 1 1 -1.207958 -0.084274 -99.541764
528 1 1 -0.379027 -0.586361 -99.788301
529 1 1 -0.474359 0.320124 -99.376966
530 1 1 0.355996 0.859573 -99.237303
531 1 1 1.352014 0.804172 -99.167460
532 1 1 1.098848 0.485753 -98.253941
533 1 1 0.163542 0.365733 -98.586804
534 1 1 0.087609 1.088727 -97.900135
535 1 1 -0.014866 1.910426 -98.460770
536 1 1 0.171899 2.844842 -98.764059
537 1 1 0.290372 3.710396 -99.250660
538 1 1 -0.646188 3.359909 -99.246910
539 1 1 -0.811500 2.479710 -98.802026
540 1 1 -0.660834 1.941487 -97.972800
541 1 1 -0.190481 1.507229 -97.204563
542 1 1 0.275213 2.223337 -97.724484
543 1 1 -0.374017 2.946843 -97.489878
544 1 1 -0.869627 2.663276 -96.668927
545 1 1 -1.571150 3.279533 -97.026828
546 1 1 -1.725636 4.158984 -97.477051
547 1 1 -2.099987 3.827060 -98.342896
548 1 1 -2.696142 4.364419 -98.939423
549 1 1 -3.277622 4.528600 -99.736245
550 1 1 -4.136257 4.054860 -99.540501
551 1 1 -4.308515 4.934085 -99.096328
552 1 1 -5.060395 4.460135 -99.554637
553 1 1 -5.540195 5.307435 -99.782394
554 1 1 -5.878152 4.513149 -99.277522
555 1 1 -6.695922 4.415868 -99.844786
556 1 1 -7.085578 5.199197 -99.360467
557 1 1 -6.930766 6.077991 -98.909075
558 1 1 -7.646304 5.394113 -98.766542
559 1 1 -7.727499 5.641620 -99.732020
560 1 1 -7.489073 6.507284 -99.291815
561 1 1 -8.006474 7.361046 -99.233637
562 1 1 -8.415870 7.596709 -98.352242
563 1 1 -8.019475 8.214109 -97.672766
564 1 1 -8.180416 8.936765 -98.344976
565 1 1 -8.119884 8.678826 -99.309238
566 1 1 -7.128263 8.566499 -99.373039
567 1 1 -6.198891 8.864166 -99.591358
568 1 1 -5.341899 8.428036 -99.865865
569 1 1 -4.427785 8.042310 -99.740915
570 1 1 -3.511406 8.441794 -99.715194
571 1 1 -4.403172 8.892505 -99.675029
572 1 1 -3.513013 9.216916 -99.994991
573 1 1 -2.600790 8.810746 -99.941372
574 1 1 -3.125973 9.227097 -99.199189
575 1 1 -3.755691 9.948465 -99.487430
576 1 1 -3.937211 9.381814 -98.683716
577 1 1 -4.856096 9.575375 -98.339937
578 1 1 -5.796586 9.465251 -98.018453
579 1 1 -5.053652 9.864782 -97.481402
580 1 1 -5.075765 8.946463 -97.876624
581 1 1 -5.713693 8.715544 -97.141965
582 1 1 -5.525385 7.745733 -96.987022
583 1 1 -5.707762 7.546400 -97.949833
584 1 1 -6.324936 6.803022 -97.691988
585 1 1 -7.115829 7.037493 -97.126733
586 1 1 -7.441239 6.425604 -96.405830
587 1 1 -7.247017 5.511607 -96.049617
588 1 1 -7.820610 5.913311 -95.335736
589 1 1 -7.651920 5.308988 -94.557059
590 1 1 -7.386924 4.849913 -93.709104
591 1 1 -8.317412 4.991275 -94.047053
592 1 1 -8.315755 4.203932 -93.430540
593 1 1 -9.072818 4.319070 -92.787424
594 1 1 -9.597370 5.055133 -92.359573
595 1 1 -10.094131 4.191130 -92.441595
596 1 1 -10.743247 3.454603 -92.631796
597 1 1 -10.890682 3.528778 -91.645509
598 1 1 -10.214961 4.158393 -91.262122
599 1 1 -10.842868 4.751161 -90.757781
600 1 1 -11.832262 4.629227 -90.678844
601 1 1 -11.589922 4.895337 -89.745862
602 1 1 -11.496750 4.081307 -89.172560
603 1 1 -11.958334 4.932181 -88.921652
604 1 1 -12.777676 5.145849 -89.453652
605 1 1 -13.446756 4.800245 -90.111597
606 1 1 -14.364127 4.488538 -89.864073
607 1 1 -15.188587 4.986745 -90.132508
608 1 1 -14.977026 4.424438 -89.333099
609 1 1 -14.390267 3.670449 -89.037779
610 1 1 -13.772783 3.589227 -89.820157
611 1 1 -12.801286 3.368488 -89.906580
612 1 1 -12.584372 3.382425 -88.930489
613 1 1 -12.747408 4.331367 -89.200544
614 1 1 -12.522460 4.484883 -90.162746
615 1 1 -13.116966 4.079131 -90.856955
616 1 1 -12.302312 3.592547 -91.172508
617 1 1 -12.834667 2.840038 -90.784788
618 1 1 -12.454214 2.109674 -91.352084
619 1 1 -11.953577 1.324955 -90.986599
620 1 1 -12.062225 2.006121 -90.262577
621 1 1 -12.729263 1.823094 -89.540384
622 1 1 -13.404396 1.436369 -90.168587
623 1 1 -14.076258 1.353519 -90.904616
624 1 1 -13.208424 0.906740 -91.121993
625 1 1 -13.914578 0.378366 -90.650648
626 1 1 -13.526513 0.051035 -89.789103
627 1 1 -12.859300 0.795896 -89.786303
628 1 1 -13.483997 0.651089 -89.018980
629 1 1 -14.147116 0.940738 -89.709181
630 1 1 -14.589497 1.778732 -89.389707
631 1 1 -13.939515 2.223430 -90.005960
632 1 1 -14.820868 1.964561 -90.401186
633 1 1 -15.070224 1.392433 -91.182525
634 1 1 -14.916163 2.073157 -91.898682
635 1 1 -14.447033 2.333275 -91.054730
636 1 1 -13.791739 2.937158 -90.600950
637 1 1 -14.039015 3.800043 -91.041727
638 1 1 -14.624239 3.504295 -90.286713
639 1 1 -15.472073 3.086660 -89.959974
640 1 1 -14.689747 2.633390 -89.532762
641 1 1 -15.468946 2.842200 -88.941790
642 1 1 -15.541622 2.618762 -87.969785
643 1 1 -15.509157 3.523517 -88.394479
644 1 1 -15.894427 3.550787 -89.316880
645 1 1 -16.708719 4.117000 -89.444674
646 1 1 -16.221450 4.990242 -89.440549
647 1 1 -16.126829 4.616770 -88.517746
648 1 1 -15.265364 5.115842 -88.423908
649 1 1 -14.807958 4.228192 -88.370457
650 1 1 -14.610137 3.902074 -87.446058
651 1 1 -15.201534 3.748292 -86.654477
652 1 1 -15.079308 2.779155 -86.868567
653 1 1 -14.697502 2.108649 -86.232449
654 1 1 -14.440821 3.027931 -85.934061
655 1 1 -15.142031 3.605731 -85.516386
656 1 1 -15.967969 3.853461 -86.022800
657 1 1 -16.158496 4.608958 -86.649637
658 1 1 -16.564945 4.061772 -87.381338
659 1 1 -16.860821 4.949721 -87.733481
660 1 1 -17.676170 5.496585 -87.923600
661 1 1 -17.338634 6.040662 -87.155453
662 1 1 -17.059748 7.000830 -87.172801
663 1 1 -16.618387 6.240566 -86.696145
664 1 1 -16.431303 5.485283 -86.068016
665 1 1 -15.477819 5.202555 -85.963453
666 1 1 -14.771810 4.736251 -85.430432
667 1 1 -14.521278 5.655322 -85.734641
668 1 1 -13.882428 4.935264 -85.463740
669 1 1 -13.000248 5.376526 -85.628195
670 1 1 -12.193939 5.783793 -86.057147
671 1 1 -11.705655 6.396776 -86.678300
672 1 1 -10.710231 6.424489 -86.769746
673 1 1 -9.992491 5.830110 -86.407031
674 1 1 -10.636503 5.761402 -85.645108
675 1 1 -10.619579 5.498688 -84.680383
676 1 1 -10.127923 5.926574 -83.921972
677 1 1 -10.772264 6.206993 -83.210502
678 1 1 -11.089720 6.979873 -83.759936
679 1 1 -11.701807 7.571632 -84.284503
680 1 1 -12.588841 7.724152 -83.848718
681 1 1 -12.204428 8.593828 -84.158381
682 1 1 -12.914823 8.651334 -84.859831
683 1 1 -11.959797 8.946789 -84.834697
684 1 1 -11.487334 9.789961 -84.578105
685 1 1 -12.370205 9.882086 -85.038594
686 1 1 -12.458583 9.651270 -84.069619
687 1 1 -12.199140 10.613884 -84.147489
688 1 1 -11.302881 10.723688 -84.577214
689 1 1 -10.567188 10.072647 -84.764036
690 1 1 -10.353160 9.756176 -83.839894
691 1 1 -10.435449 8.882416 -83.360548
692 1 1 -9.844074 8.822484 -82.556382
693 1 1 -9.168527 8.716275 -81.826754
694 1 1 -8.820451 9.556384 -82.242760
695 1 1 -9.188523 10.177308 -81.550679
696 1 1 -9.204898 10.284729 -80.556601
697 1 1 -9.711251 9.568637 -80.076166
698 1 1 -9.248993 8.745877 -80.406899
699 1 1 -9.717184 8.424662 -79.583724
700 1 1 -9.673398 7.522461 -79.154637
701 1 1 -8.687536 7.411234 -79.279956
702 1 1 -8.142177 8.242934 -79.384155
703 1 1 -8.630986 8.046058 -78.534270
704 1 1 -8.370852 7.904629 -77.579111
705 1 1 -7.508194 7.543175 -77.225314
706 1 1 -8.047798 7.567096 -76.383735
707 1 1 -7.536570 6.778644 -76.041697
708 1 1 -8.376245 6.235689 -76.029621
709 1 1 -8.838695 7.119175 -75.954848
710 1 1 -8.770976 7.889696 -75.321040
711 1 1 -9.319326 7.762307 -74.494551
712 1 1 -9.931454 8.509829 -74.236655
713 1 1 -10.348738 7.601384 -74.212136
714 1 1 -9.627172 7.237152 -73.623342
715 1 1 -10.127225 6.780538 -74.359176
716 1 1 -10.793536 6.113126 -74.026625
717 1 1 -10.964440 5.293444 -74.573356
718 1 1 -11.370477 6.095162 -75.011971
719 1 1 -11.866793 5.228022 -74.970268
720 1 1 -12.764494 5.177161 -74.532609
721 1 1 -12.021278 4.737603 -74.028209
722 1 1 -11.186642 4.201047 -73.903749
723 1 1 -10.643658 4.496508 -73.117701
724 1 1 -9.789192 5.011956 -73.052882
725 1 1 -8.999452 4.598803 -73.506329
726 1 1 -8.702825 4.532546 -72.553637
727 1 1 -8.319781 4.005668 -73.312370
728 1 1 -8.220502 4.757104 -73.964664
729 1 1 -8.581249 5.689695 -73.952990
730 1 1 -8.712347 6.674229 -74.069201
731 1 1 -9.382186 6.723905 -74.810043
732 1 1 -10.200219 7.222107 -75.097475
733 1 1 -10.827721 7.175318 -75.874682
734 1 1 -9.901179 7.174554 -76.250871
735 1 1 -9.163802 6.697896 -76.729486
736 1 1 -8.309566 6.908556 -77.204780
737 1 1 -7.690274 6.198882 -77.540695
738 1 1 -8.556834 5.811086 -77.226549
739 1 1 -9.290148 6.085858 -77.848442
740 1 1 -9.892791 5.346028 -78.147561
741 1 1 -9.769415 4.555519 -77.547667
742 1 1 -8.954994 5.092594 -77.767367
743 1 1 -8.468947 5.030813 -76.895621
744 1 1 -9.464254 4.998717 -76.804329
745 1 1 -8.984941 4.383850 -76.178072
746 1 1 -9.516953 3.877818 -75.499180
747 1 1 -10.450057 3.942558 -75.852912
748 1 1 -10.701253 4.846016 -76.200278
749 1 1 -10.991874 4.236187 -76.937602
750 1 1 -11.232637 3.552629 -76.248559
751 1 1 -11.116196 3.029393 -75.404363
752 1 1 -10.301924 3.043466 -74.824050
753 1 1 -9.964949 3.542917 -74.025929
754 1 1 -10.545096 2.769988 -73.769005
755 1 1 -10.658200 1.984149 -74.377006
756 1 1 -11.434874 1.944024 -75.005629
757 1 1 -12.261068 1.456492 -74.723288
758 1 1 -12.243421 1.278395 -73.739433
759 1 1 -12.765651 1.072181 -72.911936
760 1 1 -12.543358 1.959449 -73.316091
761 1 1 -13.301341 2.599812 -73.192004
762 1 1 -12.684449 3.162056 -72.641253
763 1 1 -12.977957 3.239581 -71.688445
764 1 1 -12.047719 2.873073 -71.706604
765 1 1 -12.745927 2.196666 -71.941081
766 1 1 -12.910468 1.445475 -71.301833
767 1 1 -12.113984 2.047157 -71.361758
768 1 1 -11.187980 1.720453 -71.172598
769 1 1 -11.624243 0.860055 -71.436020
770 1 1 -11.977539 0.251146 -70.725800
771 1 1 -12.112362 -0.708823 -70.480276
772 1 1 -11.822442 -1.574597 -70.888175
773 1 1 -11.182096 -2.084963 -70.314168
774 1 1 -11.180288 -2.491867 -69.400699
775 1 1 -10.376637 -1.911041 -69.530260
776 1 1 -9.729695 -1.173150 -69.722568
777 1 1 -9.665161 -2.083294 -70.131803
778 1 1 -8.971913 -2.763623 -69.893982
779 1 1 -8.995024 -1.767467 -69.809488
780 1 1 -8.585345 -1.454292 -68.952700
781 1 1 -8.459934 -2.394237 -69.270150
782 1 1 -8.194456 -3.253599 -68.833093
783 1 1 -8.861679 -3.950063 -69.097198
784 1 1 -8.283897 -4.130782 -69.893131
785 1 1 -7.670613 -3.444245 -69.502554
786 1 1 -7.270795 -4.264447 -69.093390
787 1 1 -6.379087 -4.199529 -68.645458
788 1 1 -6.376732 -3.744158 -69.535757
789 1 1 -6.882960 -4.132846 -70.305598
790 1 1 -6.544784 -3.195349 -70.387681
791 1 1 -6.981866 -2.999512 -69.509838
792 1 1 -6.911581 -2.002012 -69.517238
793 1 1 -7.354262 -2.500385 -70.262662
794 1 1 -7.111097 -1.575325 -70.554439
795 1 1 -6.185395 -1.609876 -70.931111
796 1 1 -6.948022 -2.105169 -71.347147
797 1 1 -7.581448 -2.441534 -72.044018
798 1 1 -6.733066 -2.970879 -72.037487
799 1 1 -5.764628 -2.988877 -72.286091
800 1 1 -4.877933 -2.547164 -72.149483
801 1 1 -5.340576 -2.351094 -73.014074
802 1 1 -4.398459 -2.172347 -72.730411
803 1 1 -4.837183 -1.749775 -73.523477
804 1 1 -4.428151 -1.327842 -74.332590
805 1 1 -5.013495 -0.949973 -73.615243
806 1 1 -5.972629 -0.676164 -73.543893
807 1 1 -6.934415 -0.537221 -73.779824
808 1 1 -7.540536 -0.813028 -74.525845
809 1 1 -7.374863 -0.464828 -75.448509
810 1 1 -6.762989 -1.051722 -74.918259
811 1 1 -7.229950 -1.841611 -74.520739
812 1 1 -7.902553 -2.569070 -74.385064
813 1 1 -7.818279 -3.562152 -74.466834
814 1 1 -6.819012 -3.585894 -74.496860
815 1 1 -7.168327 -2.883871 -75.117459
816 1 1 -6.221476 -2.895163 -74.795987
817 1 1 -5.804578 -2.211355 -75.394821
818 1 1 -5.755887 -1.559058 -74.638423
819 1 1 -5.681071 -1.265154 -75.591326
820 1 1 -5.805427 -0.285678 -75.749950
821 1 1 -6.597936 -0.749126 -76.146365
822 1 1 -5.990343 -0.324120 -76.817335
823 1 1 -5.632746 0.504863 -76.387322
824 1 1 -5.136010 0.600067 -75.524658
825 1 1 -4.960850 0.371994 -74.566899
826 1 1 -5.104482 0.756562 -73.655046
827 1 1 -4.224123 0.314332 -73.826512
828 1 1 -3.763166 -0.043650 -73.014497
829 1 1 -4.165278 0.241999 -72.144607
830 1 1 -3.180711 0.215561 -72.317607
831 1 1 -3.397340 0.568360 -71.407329
832 1 1 -3.613613 1.409235 -70.911190
833 1 1 -2.849858 1.150552 -71.502595
834 1 1 -2.432582 0.289548 -71.211815
835 1 1 -1.571978 -0.203070 -71.082635
836 1 1 -2.372967 -0.796692 -71.004987
837 1 1 -2.027357 -1.727551 -71.123536
838 1 1 -2.277491 -1.155713 -71.904839
839 1 1 -2.909786 -1.815023 -71.498007
840 1 1 -2.560651 -2.156400 -70.625329
841 1 1 -2.709622 -2.819457 -71.358925
842 1 1 -3.656162 -2.745214 -71.044998
843 1 1 -4.133151 -2.084081 -70.465874
844 1 1 -4.979566 -2.147731 -70.994580
845 1 1 -4.542818 -1.266990 -71.177736
846 1 1 -3.956562 -0.477875 -70.994428
847 1 1 -2.995304 -0.215636 -70.909496
848 1 1 -3.582358 0.262726 -70.256397
849 1 1 -4.536940 0.425578 -70.006893
850 1 1 -4.568448 1.423754 -69.955385
851 1 1 -5.399158 0.960131 -69.647205
852 1 1 -5.460102 1.758233 -69.047772
853 1 1 -4.847835 2.331509 -68.503268
854 1 1 -4.908190 3.140788 -67.918953
855 1 1 -5.430775 3.477277 -67.135576
856 1 1 -4.604676 3.750105 -66.642498
857 1 1 -4.921713 4.539687 -67.167900
858 1 1 -4.095870 4.817642 -67.658537
859 1 1 -4.987669 4.867596 -68.108203
860 1 1 -5.639641 4.165505 -68.394563
861 1 1 -5.992568 4.285349 -69.322507
862 1 1 -6.468344 3.725337 -70.000757
863 1 1 -5.924716 2.973494 -70.373853
864 1 1 -6.493564 2.234408 -70.013071
865 1 1 -6.811121 2.844031 -69.286768
866 1 1 -7.683496 2.601176 -69.711013
867 1 1 -8.202948 3.369827 -70.084303
868 1 1 -8.981384 3.079328 -70.640762
869 1 1 -8.401472 2.350367 -70.277007
870 1 1 -7.550077 1.830099 -70.343699
871 1 1 -7.824345 1.169638 -71.042676
872 1 1 -7.260970 1.837867 -71.528555
873 1 1 -6.493557 2.468040 -71.646703
874 1 1 -6.605737 3.265392 -72.239700
875 1 1 -7.245585 2.498633 -72.291417
876 1 1 -7.756284 3.106159 -71.683059
877 1 1 -8.446235 3.781452 -71.422394
878 1 1 -8.518394 4.385482 -70.628707
879 1 1 -9.416055 3.963041 -70.503208
880 1 1 -10.008308 4.048046 -69.701953
881 1 1 -10.738053 3.377581 -69.835932
882 1 1 -10.088336 2.662284 -70.093261
883 1 1 -9.764686 1.945486 -69.475643
884 1 1 -9.006057 1.348599 -69.214477
885 1 1 -9.380732 1.026859 -70.084019
886 1 1 -10.148752 1.011697 -69.443773
887 1 1 -10.539340 0.362736 -68.790864
888 1 1 -10.980571 0.023977 -69.621862
889 1 1 -11.540637 0.673936 -70.135554
890 1 1 -11.905372 0.696574 -69.204718
891 1 1 -12.768090 0.302023 -68.888416
892 1 1 -13.757174 0.189204 -68.983208
893 1 1 -14.267284 0.276301 -68.127520
894 1 1 -15.047354 -0.329174 -68.285291
895 1 1 -15.649430 -0.629337 -69.025160
896 1 1 -16.549825 -0.467790 -68.621191
897 1 1 -16.838462 -1.187213 -67.989432
898 1 1 -17.167802 -0.324317 -67.606096
899 1 1 -17.710146 -0.936180 -68.181845
900 1 1 -18.295022 -0.131224 -68.281673
901 1 1 -17.367621 0.224440 -68.397563
902 1 1 -17.346141 -0.560237 -69.017096
903 1 1 -18.345043 -0.605640 -69.028712
904 1 1 -18.697901 -1.512862 -68.799716
905 1 1 -18.061571 -2.100004 -69.300063
906 1 1 -18.765612 -1.696432 -69.884405
907 1 1 -19.715317 -2.006572 -69.841130
908 1 1 -19.502219 -2.585655 -70.628056
909 1 1 -18.836791 -3.134391 -70.121997
910 1 1 -18.073405 -3.515597 -69.600534
911 1 1 -18.145832 -2.584207 -69.957280
912 1 1 -17.486484 -2.933833 -70.622879
913 1 1 -16.727766 -3.291011 -71.167647
914 1 1 -16.699369 -3.545621 -70.201020
915 1 1 -17.133526 -2.921015 -69.551886
916 1 1 -16.467071 -2.216022 -69.794423
917 1 1 -16.574056 -2.400345 -70.771449
918 1 1 -15.937760 -3.125562 -71.034484
919 1 1 -15.166522 -2.521079 -71.233964
920 1 1 -14.738419 -2.669567 -70.342516
921 1 1 -14.061096 -3.153278 -69.788208
922 1 1 -14.229350 -2.857302 -68.847948
923 1 1 -14.729064 -2.006289 -69.009389
924 1 1 -13.889180 -1.666360 -69.432523
925 1 1 -13.074464 -1.326469 -68.962723
926 1 1 -12.327923 -1.939303 -68.703665
927 1 1 -11.503710 -1.673536 -68.203625
928 1 1 -11.961484 -2.517357 -67.923610
929 1 1 -11.864214 -2.186966 -66.984791
930 1 1 -11.399849 -3.028073 -67.262105
931 1 1 -11.005118 -2.747332 -66.387250
932 1 1 -10.106736 -2.940764 -65.992923
933 1 1 -10.445282 -3.553793 -66.706773
934 1 1 -10.494286 -4.148473 -67.509241
935 1 1 -9.753015 -4.348829 -68.149846
936 1 1 -8.777648 -4.472169 -67.966960
937 1 1 -8.975190 -3.650901 -67.431707
938 1 1 -9.582403 -3.518322 -68.215107
939 1 1 -9.023621 -2.926117 -68.795672
940 1 1 -8.634496 -2.395291 -68.042808
941 1 1 -9.582312 -2.579710 -68.302877
942 1 1 -10.558347 -2.381665 -68.212694
943 1 1 -10.791159 -2.073859 -67.290168
944 1 1 -11.253355 -1.861847 -66.429107
945 1 1 -10.389862 -1.358481 -66.460769
946 1 1 -11.047457 -0.634665 -66.669717
947 1 1 -10.961079 -1.274938 -67.432993
948 1 1 -10.204459 -1.140809 -68.072943
949 1 1 -10.233960 -0.150989 -67.933708
950 1 1 -10.374780 0.604734 -67.294136
951 1 1 -9.687884 0.705299 -66.574371
952 1 1 -9.460251 0.536717 -65.615329
953 1 1 -9.584715 -0.351710 -65.173507
954 1 1 -9.898128 -0.707564 -66.053927
955 1 1 -10.490649 -0.054467 -65.582352
956 1 1 -11.443994 0.068789 -65.857925
957 1 1 -12.092420 -0.369022 -66.480714
958 1 1 -11.355594 0.159905 -66.901812
959 1 1 -11.840760 0.954344 -66.536464
960 1 1 -12.279721 0.840919 -65.645146
961 1 1 -11.286728 0.808797 -65.531422
962 1 1 -11.887326 1.606284 -65.588836
963 1 1 -12.082459 1.567260 -64.608836
964 1 1 -12.369567 0.715899 -64.169799
965 1 1 -13.194921 0.172907 -64.015041
966 1 1 -13.020505 1.157503 -64.002864
967 1 1 -13.957284 1.082459 -63.661084
968 1 1 -13.787070 1.702649 -64.426847
969 1 1 -14.120816 2.627369 -64.609895
970 1 1 -14.271830 1.952576 -65.332288
971 1 1 -14.667603 2.271129 -66.193617
972 1 1 -13.696999 2.127561 -66.000444
973 1 1 -13.007336 1.403899 -66.026497
974 1 1 -13.145824 0.842385 -65.210701
975 1 1 -12.734300 0.224048 -65.880259
976 1 1 -13.131460 0.015421 -66.773981
977 1 1 -13.319853 -0.849404 -66.308593
978 1 1 -12.630162 -1.562937 -66.431872
979 1 1 -11.756850 -1.341740 -65.997823
980 1 1 -11.269409 -1.165234 -65.142693
981 1 1 -10.965275 -2.117708 -65.125519
982 1 1 -11.620370 -2.213358 -64.376052
983 1 1 -12.538164 -2.600103 -64.286143
984 1 1 -13.066527 -2.432429 -65.118440
985 1 1 -13.175998 -1.502451 -64.767501
986 1 1 -13.951319 -0.882685 -64.889022
987 1 1 -14.416588 -0.044037 -64.605835
988 1 1 -15.177588 -0.292967 -64.006741
989 1 1 -15.231911 0.640244 -63.651543
990 1 1 -14.840785 1.514941 -63.365317
991 1 1 -14.776784 2.264206 -64.024488
992 1 1 -15.016905 1.677565 -64.797919
993 1 1 -15.653620 2.341324 -64.405468
994 1 1 -15.761324 3.053038 -65.099631
995 1 1 -16.117467 3.670945 -65.800598
996 1 1 -15.285351 4.085759 -65.432477
997 1 1 -15.130257 4.933799 -64.925749
998 1 1 -14.816219 4.212198 -64.308763
999 1 1 -13.991839 4.737010 -64.520823
1000 1 1 -13.954172 3.824686 -64.928556
1001 2 1 20.235122 -48.829593 -92.429878
1002 2 1 20.505371 -48.934195 -93.386969
1003 2 1 21.262889 -49.579502 -93.288247
1004 2 1 21.917913 -49.428224 -92.547937
1005 2 1 22.398910 -50.004925 -93.208284
1006 2 1 22.484420 -50.913359 -92.799095
1007 2 1 23.472295 -51.050526 -92.871811
1008 2 1 24.346938 -50.643413 -92.608639
1009 2 1 24.869558 -50.546788 -91.761567
1010 2 1 25.227571 -51.434499 -91.472092
1011 2 1 25.440210 -52.212519 -90.880933
1012 2 1 25.418782 -52.470219 -91.846920
1013 2 1 25.731270 -52.492788 -92.796573
1014 2 1 25.559954 -52.179446 -93.730633
1015 2 1 24.562720 -52.180983 -93.804944
1016 2 1 24.908232 -51.256382 -93.965364
1017 2 1 24.801667 -51.435577 -94.943389
1018 2 1 25.640201 -51.201145 -94.451554
1019 2 1 25.684460 -50.235747 -94.708553
1020 2 1 26.145216 -50.633332 -93.915061
1021 2 1 25.310322 -50.119226 -93.718476
1022 2 1 24.443136 -50.566526 -93.937364
1023 2 1 23.990986 -50.706957 -94.818181
1024 2 1 23.973731 -51.688001 -95.011197
1025 2 1 23.640887 -52.279730 -94.276982
1026 2 1 23.504712 -52.706700 -95.170936
1027 2 1 23.917324 -53.235207 -95.912847
1028 2 1 23.578180 -54.113508 -96.249847
1029 2 1 22.957567 -53.526320 -95.730183
1030 2 1 22.690264 -52.965162 -96.513541
1031 2 1 22.724647 -52.004446 -96.788938
1032 2 1 23.024748 -52.299415 -95.881781
1033 2 1 23.637259 -51.678905 -96.371471
1034 2 1 24.359310 -52.366737 -96.297115
1035 2 1 25.343274 -52.525512 -96.378390
1036 2 1 25.902223 -52.208719 -95.612088
1037 2 1 26.070699 -52.555104 -94.689248
1038 2 1 26.954222 -52.540244 -95.157400
1039 2 1 27.302710 -51.662313 -94.829082
1040 2 1 27.893905 -51.790042 -94.032732
1041 2 1 28.836759 -51.868356 -93.708860
1042 2 1 28.605391 -51.670906 -92.756241
1043 2 1 29.346791 -52.335627 -92.848286
1044 2 1 28.721490 -52.486810 -92.082686
1045 2 1 29.363760 -53.192589 -91.783745
1046 2 1 29.492159 -54.153280 -91.537601
1047 2 1 29.758018 -53.705817 -92.391472
1048 2 1 29.481619 -53.451416 -93.318232
1049 2 1 30.412263 -53.226754 -93.607070
1050 2 1 31.141099 -52.572468 -93.808836
1051 2 1 30.831001 -52.309161 -92.895321
1052 2 1 31.318708 -53.088954 -92.502811
1053 2 1 32.144224 -52.689576 -92.901585
1054 2 1 32.893585 -52.660881 -92.240045
1055 2 1 33.289681 -51.788607 -92.526832
1056 2 1 34.221707 -51.675811 -92.871222
1057 2 1 34.902371 -51.722897 -92.140141
1058 2 1 35.140986 -52.692084 -92.201284
1059 2 1 35.685994 -51.883037 -91.981265
1060 2 1 35.744031 -50.907868 -91.767541
1061 2 1 34.751467 -51.028799 -91.753625
1062 2 1 34.076341 -50.329898 -91.517528
1063 2 1 33.650657 -49.461053 -91.770315
1064 2 1 33.973571 -49.600007 -92.706487
1065 2 1 34.559109 -49.341127 -91.938290
1066 2 1 35.553028 -49.301505 -92.041031
1067 2 1 34.992046 -49.826785 -92.680860
1068 2 1 34.957428 -50.230925 -93.594902
1069 2 1 34.675821 -49.762972 -94.432587
1070 2 1 35.369622 -49.315085 -94.996536
1071 2 1 35.446792 -50.267420 -95.291669
1072 2 1 34.652915 -50.741425 -94.910777
1073 2 1 33.688737 -50.674447 -95.167436
1074 2 1 33.698394 -51.604847 -95.533856
1075 2 1 33.484256 -51.121203 -96.382522
1076 2 1 32.575446 -51.340611 -96.737381
1077 2 1 32.858867 -52.297574 -96.674971
1078 2 1 32.098102 -52.268640 -96.026588
1079 2 1 31.719493 -52.588755 -95.158152
1080 2 1 31.314490 -53.095761 -95.919018
1081 2 1 30.450678 -53.235615 -96.403032
1082 2 1 31.308807 -53.572658 -96.790351
1083 2 1 31.189592 -52.656714 -97.173542
1084 2 1 31.456935 -52.332427 -98.080937
1085 2 1 31.430456 -52.758092 -98.985430
1086 2 1 30.948986 -51.885563 -99.068366
1087 2 1 30.311795 -52.068398 -98.319662
1088 2 1 29.314773 -52.031814 -98.251776
1089 2 1 29.864052 -52.449926 -97.528260
1090 2 1 29.506268 -51.931235 -96.751762
1091 2 1 30.152280 -51.265300 -97.124856
1092 2 1 30.816555 -51.971118 -97.370945
1093 2 1 31.301578 -51.113694 -97.542922
1094 2 1 31.780487 -50.237147 -97.590990
1095 2 1 32.721631 -50.395787 -97.889456
1096 2 1 32.201235 -49.776159 -98.477035
1097 2 1 31.296546 -49.897669 -98.885412
1098 2 1 30.619771 -50.241540 -98.234467
1099 2 1 30.380987 -50.125073 -97.270404
1100 2 1 30.878569 -49.782189 -96.473634
1101 2 1 30.703157 -50.227206 -95.595460
1102 2 1 30.259223 -50.684050 -96.366314
1103 2 1 31.177996 -50.508815 -96.720075
1104 2 1 31.678884 -49.818865 -96.197504
1105 2 1 32.286334 -50.375069 -95.630369
1106 2 1 32.431654 -51.358565 -95.522587
1107 2 1 32.750543 -51.429503 -94.577453
1108 2 1 32.112330 -50.694865 -94.347254
1109 2 1 32.750255 -50.763779 -93.580245
1110 2 1 33.081249 -50.096498 -92.913028
1111 2 1 33.611662 -49.831350 -93.718235
1112 2 1 34.538957 -49.553439 -93.467458
1113 2 1 34.947675 -48.698658 -93.147615
1114 2 1 34.803705 -47.893721 -93.723244
1115 2 1 34.300005 -47.732941 -94.572029
1116 2 1 33.826417 -46.892539 -94.308519
1117 2 1 33.611095 -45.940997 -94.088964
1118 2 1 33.800593 -46.316266 -93.181625
1119 2 1 33.074435 -45.769444 -92.764875
1120 2 1 33.095075 -44.778884 -92.629355
1121 2 1 33.761897 -44.122814 -92.275914
1122 2 1 33.985154 -43.163430 -92.448363
1123 2 1 33.831009 -42.240164 -92.096484
1124 2 1 33.541857 -42.910718 -91.413295
1125 2 1 34.505703 -43.162073 -91.324858
1126 2 1 35.224394 -42.761144 -91.892960
1127 2 1 35.697528 -41.914580 -91.649090
1128 2 1 36.265166 -42.737391 -91.676827
1129 2 1 35.964617 -43.554427 -92.168887
1130 2 1 35.600805 -44.242118 -92.797156
1131 2 1 36.544728 -44.541598 -92.658156
1132 2 1 36.668035 -45.113349 -93.469264
1133 2 1 36.072535 -44.358596 -93.744451
1134 2 1 35.314774 -43.707461 -93.787124
1135 2 1 34.911969 -44.014021 -94.649545
1136 2 1 35.102640 -44.686443 -95.364732
1137 2 1 34.482055 -45.420096 -95.087915
1138 2 1 33.607426 -45.904882 -95.085476
1139 2 1 34.010366 -46.820036 -95.097014
1140 2 1 33.067546 -47.010418 -94.823434
1141 2 1 32.833363 -46.720095 -93.895603
1142 2 1 33.354009 -47.535151 -94.149791
1143 2 1 32.921172 -47.917408 -94.966206
1144 2 1 33.683270 -48.302025 -95.487048
1145 2 1 33.494285 -48.713285 -94.595336
1146 2 1 34.303051 -48.746053 -94.008118
1147 2 1 33.378691 -48.647168 -93.639634
1148 2 1 32.812638 -48.408073 -92.850700
1149 2 1 32.610699 -47.434891 -92.740533
1150 2 1 33.023884 -47.628825 -91.850776
1151 2 1 33.352815 -47.779046 -90.918446
1152 2 1 33.065164 -48.736434 -90.892676
1153 2 1 32.480540 -49.163797 -90.203055
1154 2 1 33.179452 -49.876456 -90.263380
1155 2 1 32.550264 -50.597732 -89.973752
1156 2 1 31.808279 -51.162116 -90.335593
1157 2 1 30.872886 -50.837355 -90.475484
1158 2 1 30.420913 -51.582350 -90.966099
1159 2 1 29.721689 -51.381173 -90.280086
1160 2 1 28.888222 -51.025835 -89.856922
1161 2 1 28.535083 -51.383527 -88.992428
1162 2 1 28.205425 -50.571991 -89.474854
1163 2 1 28.011721 -51.541889 -89.622428
1164 2 1 27.272403 -52.143232 -89.319451
1165 2 1 27.025182 -51.181484 -89.437453
1166 2 1 27.497230 -50.966544 -90.292422
1167 2 1 26.698562 -51.564020 -90.364206
1168 2 1 27.547588 -52.078441 -90.243682
1169 2 1 26.906846 -52.705122 -90.687213
1170 2 1 26.113320 -53.114577 -90.237033
1171 2 1 25.934748 -53.063462 -91.219631
1172 2 1 26.523773 -52.663005 -91.921545
1173 2 1 26.833816 -52.605935 -92.870553
1174 2 1 27.625835 -52.505153 -93.472674
1175 2 1 27.468806 -51.588324 -93.105568
1176 2 1 27.259809 -51.453738 -92.136957
1177 2 1 27.311367 -51.018433 -91.238152
1178 2 1 26.319059 -51.138856 -91.266860
1179 2 1 26.369000 -50.852797 -92.223770
1180 2 1 26.086797 -50.172744 -91.547094
1181 2 1 26.299692 -49.200420 -91.643324
1182 2 1 26.790941 -49.916581 -91.147554
1183 2 1 27.463829 -49.197806 -90.972672
1184 2 1 27.043220 -48.587151 -91.643634
1185 2 1 27.973413 -48.413405 -91.966981
1186 2 1 27.448013 -48.318070 -92.812478
1187 2 1 27.202040 -48.984947 -93.515878
1188 2 1 27.192315 -49.150502 -92.529725
1189 2 1 26.261131 -49.506792 -92.452560
1190 2 1 26.147236 -50.005570 -93.311774
1191 2 1 26.346292 -49.093834 -93.671098
1192 2 1 26.440622 -48.449561 -92.912142
1193 2 1 25.590334 -48.681903 -92.439882
1194 2 1 24.707593 -48.781134 -92.899144
1195 2 1 23.810299 -49.099595 -92.593455
1196 2 1 24.555930 -49.411682 -92.004697
1197 2 1 24.032732 -48.589818 -91.779301
1198 2 1 23.645441 -47.872676 -92.358709
1199 2 1 22.918323 -47.635999 -91.714285
1200 2 1 22.733579 -47.033236 -92.490524
1201 2 1 22.446528 -46.811911 -91.558528
1202 2 1 22.349429 -47.630227 -90.992020
1203 2 1 21.366934 -47.503550 -91.128606
1204 2 1 20.951055 -47.543921 -90.220082
1205 2 1 21.129609 -48.318247 -89.613009
1206 2 1 20.275064 -48.514820 -89.132267
1207 2 1 20.172753 -49.288340 -89.757727
1208 2 1 19.936100 -48.572515 -90.414681
1209 2 1 20.526710 -49.322614 -90.712223
1210 2 1 21.052230 -50.167111 -90.815440
1211 2 1 20.896206 -50.664674 -89.962159
1212 2 1 21.888754 -50.681917 -90.082788
1213 2 1 22.475104 -50.203672 -89.428972
1214 2 1 23.325178 -50.461584 -89.888160
1215 2 1 23.006557 -51.177794 -89.267254
1216 2 1 22.143754 -51.621260 -89.509965
1217 2 1 22.433757 -51.258338 -90.395507
1218 2 1 21.500017 -51.045932 -90.683627
1219 2 1 22.195570 -51.659727 -91.057072
1220 2 1 22.219647 -52.253773 -91.861142
1221 2 1 23.155400 -52.257795 -91.508510
1222 2 1 23.506918 -51.322060 -91.537408
1223 2 1 22.910754 -50.687315 -92.029024
1224 2 1 22.151343 -50.510788 -91.402818
1225 2 1 21.276979 -50.648331 -91.868188
1226 2 1 20.628015 -49.906706 -92.038005
1227 2 1 20.124796 -49.973241 -92.899599
1228 2 1 20.246036 -50.965359 -92.867935
1229 2 1 20.565961 -51.820471 -92.459976
1230 2 1 20.506597 -51.021382 -91.861701
1231 2 1 21.350971 -51.488425 -91.599206
1232 2 1 20.648233 -52.085151 -91.211806
1233 2 1 19.770438 -52.100127 -91.690607
1234 2 1 20.012990 -52.908506 -91.154237
1235 2 1 19.080265 -52.943147 -91.513157
1236 2 1 18.479667 -53.670806 -91.844511
1237 2 1 17.788399 -52.998875 -91.578695
1238 2 1 17.939307 -52.394908 -92.361288
1239 2 1 18.900494 -52.164173 -92.210022
1240 2 1 19.550366 -52.924007 -92.227860
1241 2 1 19.213239 -53.860585 -92.132109
1242 2 1 19.677061 -54.355822 -92.866689
1243 2 1 19.412307 -55.193538 -92.389054
1244 2 1 20.246492 -55.648697 -92.700448
1245 2 1 20.983288 -55.385461 -93.323215
1246 2 1 21.457865 -56.207391 -93.638187
1247 2 1 20.708742 -56.868080 -93.686212
1248 2 1 21.216434 -57.530594 -93.135464
1249 2 1 20.993063 -58.281282 -92.513715
1250 2 1 20.252871 -57.816521 -92.999630
1251 2 1 19.952931 -58.137978 -92.101464
1252 2 1 19.484263 -57.415821 -91.592700
1253 2 1 20.327620 -56.945768 -91.332316
1254 2 1 21.138441 -56.386119 -91.160961
1255 2 1 21.310088 -55.700863 -90.453174
1256 2 1 22.010702 -55.778954 -89.743920
1257 2 1 21.798013 -54.971792 -89.193237
1258 2 1 21.766526 -54.323246 -88.432713
1259 2 1 21.521502 -54.170324 -89.390094
1260 2 1 22.464349 -54.453327 -89.214167
1261 2 1 22.577357 -53.555580 -89.639938
1262 2 1 23.153770 -52.762623 -89.442540
1263 2 1 22.913462 -52.298684 -90.295190
1264 2 1 21.961426 -52.604186 -90.312393
1265 2 1 21.783782 -53.430000 -90.847626
1266 2 1 22.072085 -53.412293 -91.805002
1267 2 1 23.039535 -53.639678 -91.916073
1268 2 1 22.907476 -54.103891 -92.791897
1269 2 1 23.604842 -54.685331 -93.210953
1270 2 1 23.532516 -53.916752 -93.846607
1271 2 1 23.786913 -52.972158 -93.639184
1272 2 1 23.262130 -52.299600 -93.117390
1273 2 1 23.925463 -52.296059 -92.369074
1274 2 1 24.348176 -53.060437 -91.882207
1275 2 1 23.875310 -53.848285 -91.487626
1276 2 1 24.003493 -53.686803 -90.509111
1277 2 1 23.225655 -53.951620 -89.939163
1278 2 1 22.277528 -54.142277 -90.193534
1279 2 1 22.012513 -55.106323 -90.213098
1280 2 1 21.319132 -55.026887 -90.929278
1281 2 1 21.136015 -54.141804 -91.357175
1282 2 1 20.944317 -53.165441 -91.257341
1283 2 1 20.134777 -53.744898 -91.163140
1284 2 1 20.255177 -53.275924 -90.288173
1285 2 1 19.758845 -52.518092 -89.864682
1286 2 1 20.133230 -51.598255 -89.981877
1287 2 1 20.085713 -50.824318 -89.350398
1288 2 1 19.607995 -49.977437 -89.116778
1289 2 1 19.322666 -49.046309 -88.889650
1290 2 1 18.426040 -49.485761 -88.943904
1291 2 1 17.612069 -49.986708 -88.649789
1292 2 1 17.215218 -50.870706 -88.896886
1293 2 1 17.200799 -50.465048 -89.810797
1294 2 1 18.104374 -50.046022 -89.721528
1295 2 1 17.834612 -49.445080 -90.473922
1296 2 1 18.555881 -50.068013 -90.776782
1297 2 1 18.464522 -50.281740 -91.749394
1298 2 1 19.271483 -50.440007 -92.318398
1299 2 1 19.111724 -51.379532 -92.015461
1300 2 1 18.472304 -51.134715 -92.744301
1301 2 1 18.416808 -52.056393 -93.128266
1302 2 1 18.526211 -53.018270 -93.378915
1303 2 1 17.582820 -52.997304 -93.709935
1304 2 1 16.787043 -53.537363 -93.983931
1305 2 1 16.274985 -53.254767 -93.172799
1306 2 1 16.610088 -53.438852 -92.248776
1307 2 1 16.590519 -53.855168 -91.339766
1308 2 1 16.392398 -54.108237 -90.392822
1309 2 1 15.624375 -53.467849 -90.386149
1310 2 1 16.192625 -53.106786 -91.125558
1311 2 1 15.612601 -52.341195 -91.403842
1312 2 1 14.837105 -52.956479 -91.262306
1313 2 1 14.283115 -53.471494 -90.608201
1314 2 1 13.891617 -53.747543 -89.730404
1315 2 1 14.198861 -53.481370 -88.816756
1316 2 1 14.748251 -53.373842 -87.988138
1317 2 1 15.047288 -54.187067 -88.487379
1318 2 1 15.695672 -53.453601 -88.691402
1319 2 1 16.088089 -52.658071 -89.153075
1320 2 1 15.594552 -51.793811 -89.250416
1321 2 1 16.289311 -51.086918 -89.383128
1322 2 1 16.511254 -51.054366 -88.408612
1323 2 1 16.627800 -50.664364 -87.495203
1324 2 1 15.651074 -50.822720 -87.350534
1325 2 1 15.326037 -51.382216 -88.112974
1326 2 1 15.435329 -52.366326 -87.973040
1327 2 1 16.323991 -52.819338 -88.044168
1328 2 1 17.098029 -53.434677 -88.193241
1329 2 1 17.110856 -53.181842 -89.160666
1330 2 1 17.609005 -54.030177 -89.340043
1331 2 1 18.005554 -53.812314 -88.448256
1332 2 1 18.248174 -54.738658 -88.736393
1333 2 1 18.535686 -54.664438 -87.781496
1334 2 1 17.563719 -54.439368 -87.713500
1335 2 1 16.876682 -54.923628 -87.171770
1336 2 1 17.117337 -53.974043 -86.970840
1337 2 1 17.897155 -53.393468 -86.736711
1338 2 1 17.408165 -53.091021 -85.918533
1339 2 1 16.919980 -52.474835 -85.300479
1340 2 1 17.681753 -52.085281 -85.818117
1341 2 1 18.072579 -52.168335 -84.901407
1342 2 1 18.753823 -51.446690 -84.778380
1343 2 1 18.318797 -50.589404 -85.053722
1344 2 1 17.660593 -49.963729 -84.635036
1345 2 1 17.664981 -49.775708 -83.652881
1346 2 1 16.683405 -49.805198 -83.464094
1347 2 1 16.528671 -50.271175 -82.592933
1348 2 1 17.341039 -49.918117 -82.128811
1349 2 1 16.507676 -50.224209 -81.668580
1350 2 1 17.032374 -50.378203 -80.831336
1351 2 1 17.236890 -49.893163 -79.981095
1352 2 1 16.249063 -50.028776 -80.057292
1353 2 1 15.446051 -49.468658 -79.853723
1354 2 1 15.867689 -49.793470 -79.007131
1355 2 1 14.879635 -49.644077 -78.969290
1356 2 1 15.165618 -48.792852 -78.529256
1357 2 1 15.433918 -49.294966 -77.707127
1358 2 1 15.263386 -49.633076 -76.781600
1359 2 1 15.821906 -48.805245 -76.729149
1360 2 1 16.352319 -48.628134 -77.558181
1361 2 1 16.043928 -48.666329 -78.508673
1362 2 1 15.460036 -47.855880 -78.556027
1363 2 1 14.622432 -48.088571 -79.050268
1364 2 1 13.940470 -48.818700 -79.093163
1365 2 1 13.594769 -47.881904 -79.039274
1366 2 1 13.992296 -47.944018 -79.954760
1367 2 1 14.835549 -48.463880 -79.818131
1368 2 1 15.669311 -48.302777 -79.290035
1369 2 1 15.728782 -48.150532 -80.276587
1370 2 1 16.041621 -49.045209 -80.595468
1371 2 1 15.698578 -49.483345 -81.426346
1372 2 1 14.882781 -49.882793 -81.844577
1373 2 1 15.173373 -49.769123 -80.894506
1374 2 1 14.272333 -50.047477 -81.227140
1375 2 1 13.507715 -49.415163 -81.351798
1376 2 1 12.727840 -49.808602 -81.838626
1377 2 1 12.929220 -49.370959 -82.714933
1378 2 1 13.675980 -49.762098 -82.177011
1379 2 1 13.501355 -48.780557 -82.099018
1380 2 1 13.621928 -48.132098 -81.347378
1381 2 1 14.406319 -48.059995 -80.731316
1382 2 1 14.780330 -47.995991 -81.656529
1383 2 1 15.493309 -47.983618 -82.357604
1384 2 1 15.135110 -47.096459 -82.066671
1385 2 1 14.403844 -46.566942 -82.496626
1386 2 1 14.798774 -46.054999 -81.733773
1387 2 1 15.020933 -45.244910 -81.191187
1388 2 1 14.550231 -45.263097 -80.309082
1389 2 1 13.743941 -44.673596 -80.357923
1390 2 1 14.316503 -44.772073 -81.171848
1391 2 1 13.608315 -45.065655 -81.813939
1392 2 1 13.929527 -45.664936 -82.547209
1393 2 1 14.566798 -45.839510 -83.297815
1394 2 1 13.621647 -46.129900 -83.447358
1395 2 1 13.466437 -47.060869 -83.777824
1396 2 1 12.505608 -47.237512 -83.564268
1397 2 1 12.249166 -48.004803 -84.152062
1398 2 1 11.358086 -47.672602 -83.842840
1399 2 1 10.988577 -47.971052 -84.722835
1400 2 1 11.916758 -47.727140 -85.003879
1401 2 1 12.019716 -48.194012 -85.882191
1402 2 1 11.419200 -48.006009 -86.659388
1403 2 1 11.324375 -48.762192 -86.011935
1404 2 1 10.974353 -49.378982 -85.306914
1405 2 1 10.700076 -50.287776 -85.621344
1406 2 1 11.481560 -50.128385 -85.018122
1407 2 1 12.473860 -50.026331 -85.088303
1408 2 1 13.252286 -49.981013 -85.714402
1409 2 1 12.985804 -50.280886 -86.630406
1410 2 1 12.730012 -50.242406 -87.596372
1411 2 1 12.403417 -49.400558 -87.166688
1412 2 1 12.887566 -49.454965 -86.293396
1413 2 1 13.205100 -48.992114 -85.465784
1414 2 1 13.521555 -48.045262 -85.523476
1415 2 1 13.161373 -47.127467 -85.690575
1416 2 1 14.018550 -47.132678 -86.205571
1417 2 1 14.843917 -47.242447 -85.651747
1418 2 1 15.745109 -47.332567 -85.227800
1419 2 1 16.317554 -46.526744 -85.379310
1420 2 1 15.682952 -45.838121 -85.028483
1421 2 1 14.953301 -45.417693 -85.567788
1422 2 1 14.475740 -46.213001 -85.941179
1423 2 1 15.450491 -46.051569 -85.786906
1424 2 1 14.830053 -45.615860 -86.438990
1425 2 1 14.443360 -46.439904 -86.853020
1426 2 1 14.005790 -47.020790 -87.539390
1427 2 1 13.143853 -46.915543 -87.043419
1428 2 1 13.390957 -47.790428 -86.626867
1429 2 1 14.081928 -48.476138 -86.398042
1430 2 1 14.251356 -48.400185 -85.415430
1431 2 1 14.823748 -49.214095 -85.315841
1432 2 1 15.254147 -49.849781 -85.956669
1433 2 1 15.035792 -50.262849 -85.072534
1434 2 1 15.551445 -51.116412 -85.146911
1435 2 1 15.068816 -51.692976 -84.487636
1436 2 1 15.510370 -50.942367 -83.996092
1437 2 1 16.261903 -50.300057 -84.146545
1438 2 1 16.551929 -50.860523 -84.922279
1439 2 1 17.304470 -51.482762 -84.706638
1440 2 1 16.836450 -51.457949 -83.823269
1441 2 1 17.755783 -51.559133 -83.443021
1442 2 1 18.490513 -51.236642 -84.039823
1443 2 1 18.464098 -50.921838 -83.091034
1444 2 1 18.346532 -49.991828 -82.742810
1445 2 1 19.002673 -50.341151 -82.073891
1446 2 1 19.267650 -51.037741 -82.740636
1447 2 1 19.001337 -51.746892 -83.393463
1448 2 1 19.670357 -52.211044 -83.973958
1449 2 1 19.276044 -53.032544 -84.385851
1450 2 1 18.518524 -53.154325 -85.027203
1451 2 1 19.362295 -52.653700 -85.220655
1452 2 1 19.859952 -52.342930 -86.030445
1453 2 1 19.962029 -51.977101 -86.955513
1454 2 1 19.298197 -52.651388 -87.279030
1455 2 1 19.024917 -53.613287 -87.270748
1456 2 1 18.069817 -53.573888 -87.564399
1457 2 1 18.177495 -52.601615 -87.356814
1458 2 1 17.183132 -52.654559 -87.448683
1459 2 1 17.341279 -51.918626 -86.790358
1460 2 1 16.610517 -51.489594 -86.259398
1461 2 1 16.069696 -50.749013 -85.860584
1462 2 1 16.879115 -50.179279 -86.002865
1463 2 1 17.386196 -50.956357 -86.375716
1464 2 1 18.202753 -51.033403 -86.947818
1465 2 1 19.123676 -51.112651 -86.566217
1466 2 1 19.799590 -50.854099 -85.876078
1467 2 1 20.477322 -51.208049 -86.520593
1468 2 1 20.659218 -50.270879 -86.818296
1469 2 1 21.609554 -49.970397 -86.899354
1470 2 1 21.267822 -50.845503 -87.242003
1471 2 1 21.173520 -50.471624 -88.164674
1472 2 1 20.928151 -50.963353 -89.000136
1473 2 1 20.898514 -51.845290 -89.470571
1474 2 1 20.535690 -52.776645 -89.501153
1475 2 1 21.150530 -52.905689 -90.279175
1476 2 1 21.361876 -51.960793 -90.529183
1477 2 1 21.403199 -52.444751 -89.655068
1478 2 1 21.553667 -53.207302 -89.025882
1479 2 1 21.496060 -53.227990 -88.027757
1480 2 1 22.442729 -53.167258 -88.344189
1481 2 1 22.790445 -53.406165 -87.437537
1482 2 1 21.977690 -53.417482 -86.855041
1483 2 1 20.982797 -53.358990 -86.772780
1484 2 1 20.771510 -54.254610 -86.381344
1485 2 1 21.202720 -54.179831 -87.280492
1486 2 1 20.247573 -53.883702 -87.281955
1487 2 1 20.493718 -54.299592 -88.157425
1488 2 1 20.756881 -54.456197 -89.109381
1489 2 1 20.255499 -54.840799 -89.884427
1490 2 1 20.505466 -55.484492 -90.607736
1491 2 1 19.932603 -55.397114 -91.422717
1492 2 1 20.435370 -54.597679 -91.751548
1493 2 1 20.529374 -53.761919 -92.292535
1494 2 1 20.525229 -52.779123 -92.477185
1495 2 1 20.460413 -52.473740 -93.427206
1496 2 1 19.923373 -52.911668 -94.148183
1497 2 1 20.139142 -52.072434 -94.647313
1498 2 1 20.799653 -52.303176 -95.361794
1499 2 1 20.775322 -53.263365 -95.083504
1500 2 1 20.380234 -54.171097 -94.942335
1501 2 1 21.257070 -53.786684 -94.653572
1502 2 1 21.730940 -53.086008 -95.186958
1503 2 1 22.310447 -53.430210 -94.448245
1504 2 1 22.518725 -54.406062 -94.514076
1505 2 1 23.144410 -54.858830 -95.149308
1506 2 1 24.003410 -55.369885 -95.180017
1507 2 1 24.933450 -55.686190 -95.367037
1508 2 1 24.658416 -56.519728 -94.887902
1509 2 1 25.565510 -56.278398 -94.543027
1510 2 1 25.001042 -57.045231 -94.237506
1511 2 1 24.239042 -56.547931 -93.822719
1512 2 1 24.413559 -57.145015 -93.039753
1513 2 1 24.764335 -56.422492 -92.444003
1514 2 1 25.046844 -55.485201 -92.239862
1515 2 1 25.519243 -55.679440 -91.380146
1516 2 1 25.007541 -55.383218 -90.573664
1517 2 1 25.901585 -54.962506 -90.419757
1518 2 1 26.305475 -55.847048 -90.653121
1519 2 1 25.820347 -55.562370 -89.826314
1520 2 1 25.572591 -55.522058 -88.858331
1521 2 1 25.361262 -54.740807 -88.270975
1522 2 1 25.537048 -55.608921 -87.806778
1523 2 1 25.758356 -56.283221 -87.102263
1524 2 1 25.683490 -57.277004 -87.184677
1525 2 1 26.328043 -57.838364 -86.665614
1526 2 1 26.821900 -57.017174 -86.379691
1527 2 1 27.709841 -56.971595 -85.921999
1528 2 1 28.618156 -57.264418 -85.623303
1529 2 1 29.098290 -58.135124 -85.516803
1530 2 1 29.798448 -58.369697 -84.842449
1531 2 1 30.638278 -57.839565 -84.725635
1532 2 1 31.239403 -58.399626 -85.295705
1533 2 1 32.150966 -58.568793 -84.920957
1534 2 1 32.945393 -58.291399 -85.461269
1535 2 1 32.433025 -58.976156 -85.979523
1536 2 1 31.812574 -58.612691 -86.674457
1537 2 1 31.572970 -59.468228 -87.133419
1538 2 1 31.392035 -59.391270 -86.152940
1539 2 1 32.083999 -59.595707 -85.460559
1540 2 1 31.250964 -60.128060 -85.611070
1541 2 1 31.979672 -60.248665 -86.285191
1542 2 1 31.279250 -60.895300 -85.983076
1543 2 1 31.360353 -61.888039 -85.894248
1544 2 1 30.813561 -61.234891 -85.370400
1545 2 1 31.116207 -61.984395 -84.781630
1546 2 1 30.401462 -62.325918 -85.391959
1547 2 1 29.458509 -62.652551 -85.327537
1548 2 1 29.271515 -62.178527 -86.187964
1549 2 1 28.666207 -62.941123 -85.959823
1550 2 1 27.856243 -62.361073 -85.873205
1551 2 1 27.141535 -62.388436 -86.572092
1552 2 1 26.760279 -63.045984 -87.221918
1553 2 1 27.469230 -63.728002 -87.042362
1554 2 1 26.774313 -63.402138 -86.401346
1555 2 1 26.059977 -62.857353 -86.840589
1556 2 1 25.867190 -61.937432 -86.499153
1557 2 1 24.909637 -61.667660 -86.397584
1558 2 1 24.091122 -61.267146 -85.985732
1559 2 1 23.289677 -60.980045 -85.461081
1560 2 1 22.547177 -61.270653 -84.857557
1561 2 1 21.823501 -60.976982 -85.482097
1562 2 1 22.522792 -61.045133 -86.193678
1563 2 1 22.232455 -61.383856 -87.088648
1564 2 1 21.804216 -62.039510 -86.466772
1565 2 1 21.117415 -61.609923 -85.880462
1566 2 1 21.062423 -62.526941 -86.275498
1567 2 1 20.364477 -62.968138 -85.711392
1568 2 1 21.078027 -63.405801 -86.258472
1569 2 1 20.380466 -64.081989 -86.021451
1570 2 1 20.930799 -64.194071 -85.194063
1571 2 1 20.162169 -63.902365 -84.624750
1572 2 1 19.621334 -64.296394 -85.367878
1573 2 1 19.993235 -64.999907 -84.762272
1574 2 1 20.547224 -64.806017 -85.571902
1575 2 1 19.880427 -64.692577 -86.308457
1576 2 1 19.051071 -64.914562 -85.795728
1577 2 1 18.219730 -64.439181 -85.507829
1578 2 1 18.422977 -64.125420 -84.580335
1579 2 1 18.962178 -63.622045 -83.905149
1580 2 1 19.095637 -62.686664 -84.232640
1581 2 1 18.907117 -61.705321 -84.194882
1582 2 1 18.137483 -62.337916 -84.281400
1583 2 1 17.303339 -62.838881 -84.512135
1584 2 1 16.710547 -62.179262 -84.974196
1585 2 1 17.680276 -61.953743 -85.067835
1586 2 1 18.003802 -62.896514 -84.987130
1587 2 1 18.916093 -62.564475 -85.226870
1588 2 1 19.458276 -63.146014 -85.833376
1589 2 1 18.789070 -62.578936 -86.313569
1590 2 1 17.820574 -62.368464 -86.446674
1591 2 1 16.901617 -62.727163 -86.610539
1592 2 1 17.593750 -63.189658 -87.164661
1593 2 1 17.777793 -63.681006 -88.015957
1594 2 1 18.724422 -63.995099 -88.088344
1595 2 1 19.648512 -63.950714 -88.467933
1596 2 1 18.887263 -64.557010 -88.697943
1597 2 1 18.549091 -65.453742 -88.983445
1598 2 1 18.346964 -66.369183 -89.331458
1599 2 1 17.721581 -67.022184 -88.904275
1600 2 1 17.951801 -67.869795 -89.382349
1601 2 1 17.690556 -68.829998 -89.481146
1602 2 1 17.657861 -68.599566 -90.453686
1603 2 1 17.583262 -68.385710 -91.427698
1604 2 1 17.719812 -67.490976 -91.852912
1605 2 1 17.821772 -67.519881 -90.858543
1606 2 1 18.585199 -66.896685 -90.688823
1607 2 1 17.820413 -66.252461 -90.697692
1608 2 1 18.458738 -66.393768 -91.454378
1609 2 1 17.558246 -66.414621 -91.888750
1610 2 1 18.370374 -66.380042 -92.471204
1611 2 1 18.469564 -65.420816 -92.206540
1612 2 1 18.632821 -64.472759 -92.479548
1613 2 1 18.331068 -63.732811 -93.080733
1614 2 1 18.000885 -63.648753 -94.020900
1615 2 1 17.940850 -62.889479 -94.668896
1616 2 1 17.174206 -63.100260 -94.062406
1617 2 1 16.896033 -63.942051 -93.599797
1618 2 1 16.831565 -63.875708 -92.604085
1619 2 1 16.693416 -64.764630 -92.167355
1620 2 1 17.606409 -64.686963 -91.766841
1621 2 1 17.814092 -64.382186 -90.837337
1622 2 1 16.860838 -64.493096 -90.556256
1623 2 1 17.432733 -65.311730 -90.503582
1624 2 1 17.261557 -65.878070 -89.697382
1625 2 1 17.665724 -65.184242 -89.101353
1626 2 1 17.708402 -65.991899 -88.513246
1627 2 1 18.673934 -65.929886 -88.260459
1628 2 1 18.970306 -66.771628 -88.711717
1629 2 1 19.254874 -67.639077 -88.303608
1630 2 1 18.817544 -68.511813 -88.086638
1631 2 1 19.625860 -68.965758 -87.711726
1632 2 1 19.118940 -68.682951 -86.897446
1633 2 1 18.440545 -69.340320 -87.225541
1634 2 1 19.292179 -69.862581 -87.269859
1635 2 1 18.816804 -70.486773 -87.889861
1636 2 1 19.112686 -70.693428 -86.957258
1637 2 1 18.806538 -69.881619 -86.460026
1638 2 1 18.227366 -69.223219 -85.979330
1639 2 1 17.912699 -69.476635 -85.064582
1640 2 1 17.983197 -68.724091 -84.409824
1641 2 1 18.780360 -68.985998 -84.953824
1642 2 1 19.449184 -69.315049 -84.287190
1643 2 1 19.334066 -69.994940 -83.562969
1644 2 1 20.324077 -70.098853 -83.658268
1645 2 1 20.394673 -69.342697 -84.308840
1646 2 1 20.290564 -70.193530 -84.823859
1647 2 1 20.890367 -70.557868 -85.536245
1648 2 1 21.363633 -70.934980 -86.332364
1649 2 1 21.030976 -70.927396 -87.275382
1650 2 1 20.694163 -70.075286 -87.675963
1651 2 1 21.131630 -69.199405 -87.472358
1652 2 1 21.143798 -69.202909 -86.472438
1653 2 1 21.404740 -68.690834 -85.654094
1654 2 1 21.224510 -68.287844 -86.551377
1655 2 1 21.791055 -67.490718 -86.342530
1656 2 1 21.364800 -67.605639 -85.445256
1657 2 1 22.157245 -67.018731 -85.611301
1658 2 1 22.317884 -66.565305 -86.487999
1659 2 1 22.519396 -67.266782 -87.171609
1660 2 1 22.100946 -68.173006 -87.232081
1661 2 1 23.081008 -68.250644 -87.049186
1662 2 1 22.305010 -68.746991 -86.660000
1663 2 1 22.725397 -67.945387 -86.234905
1664 2 1 23.266409 -68.618447 -85.730627
1665 2 1 22.518864 -68.446374 -85.089092
1666 2 1 21.586944 -68.576813 -84.750695
1667 2 1 20.829554 -67.924605 -84.782061
1668 2 1 20.102383 -68.420694 -85.256526
1669 2 1 19.687929 -68.340728 -86.163076
1670 2 1 19.763752 -67.637899 -86.870382
1671 2 1 20.441826 -68.345592 -87.068843
1672 2 1 20.898910 -68.157386 -87.938126
1673 2 1 21.505506 -68.884862 -88.258782
1674 2 1 20.557993 -68.854341 -88.577039
1675 2 1 19.627356 -68.584877 -88.824635
1676 2 1 19.953540 -69.164233 -89.571596
1677 2 1 19.078974 -69.440758 -89.173265
1678 2 1 19.752353 -70.173090 -89.274505
1679 2 1 19.179595 -70.927899 -89.594212
1680 2 1 19.750814 -71.719308 -89.811882
1681 2 1 19.158433 -71.826197 -90.610417
1682 2 1 19.150152 -70.827071 -90.651396
1683 2 1 18.785454 -70.043812 -91.154884
1684 2 1 19.756287 -69.992496 -91.389083
1685 2 1 20.573147 -70.499436 -91.113852
1686 2 1 20.222095 -70.952570 -90.294442
1687 2 1 20.151558 -71.120880 -89.311235
1688 2 1 20.424089 -70.296211 -88.815606
1689 2 1 20.921057 -70.747249 -88.074263
1690 2 1 21.590877 -70.239642 -88.616181
1691 2 1 22.375382 -70.582057 -88.099166
1692 2 1 23.141012 -71.147180 -88.406486
1693 2 1 23.536083 -70.556825 -87.702640
1694 2 1 22.792349 -70.416994 -87.048953
1695 2 1 23.601028 -69.977085 -86.658414
1696 2 1 23.663744 -70.973936 -86.609889
1697 2 1 23.610715 -71.967699 -86.707983
1698 2 1 24.049505 -72.227193 -85.847677
1699 2 1 24.900667 -72.515529 -85.409059
1700 2 1 25.540405 -71.759075 -85.545120
1701 2 1 25.848229 -70.926905 -85.083886
1702 2 1 26.383457 -70.102741 -85.269050
1703 2 1 26.707416 -70.023241 -86.211775
1704 2 1 26.758400 -69.085007 -86.554001
1705 2 1 27.459945 -69.259612 -85.863097
1706 2 1 27.915469 -69.902180 -85.246977
1707 2 1 28.660781 -69.240431 -85.165745
1708 2 1 29.586035 -68.954854 -85.415444
1709 2 1 29.607905 -68.075365 -85.890860
1710 2 1 30.068990 -68.938286 -86.097665
1711 2 1 29.317687 -69.548601 -86.348782
1712 2 1 28.362207 -69.253881 -86.362838
1713 2 1 27.828314 -70.062046 -86.611491
1714 2 1 28.264119 -70.498581 -85.824400
1715 2 1 29.038629 -70.887488 -86.323286
1716 2 1 29.921730 -71.306923 -86.533538
1717 2 1 30.775197 -70.788609 -86.479273
1718 2 1 30.747957 -69.938941 -85.952659
1719 2 1 31.339071 -70.671558 -85.615231
1720 2 1 32.130388 -70.303846 -85.126760
1721 2 1 32.960048 -70.820357 -84.914910
1722 2 1 33.669605 -70.118826 -84.981110
1723 2 1 34.184897 -70.677090 -84.330867
1724 2 1 34.741607 -70.704786 -85.161112
1725 2 1 34.194483 -71.304063 -85.745511
1726 2 1 34.452364 -71.648454 -86.648225
1727 2 1 35.304490 -71.335708 -87.067832
1728 2 1 36.155648 -71.748043 -86.743010
1729 2 1 35.760376 -70.932347 -86.320635
1730 2 1 34.835061 -70.801722 -85.964644
1731 2 1 34.403129 -70.520576 -86.821611
1732 2 1 34.116353 -70.254698 -85.901248
1733 2 1 34.700943 -69.443370 -85.901165
1734 2 1 34.498686 -69.509487 -86.878263
1735 2 1 34.525563 -68.634195 -86.395415
1736 2 1 33.708121 -68.492723 -85.837047
1737 2 1 32.731594 -68.659822 -85.972960
1738 2 1 31.744148 -68.625792 -86.127208
1739 2 1 31.278330 -69.091599 -85.374854
1740 2 1 30.621110 -68.347576 -85.495233
1741 2 1 30.225032 -67.779113 -84.774142
1742 2 1 29.514121 -67.270583 -85.259943
1743 2 1 30.281580 -66.762924 -85.651463
1744 2 1 30.380685 -66.553743 -86.624305
1745 2 1 31.294534 -66.587441 -86.219650
1746 2 1 31.923568 -67.091587 -86.811388
1747 2 1 32.649863 -66.404517 -86.832140
1748 2 1 33.522851 -66.194977 -87.272577
1749 2 1 34.291117 -66.557991 -86.745332
1750 2 1 34.266503 -66.778171 -85.770183
1751 2 1 34.539743 -67.126005 -84.873327
1752 2 1 34.882863 -67.498332 -84.010980
1753 2 1 35.831189 -67.183669 -83.970180
1754 2 1 36.147951 -68.090701 -84.247589
1755 2 1 35.834161 -68.604582 -83.449177
1756 2 1 35.573616 -68.209787 -82.568124
1757 2 1 36.062399 -67.341568 -82.653484
1758 2 1 36.451193 -67.835271 -83.431363
1759 2 1 37.083995 -67.210664 -83.888996
1760 2 1 37.493123 -67.588440 -84.719597
1761 2 1 38.351418 -67.251204 -85.106380
1762 2 1 37.971891 -68.171548 -85.200860
1763 2 1 38.879797 -68.262335 -84.791638
1764 2 1 39.254160 -67.735640 -84.028457
1765 2 1 39.811426 -67.723939 -84.858708
1766 2 1 40.739560 -67.446778 -84.610211
1767 2 1 40.972259 -67.710192 -85.546408
1768 2 1 40.640407 -66.769090 -85.481593
1769 2 1 39.819244 -66.320502 -85.834382
1770 2 1 40.209536 -65.503897 -85.409143
1771 2 1 39.393308 -65.207762 -84.913084
1772 2 1 39.927236 -65.121396 -84.071976
1773 2 1 39.462256 -65.136462 -83.186783
1774 2 1 39.282752 -65.610880 -82.324979
1775 2 1 39.710962 -66.405012 -81.893712
1776 2 1 40.002570 -66.929914 -82.693364
1777 2 1 40.239991 -65.967785 -82.827307
1778 2 1 40.531038 -65.295440 -82.146687
1779 2 1 41.291889 -65.095570 -82.764067
1780 2 1 40.621603 -64.455841 -82.387951
1781 2 1 40.797603 -63.530329 -82.723288
1782 2 1 41.763408 -63.562104 -82.465971
1783 2 1 42.621242 -63.295578 -82.905384
1784 2 1 42.430601 -62.761915 -83.729313
1785 2 1 41.702071 -63.420835 -83.916579
1786 2 1 41.932585 -62.758700 -84.629629
1787 2 1 42.094801 -61.892394 -85.102070
1788 2 1 41.677295 -60.983792 -85.090682
1789 2 1 42.344713 -60.336228 -85.458397
1790 2 1 42.258520 -61.236418 -85.885280
1791 2 1 42.071143 -61.723572 -86.738258
1792 2 1 41.184092 -61.898552 -86.311030
1793 2 1 40.226517 -62.002097 -86.042092
1794 2 1 40.024782 -62.918488 -86.387823
1795 2 1 40.262618 -62.932186 -85.416614
1796 2 1 41.022995 -62.284812 -85.468894
1797 2 1 41.939417 -62.497414 -85.807967
1798 2 1 41.946725 -62.554121 -86.806331
1799 2 1 41.716534 -62.851404 -87.732956
1800 2 1 41.586799 -63.665283 -88.299322
1801 2 1 41.963731 -64.180582 -89.068989
1802 2 1 42.589423 -63.406203 -89.163044
1803 2 1 43.154986 -63.461940 -88.340225
1804 2 1 44.048915 -63.023664 -88.434056
1805 2 1 44.018170 -62.272665 -87.774469
1806 2 1 43.658591 -61.342505 -87.848663
1807 2 1 43.434097 -61.870526 -88.667685
1808 2 1 44.246666 -62.368176 -88.971125
1809 2 1 44.796064 -61.562714 -89.193366
1810 2 1 45.130076 -60.775863 -88.674422
1811 2 1 44.800469 -59.984241 -89.188905
1812 2 1 44.622030 -59.586924 -90.089072
1813 2 1 43.841391 -59.872675 -89.533239
1814 2 1 43.197199 -60.489402 -89.985637
1815 2 1 42.218414 -60.481739 -90.190384
1816 2 1 41.259656 -60.718755 -90.033516
1817 2 1 40.841358 -61.521140 -90.459199
1818 2 1 41.253465 -62.175311 -91.093412
1819 2 1 40.626245 -62.873832 -90.748936
1820 2 1 40.707885 -63.498836 -91.525277
1821 2 1 41.356639 -63.950023 -92.138096
1822 2 1 41.090129 -64.851365 -91.796695
1823 2 1 41.733877 -65.257941 -92.444989
1824 2 1 42.519534 -65.776388 -92.107416
1825 2 1 41.648049 -65.541617 -91.676839
1826 2 1 41.442843 -64.776463 -91.066570
1827 2 1 41.979354 -64.828890 -90.224307
1828 2 1 42.130549 -63.920376 -90.613849
1829 2 1 41.734150 -63.007142 -90.708035
1830 2 1 41.141360 -63.753006 -90.404247
1831 2 1 41.109078 -64.303124 -89.569784
1832 2 1 40.147649 -64.098282 -89.753346
1833 2 1 40.395292 -64.966905 -89.324200
1834 2 1 41.170577 -65.393950 -89.789566
1835 2 1 42.014017 -65.649939 -90.261878
1836 2 1 42.933940 -65.859072 -89.930208
1837 2 1 42.667134 -66.734139 -89.526385
1838 2 1 43.053288 -67.068015 -88.666494
1839 2 1 43.996277 -67.389823 -88.751415
1840 2 1 44.583929 -67.015253 -89.468606
1841 2 1 44.673827 -66.888321 -90.456435
1842 2 1 44.689895 -66.698368 -91.438097
1843 2 1 44.475848 -65.993276 -92.114136
1844 2 1 43.722622 -66.647258 -92.184558
1845 2 1 42.953477 -66.838535 -91.574780
1846 2 1 42.540487 -66.528896 -92.431263
1847 2 1 41.717166 -67.084445 -92.315036
1848 2 1 41.896848 -67.706140 -93.077406
1849 2 1 42.395576 -68.271315 -93.734558
1850 2 1 42.849413 -68.492115 -94.597854
1851 2 1 43.170598 -67.553530 -94.723937
1852 2 1 43.465969 -67.407897 -93.779719
1853 2 1 43.731192 -66.445535 -93.839027
1854 2 1 44.195341 -66.008879 -93.068380
1855 2 1 44.957226 -66.224193 -93.679258
1856 2 1 45.739287 -66.757859 -93.357417
1857 2 1 46.686525 -66.548879 -93.114377
1858 2 1 47.661003 -66.752245 -93.019330
1859 2 1 48.461161 -66.200467 -92.784196
1860 2 1 48.948133 -66.787080 -92.137092
1861 2 1 48.714659 -65.824679 -91.998258
1862 2 1 48.202108 -66.564116 -91.561767
1863 2 1 48.756855 -66.186476 -90.820388
1864 2 1 47.847737 -66.125702 -90.408308
1865 2 1 47.469692 -65.226691 -90.629355
1866 2 1 47.330983 -66.111083 -91.075013
1867 2 1 46.488332 -66.580004 -90.810341
1868 2 1 46.430553 -66.609640 -89.812451
1869 2 1 46.741460 -67.559009 -89.857578
1870 2 1 46.964321 -67.238381 -90.778193
1871 2 1 46.767559 -66.647195 -91.560358
1872 2 1 46.213447 -67.145013 -92.227544
1873 2 1 46.355648 -66.159746 -92.132525
1874 2 1 45.915261 -65.795598 -91.311882
1875 2 1 45.867549 -65.092559 -90.602333
1876 2 1 46.716064 -65.245825 -91.108823
1877 2 1 46.867369 -64.793681 -91.987841
1878 2 1 47.712107 -64.746110 -91.454778
1879 2 1 47.281053 -63.982181 -91.934992
1880 2 1 47.174637 -63.460601 -91.088452
1881 2 1 47.950280 -63.180806 -91.654220
1882 2 1 48.515406 -62.680813 -92.310452
1883 2 1 48.433531 -63.668050 -92.173852
1884 2 1 48.139581 -64.283082 -92.905514
1885 2 1 48.892363 -64.877465 -92.622623
1886 2 1 49.567836 -65.256487 -91.990105
1887 2 1 49.435467 -65.883816 -91.222682
1888 2 1 50.183058 -66.426522 -90.839829
1889 2 1 49.338568 -66.959962 -90.792102
1890 2 1 49.815003 -67.656022 -91.329233
1891 2 1 49.181550 -68.375254 -91.043850
1892 2 1 48.646949 -69.125819 -90.655451
1893 2 1 48.943956 -68.788728 -89.762055
1894 2 1 49.830982 -68.985471 -90.179758
1895 2 1 50.092364 -68.866009 -89.221943
1896 2 1 51.024239 -69.035825 -89.542522
1897 2 1 50.746437 -69.173561 -88.591810
1898 2 1 50.867585 -69.631319 -87.711025
1899 2 1 50.779488 -70.618282 -87.845728
1900 2 1 49.792903 -70.776108 -87.803992
1901 2 1 50.477238 -71.154099 -87.180446
1902 2 1 50.938135 -71.707840 -86.486944
1903 2 1 50.518303 -72.603919 -86.631107
1904 2 1 50.541541 -73.585446 -86.441197
1905 2 1 49.558519 -73.730468 -86.553603
1906 2 1 49.262583 -74.183908 -87.394326
1907 2 1 50.239040 -74.006968 -87.270939
1908 2 1 50.986932 -73.351446 -87.375570
1909 2 1 50.820307 -72.573603 -87.981537
1910 2 1 51.261796 -73.270971 -88.546130
1911 2 1 50.906185 -74.074440 -88.068660
1912 2 1 51.807119 -74.422554 -87.809557
1913 2 1 51.547586 -75.362316 -88.032021
1914 2 1 51.807458 -76.311267 -88.210794
1915 2 1 52.336063 -77.075985 -87.842306
1916 2 1 52.187366 -77.017610 -86.855148
1917 2 1 52.342691 -77.985268 -86.656371
1918 2 1 52.373039 -77.992709 -87.655882
1919 2 1 52.869034 -78.785428 -88.010262
1920 2 1 53.478151 -79.561746 -87.848066
1921 2 1 54.470151 -79.466649 -87.765044
1922 2 1 54.326348 -79.773545 -86.824228
1923 2 1 55.123040 -79.181797 -86.947172
1924 2 1 55.069883 -78.399132 -86.327003
1925 2 1 54.077132 -78.353417 -86.438153
1926 2 1 53.095341 -78.277276 -86.264115
1927 2 1 52.865757 -78.643608 -85.362398
1928 2 1 52.356642 -78.714920 -86.220138
1929 2 1 51.761035 -78.085833 -85.720638
1930 2 1 51.009018 -78.227807 -86.364310
1931 2 1 50.477109 -77.605642 -86.938752
1932 2 1 49.706911 -77.142073 -87.376813
1933 2 1 50.071366 -76.293369 -86.993573
1934 2 1 51.047847 -76.295195 -86.777977
1935 2 1 50.768046 -75.864962 -85.919717
1936 2 1 49.856915 -75.641300 -86.265861
1937 2 1 48.901632 -75.936616 -86.250930
1938 2 1 48.531985 -75.716947 -87.153762
1939 2 1 48.655995 -74.753749 -86.915286
1940 2 1 49.611374 -75.042528 -86.977393
1941 2 1 49.036561 -74.963366 -86.162947
1942 2 1 49.559542 -74.559723 -85.412237
1943 2 1 49.116070 -73.734222 -85.063123
1944 2 1 49.452652 -73.951577 -84.146897
1945 2 1 50.224886 -74.187336 -83.556921
1946 2 1 49.867013 -73.305646 -83.249432
1947 2 1 49.255694 -73.376071 -82.461188
1948 2 1 48.954841 -72.590126 -81.921024
1949 2 1 48.612350 -71.651447 -81.881249
1950 2 1 48.200827 -71.015443 -81.228449
1951 2 1 48.446230 -70.095247 -81.533434
1952 2 1 48.888537 -70.649904 -80.828650
1953 2 1 49.347717 -69.979436 -81.411425
1954 2 1 49.022492 -69.356091 -82.122529
1955 2 1 49.072256 -68.875576 -81.246955
1956 2 1 49.801739 -68.446705 -81.779800
1957 2 1 50.686290 -68.083696 -81.486896
1958 2 1 50.787196 -68.307176 -80.517424
1959 2 1 51.725094 -68.575471 -80.737346
1960 2 1 51.235212 -67.723547 -80.922389
1961 2 1 51.037995 -66.751748 -81.051661
1962 2 1 50.893695 -65.815014 -81.370577
1963 2 1 51.840928 -66.101995 -81.513377
1964 2 1 52.545731 -66.810293 -81.473800
1965 2 1 51.999749 -66.721933 -80.640676
1966 2 1 52.204893 -65.917646 -80.082968
1967 2 1 51.432451 -65.397696 -80.447641
1968 2 1 50.599953 -65.739009 -80.011233
1969 2 1 49.773715 -65.558174 -79.477725
1970 2 1 49.994675 -66.126030 -78.684809
1971 2 1 50.713573 -66.502028 -78.100163
1972 2 1 49.896493 -66.116257 -77.671722
1973 2 1 49.397855 -65.263196 -77.825500
1974 2 1 48.514905 -65.055031 -77.404708
1975 2 1 49.187333 -64.436118 -76.998769
1976 2 1 48.320872 -63.955238 -76.864608
1977 2 1 47.456362 -63.551585 -76.565132
1978 2 1 47.967261 -63.354736 -77.401930
1979 2 1 48.549021 -62.967604 -76.686609
1980 2 1 48.785672 -63.706151 -76.055306
1981 2 1 49.547075 -63.078061 -76.215824
1982 2 1 49.389941 -62.488321 -75.423665
1983 2 1 49.634286 -62.097154 -74.536375
1984 2 1 50.603753 -61.953182 -74.734884
1985 2 1 50.754015 -62.934288 -74.856757
1986 2 1 51.264892 -62.258850 -74.324978
1987 2 1 51.403605 -61.613671 -73.573645
1988 2 1 52.083741 -62.202567 -74.010241
1989 2 1 52.221220 -62.874746 -73.282728
1990 2 1 52.930755 -63.012748 -72.591703
1991 2 1 53.135481 -62.524217 -73.439893
1992 2 1 53.056111 -61.604787 -73.825054
1993 2 1 53.694321 -61.477591 -73.065772
1994 2 1 53.930723 -62.275396 -73.620408
1995 2 1 54.778579 -62.446831 -73.118660
1996 2 1 55.224460 -63.340335 -73.065367
1997 2 1 54.802530 -63.107221 -73.941514
1998 2 1 55.462358 -62.375537 -74.112590
1999 2 1 56.369088 -62.752284 -74.302068
2000 2 1 56.440494 -63.035551 -75.258447
2001 3 1 94.714209 -69.825685 66.986581
2002 3 1 94.582086 -70.636650 67.556564
2003 3 1 93.626740 -70.488593 67.812285
2004 3 1 93.318097 -70.952000 66.981627
2005 3 1 92.401867 -70.600920 67.174670
2006 3 1 91.515204 -70.380232 66.768313
2007 3 1 91.137918 -70.565901 67.675607
2008 3 1 91.336927 -71.345174 68.269853
2009 3 1 90.694246 -70.792444 68.800373
2010 3 1 89.723578 -70.709368 68.574760
2011 3 1 89.638268 -69.744775 68.824327
2012 3 1 89.635455 -70.524509 69.450431
2013 3 1 89.390908 -71.455250 69.722311
2014 3 1 88.934866 -70.904293 70.421219
2015 3 1 88.424929 -71.529572 69.830464
2016 3 1 87.774691 -71.619989 69.076133
2017 3 1 86.968983 -71.562763 68.486590
2018 3 1 86.327656 -71.669968 67.726849
2019 3 1 86.940578 -70.882983 67.656274
2020 3 1 86.171464 -70.405515 67.231433
2021 3 1 86.157581 -70.216476 66.249562
2022 3 1 86.699944 -70.696262 65.559890
2023 3 1 87.587048 -70.420342 65.189869
2024 3 1 87.415236 -70.377968 64.205651
2025 3 1 87.270652 -70.410560 63.216695
2026 3 1 87.583602 -71.342920 63.397712
2027 3 1 87.334997 -71.996434 64.112634
2028 3 1 88.288021 -71.981590 63.810101
2029 3 1 88.551375 -72.380556 64.688435
2030 3 1 88.893830 -71.564757 65.154479
2031 3 1 88.844210 -70.691627 64.669524
2032 3 1 89.343237 -71.430253 64.216308
2033 3 1 90.194660 -71.773312 63.819585
2034 3 1 90.689885 -71.475476 63.003468
2035 3 1 91.366720 -71.430154 62.268731
2036 3 1 91.023933 -72.230855 61.777433
2037 3 1 91.745762 -72.911067 61.905011
2038 3 1 92.227590 -73.310195 61.124922
2039 3 1 92.893536 -72.852606 61.714098
2040 3 1 92.892007 -72.280310 62.534143
2041 3 1 92.587836 -72.611230 63.427436
2042 3 1 92.892739 -71.754073 63.842545
2043 3 1 93.528162 -71.271587 63.239681
2044 3 1 94.081688 -71.414502 62.419203
2045 3 1 94.987411 -71.600654 62.800008
2046 3 1 94.325740 -71.544152 63.547670
2047 3 1 94.377323 -70.552940 63.669486
2048 3 1 94.012617 -69.819905 63.095336
2049 3 1 93.326521 -69.516132 62.434281
2050 3 1 93.015712 -70.411664 62.752749
2051 3 1 92.149817 -69.911585 62.764851
2052 3 1 91.496969 -70.642146 62.564676
2053 3 1 91.736840 -70.406247 63.506384
2054 3 1 92.728277 -70.532607 63.539355
2055 3 1 92.950805 -70.629769 64.509428
2056 3 1 91.961977 -70.491781 64.565801
2057 3 1 91.095540 -70.149837 64.929617
2058 3 1 91.125817 -69.316086 65.480927
2059 3 1 91.868966 -68.852235 64.998670
2060 3 1 91.775170 -68.489144 64.071650
2061 3 1 92.470326 -68.128677 63.449700
2062 3 1 92.077851 -67.281759 63.808438
2063 3 1 93.062030 -67.350753 63.645243
2064 3 1 92.842486 -67.547940 64.600711
2065 3 1 92.372547 -66.733617 64.941349
2066 3 1 92.571364 -67.009562 65.881735
2067 3 1 93.120504 -66.530264 66.566365
2068 3 1 93.418320 -65.576789 66.613163
2069 3 1 94.007337 -66.383089 66.667371
2070 3 1 94.705258 -66.883947 66.155464
2071 3 1 93.764618 -66.763140 65.838284
2072 3 1 93.912976 -65.834356 65.498650
2073 3 1 94.232713 -66.575527 64.908368
2074 3 1 95.061085 -66.637898 65.465062
2075 3 1 95.270784 -66.347927 64.531284
2076 3 1 95.071651 -65.830463 63.699071
2077 3 1 94.567861 -65.955518 62.844345
2078 3 1 95.281595 -65.262382 62.743613
2079 3 1 95.915853 -64.501887 62.604459
2080 3 1 95.370881 -63.774891 62.186747
2081 3 1 95.769910 -62.903026 62.470695
2082 3 1 96.747782 -63.089316 62.565890
2083 3 1 97.546898 -63.410015 62.057395
2084 3 1 97.575065 -62.552238 62.570643
2085 3 1 96.972884 -61.754968 62.528954
2086 3 1 96.033568 -62.036098 62.725555
2087 3 1 96.349731 -61.252140 62.191278
2088 3 1 95.730747 -61.045875 61.433443
2089 3 1 96.149562 -60.437168 60.759595
2090 3 1 95.201534 -60.227493 60.998926
2091 3 1 94.947746 -59.296915 60.735080
2092 3 1 94.283064 -59.518986 61.448440
2093 3 1 93.614284 -60.181231 61.786324
2094 3 1 94.446722 -60.274530 62.332530
2095 3 1 94.946844 -60.921645 62.907961
2096 3 1 95.632222 -61.057008 63.623456
2097 3 1 95.109785 -61.901712 63.739799
2098 3 1 94.383653 -61.244313 63.941191
2099 3 1 94.257670 -62.221810 64.110392
2100 3 1 93.820130 -61.587380 63.473166
2101 3 1 93.827336 -62.333143 62.806994
2102 3 1 94.399346 -61.812389 62.173259
2103 3 1 93.567218 -61.359647 62.493554
2104 3 1 93.516320 -60.988275 61.566466
2105 3 1 92.825785 -60.948980 62.288696
2106 3 1 91.940983 -61.231377 61.918052
2107 3 1 92.267725 -60.479549 61.345344
2108 3 1 91.719417 -59.871450 61.919429
2109 3 1 91.292251 -58.974196 61.807788
2110 3 1 91.668275 -58.299688 61.172457
2111 3 1 92.256726 -57.636199 60.710389
2112 3 1 92.924399 -57.173884 61.293894
2113 3 1 93.770622 -56.670927 61.117994
2114 3 1 94.496238 -56.164386 61.583718
2115 3 1 95.018029 -56.409355 60.766574
2116 3 1 95.193278 -55.459390 61.025136
2117 3 1 95.997365 -55.700505 61.568558
2118 3 1 96.632109 -54.967834 61.323010
2119 3 1 97.382263 -55.375017 60.801983
2120 3 1 97.691411 -54.453329 60.567634
2121 3 1 97.077565 -53.972346 61.193612
2122 3 1 97.272076 -54.657495 61.895564
2123 3 1 97.176415 -55.629482 62.110249
2124 3 1 96.575254 -55.228141 62.801286
2125 3 1 96.432304 -54.241492 62.723259
2126 3 1 97.120569 -54.789772 63.198316
2127 3 1 96.680056 -54.618493 64.079572
2128 3 1 96.052812 -55.297474 63.698062
2129 3 1 96.237012 -56.221492 63.363008
2130 3 1 96.122776 -56.971087 64.014972
2131 3 1 96.413283 -57.829486 64.437769
2132 3 1 95.782744 -58.592085 64.582214
2133 3 1 95.571690 -57.747880 64.089494
2134 3 1 94.729251 -58.278686 64.181915
2135 3 1 93.936308 -58.692242 63.734464
2136 3 1 92.964576 -58.826510 63.540276
2137 3 1 93.224328 -58.972047 62.585631
2138 3 1 92.649970 -58.430674 61.971606
2139 3 1 93.421990 -58.223039 61.370879
2140 3 1 93.862152 -58.848642 60.726768
2141 3 1 93.086938 -59.060087 60.131507
2142 3 1 92.346349 -59.200546 59.474394
2143 3 1 92.578813 -60.096748 59.096528
2144 3 1 92.247108 -60.656546 59.855868
2145 3 1 92.391478 -61.337275 60.574037
2146 3 1 93.218983 -60.775958 60.586632
2147 3 1 92.748798 -59.937180 60.312081
2148 3 1 92.802578 -59.225627 61.012652
2149 3 1 92.699796 -59.587364 61.939249
2150 3 1 92.055218 -58.915229 62.303602
2151 3 1 92.105495 -59.627244 63.003964
2152 3 1 92.289546 -60.608419 62.945471
2153 3 1 92.705218 -60.018592 63.637802
2154 3 1 92.049728 -60.092231 64.389407
2155 3 1 92.873467 -60.324832 64.906467
2156 3 1 92.620241 -59.465666 64.461821
2157 3 1 93.213901 -59.028683 65.137552
2158 3 1 92.309494 -58.997848 65.563108
2159 3 1 92.786948 -59.325921 66.378220
2160 3 1 92.656188 -60.290830 66.150512
2161 3 1 93.366771 -60.959469 66.369587
2162 3 1 93.392713 -61.765113 65.777755
2163 3 1 93.463188 -62.349522 64.969362
2164 3 1 94.062268 -63.147864 64.908106
2165 3 1 93.570698 -63.167837 65.778715
2166 3 1 93.655122 -62.880806 66.732909
2167 3 1 93.650583 -61.969555 67.144737
2168 3 1 94.008292 -62.767388 67.630027
2169 3 1 94.785778 -62.366571 68.114652
2170 3 1 95.017906 -61.394106 68.093920
2171 3 1 95.738235 -60.865720 68.543291
2172 3 1 96.157805 -60.412875 69.329988
2173 3 1 96.086956 -61.391422 69.136530
2174 3 1 96.840001 -61.998077 68.881790
2175 3 1 97.473361 -61.317236 69.249637
2176 3 1 97.906395 -61.872159 68.539325
2177 3 1 97.802840 -62.590151 69.227630
2178 3 1 97.362448 -63.352259 68.753029
2179 3 1 97.567838 -64.238499 69.168233
2180 3 1 96.599441 -64.335897 68.938621
2181 3 1 97.013826 -64.679957 69.781182
2182 3 1 97.329323 -63.764791 70.032047
2183 3 1 98.302308 -63.564592 70.147030
2184 3 1 99.064177 -63.575297 70.794672
2185 3 1 98.441927 -64.113733 71.362906
2186 3 1 98.176981 -64.364389 72.294022
2187 3 1 98.993818 -64.780431 72.693628
2188 3 1 98.110008 -64.532049 73.090094
2189 3 1 98.809899 -65.131104 73.479049
2190 3 1 98.776348 -64.134177 73.408260
2191 3 1 99.309552 -63.758954 72.650038
2192 3 1 98.405802 -63.367098 72.822331
2193 3 1 97.725015 -63.070144 73.491918
2194 3 1 98.609366 -62.702169 73.779177
2195 3 1 99.250245 -62.337593 73.103634
2196 3 1 99.722873 -62.170401 72.238377
2197 3 1 99.940708 -61.611702 71.438125
2198 3 1 99.027368 -61.592965 71.844891
2199 3 1 99.706895 -60.932277 72.163852
2200 3 1 99.122533 -60.245212 72.595665
2201 3 1 99.727692 -59.453210 72.676385
2202 3 1 98.728648 -59.413735 72.695167
2203 3 1 98.217843 -60.222596 72.986410
2204 3 1 98.028379 -60.124891 72.009396
2205 3 1 97.406560 -60.231345 71.233503
2206 3 1 97.173712 -61.134547 71.594070
2207 3 1 96.723574 -60.319709 71.959330
2208 3 1 95.789842 -60.049330 72.193934
2209 3 1 96.182980 -60.959620 72.323599
2210 3 1 96.105542 -61.833883 71.844362
2211 3 1 95.636305 -62.325665 72.577824
2212 3 1 95.855868 -61.641999 73.273807
2213 3 1 96.168940 -62.435626 73.795479
2214 3 1 96.847825 -62.339406 73.067566
2215 3 1 97.263687 -62.517903 73.959304
2216 3 1 97.894053 -62.186673 74.661391
2217 3 1 97.278917 -61.484535 74.302770
2218 3 1 96.996407 -60.525670 74.330459
2219 3 1 97.129827 -59.914015 75.110252
2220 3 1 96.807602 -60.037866 76.048778
2221 3 1 96.268430 -60.257127 76.861931
2222 3 1 95.877742 -59.336708 76.875771
2223 3 1 95.341063 -60.001718 77.395133
2224 3 1 94.434855 -60.173456 77.781519
2225 3 1 93.682018 -60.117601 77.125687
2226 3 1 94.594424 -59.713493 77.060782
2227 3 1 94.550679 -60.707788 76.963498
2228 3 1 95.172561 -60.268401 76.315269
2229 3 1 95.856861 -60.722535 75.744747
2230 3 1 95.898538 -59.790417 76.104497
2231 3 1 94.985777 -59.572142 75.759212
2232 3 1 94.176440 -60.155701 75.825792
2233 3 1 94.589904 -60.964620 75.407825
2234 3 1 94.277402 -60.129455 74.955232
2235 3 1 94.212394 -59.242188 74.498579
2236 3 1 94.917841 -58.549359 74.349143
2237 3 1 94.923731 -57.881040 73.605292
2238 3 1 94.024618 -57.717712 73.199188
2239 3 1 93.501658 -58.025754 72.404441
2240 3 1 93.286790 -58.907892 72.823565
2241 3 1 93.187665 -59.620972 72.129525
2242 3 1 94.155788 -59.771241 72.329919
2243 3 1 93.355855 -60.316287 72.580980
2244 3 1 93.616792 -60.952226 71.854692
2245 3 1 93.182085 -61.588748 71.217614
2246 3 1 93.939652 -61.991142 70.703638
2247 3 1 94.590713 -61.872759 69.953901
2248 3 1 95.274334 -61.341010 69.453997
2249 3 1 95.355544 -60.628767 70.151216
2250 3 1 96.053400 -60.950766 70.790993
2251 3 1 95.395703 -61.282296 71.467397
2252 3 1 94.786929 -61.220544 70.676460
2253 3 1 94.475734 -61.552424 71.566973
2254 3 1 95.082617 -62.034210 70.934854
2255 3 1 95.611193 -62.082884 70.087364
2256 3 1 96.537015 -61.708062 70.135981
2257 3 1 97.019255 -60.949593 70.574350
2258 3 1 97.984425 -61.158142 70.416381
2259 3 1 98.615110 -60.430602 70.686425
2260 3 1 99.336128 -59.738237 70.714050
2261 3 1 99.539659 -58.885824 71.195679
2262 3 1 99.968216 -59.789179 71.212632
2263 3 1 99.075881 -60.194417 71.411433
2264 3 1 98.225141 -59.800557 71.063417
2265 3 1 98.265945 -59.290364 70.204326
2266 3 1 97.997842 -59.031973 71.132418
2267 3 1 97.368301 -59.008593 71.909034
2268 3 1 97.877646 -58.185412 71.658154
2269 3 1 98.305676 -57.598912 72.345764
2270 3 1 99.219080 -57.649796 71.941904
2271 3 1 98.521264 -57.180478 71.400801
2272 3 1 98.248333 -57.296159 70.445748
2273 3 1 97.806894 -58.184411 70.572788
2274 3 1 98.608386 -58.312190 71.156983
2275 3 1 98.724502 -59.234618 71.525282
2276 3 1 98.101896 -58.925181 72.244039
2277 3 1 97.502075 -58.185142 72.548268
2278 3 1 97.349608 -57.473578 71.862388
2279 3 1 97.307822 -57.541421 70.865568
2280 3 1 97.473488 -56.757754 71.464251
2281 3 1 97.629494 -56.494006 70.512358
2282 3 1 97.813380 -55.712881 71.109040
2283 3 1 98.102110 -55.719393 72.066428
2284 3 1 98.413380 -55.416326 72.967129
2285 3 1 97.563353 -55.241893 72.470111
2286 3 1 96.941659 -55.219123 73.253040
2287 3 1 96.236884 -55.403227 72.567914
2288 3 1 95.277124 -55.321719 72.836645
2289 3 1 94.809221 -54.683833 72.224952
2290 3 1 93.918622 -54.991159 72.560190
2291 3 1 93.499961 -54.346758 73.200088
2292 3 1 93.589949 -54.747406 74.111890
2293 3 1 93.042706 -53.952466 73.849982
2294 3 1 92.508942 -53.563272 74.600730
2295 3 1 91.522947 -53.439305 74.489167
2296 3 1 91.064987 -53.629403 73.620758
2297 3 1 90.910899 -54.266476 74.376003
2298 3 1 90.196672 -54.955371 74.252294
2299 3 1 90.540783 -55.639163 74.895735
2300 3 1 90.892449 -54.779771 75.266919
2301 3 1 91.268291 -54.593916 76.174774
2302 3 1 90.874883 -54.420682 77.077669
2303 3 1 89.936397 -54.764957 77.050886
2304 3 1 89.626731 -54.409012 77.932594
2305 3 1 90.405392 -54.425346 78.559826
2306 3 1 91.076129 -55.069958 78.926687
2307 3 1 90.854335 -54.341125 79.574460
2308 3 1 90.297745 -53.972303 80.318891
2309 3 1 89.924085 -53.417149 79.575801
2310 3 1 89.700821 -52.442424 79.583849
2311 3 1 88.945151 -51.870339 79.902724
2312 3 1 88.004976 -51.533162 79.853924
2313 3 1 88.391340 -52.250515 80.433688
2314 3 1 88.758214 -52.714934 81.239740
2315 3 1 88.386627 -53.165192 80.427834
2316 3 1 89.194585 -53.194847 79.839341
2317 3 1 88.459675 -53.865298 79.941330
2318 3 1 87.756273 -54.285106 80.514903
2319 3 1 88.208945 -54.844253 79.820322
2320 3 1 88.727227 -54.987324 78.977164
2321 3 1 89.719636 -55.103725 79.016849
2322 3 1 89.595666 -54.349691 79.661881
2323 3 1 89.419142 -53.851538 80.510811
2324 3 1 89.303012 -53.398175 81.394539
2325 3 1 90.171657 -53.255977 80.919950
2326 3 1 90.178018 -53.228171 81.919543
2327 3 1 90.558885 -52.582553 81.257639
2328 3 1 90.323021 -51.699625 80.851676
2329 3 1 90.599709 -50.981034 81.489697
2330 3 1 90.353690 -50.012151 81.462506
2331 3 1 90.668344 -50.298406 82.367520
2332 3 1 91.349830 -50.176837 83.089183
2333 3 1 91.923570 -50.426602 83.869208
2334 3 1 91.759264 -49.613762 84.428040
2335 3 1 90.967371 -49.901903 84.966445
2336 3 1 90.176240 -49.767865 84.369665
2337 3 1 89.280320 -50.164447 84.569790
2338 3 1 88.944194 -51.083558 84.364233
2339 3 1 89.728813 -50.600938 83.975066
2340 3 1 89.605365 -51.474120 83.503565
2341 3 1 88.647873 -51.503843 83.216641
2342 3 1 88.062456 -50.766230 83.553116
2343 3 1 87.103330 -50.703289 83.829007
2344 3 1 86.368989 -50.410406 84.441348
2345 3 1 87.060637 -49.698731 84.318295
2346 3 1 86.406110 -49.899422 83.589379
2347 3 1 86.549359 -50.516441 82.815578
2348 3 1 86.252142 -50.185802 81.919844
2349 3 1 85.254097 -50.247242 81.931274
2350 3 1 85.148675 -50.157662 80.940890
2351 3 1 84.960525 -49.199681 80.724393
2352 3 1 85.479979 -49.553283 79.946490
2353 3 1 85.264132 -49.378513 78.985831
2354 3 1 84.517006 -49.300922 79.645969
2355 3 1 83.774249 -49.935873 79.858452
2356 3 1 83.019038 -49.712021 79.242379
2357 3 1 82.338537 -49.519429 78.535395
2358 3 1 82.290367 -48.533563 78.374931
2359 3 1 82.050076 -48.821023 79.302092
2360 3 1 81.570802 -48.761324 80.177725
2361 3 1 82.563699 -48.699999 80.279685
2362 3 1 83.220328 -48.343279 80.944206
2363 3 1 83.088732 -47.507431 80.411253
2364 3 1 82.121229 -47.427050 80.650996
2365 3 1 81.934838 -46.792746 81.401274
2366 3 1 81.492753 -47.680756 81.274783
2367 3 1 81.022179 -47.989858 82.101231
2368 3 1 80.908868 -47.470587 82.948295
2369 3 1 80.351569 -46.837807 83.485889
2370 3 1 80.092008 -47.527969 84.161392
2371 3 1 80.916021 -47.702078 84.700547
2372 3 1 80.159346 -48.349870 84.612181
2373 3 1 80.997054 -48.587962 84.120695
2374 3 1 80.643131 -49.317084 84.706460
2375 3 1 80.866761 -48.500442 85.238518
2376 3 1 81.865670 -48.544631 85.223427
2377 3 1 82.109567 -49.364247 84.705022
2378 3 1 81.901635 -50.086725 85.364408
2379 3 1 82.760743 -50.512716 85.648072
2380 3 1 82.385334 -51.352140 85.255089
2381 3 1 81.437651 -51.189281 85.529631
2382 3 1 81.027928 -50.331815 85.840883
2383 3 1 81.558920 -51.038093 86.309092
2384 3 1 81.727054 -51.977988 86.011893
2385 3 1 82.182516 -52.575619 85.352051
2386 3 1 82.273293 -53.334096 84.706704
2387 3 1 81.509969 -53.113436 84.099541
2388 3 1 81.827667 -54.053675 83.976990
2389 3 1 81.341939 -54.583700 84.672074
2390 3 1 81.574113 -55.151582 83.882387
2391 3 1 82.169273 -55.780988 84.382019
2392 3 1 83.076142 -55.673368 83.974581
2393 3 1 82.184263 -55.584155 83.531195
2394 3 1 82.419630 -54.831833 82.915879
2395 3 1 81.576970 -55.081147 82.438630
2396 3 1 80.777025 -55.046638 81.839549
2397 3 1 80.905155 -55.840205 82.434389
2398 3 1 80.810794 -56.728005 81.983937
2399 3 1 81.232744 -56.869514 82.879444
2400 3 1 81.605716 -57.280906 83.711097
2401 3 1 80.854696 -57.758500 84.167029
2402 3 1 81.767493 -58.159463 84.244687
2403 3 1 82.311561 -58.888267 83.828953
2404 3 1 82.363396 -57.894303 83.732269
2405 3 1 81.814517 -57.711447 82.916613
2406 3 1 82.115760 -58.066957 82.031816
2407 3 1 82.740057 -58.322510 81.293611
2408 3 1 82.579089 -58.819075 80.440667
2409 3 1 83.297048 -59.405879 80.815097
2410 3 1 83.887771 -59.982845 80.251044
2411 3 1 82.993110 -60.347717 79.993265
2412 3 1 82.070772 -60.695863 80.160857
2413 3 1 82.850506 -61.019474 80.696853
2414 3 1 83.608745 -61.635911 80.909171
2415 3 1 84.276650 -62.377820 80.850235
2416 3 1 83.851694 -62.174972 81.732428
2417 3 1 84.180017 -61.880395 82.629885
2418 3 1 83.309087 -61.687625 82.177866
2419 3 1 83.119377 -61.489753 83.139561
2420 3 1 82.199898 -61.311832 82.788986
2421 3 1 82.287526 -60.765072 81.956294
2422 3 1 81.665022 -60.260200 81.358304
2423 3 1 80.888488 -60.249800 80.728314
2424 3 1 81.111496 -60.048608 79.774486
2425 3 1 81.834327 -59.943948 80.457538
2426 3 1 81.533321 -59.303513 81.164106
2427 3 1 82.455351 -59.618049 80.938432
2428 3 1 83.272073 -60.190380 81.011936
2429 3 1 84.174547 -60.308167 81.426262
2430 3 1 83.323434 -60.127365 81.919129
2431 3 1 84.044565 -59.891733 82.570626
2432 3 1 84.462678 -60.567410 83.177784
2433 3 1 84.567528 -60.626353 84.170524
2434 3 1 84.191826 -59.701262 84.115242
2435 3 1 84.123206 -59.022291 84.846193
2436 3 1 83.487595 -59.216967 85.593254
2437 3 1 83.633196 -60.189821 85.413381
2438 3 1 83.426788 -60.863440 86.123052
2439 3 1 82.940855 -60.798982 86.994668
2440 3 1 82.647719 -60.479875 87.895912
2441 3 1 83.449684 -60.166213 87.387516
2442 3 1 83.646406 -59.423902 88.028044
2443 3 1 84.093952 -60.310983 87.914949
2444 3 1 84.794250 -60.607122 88.564475
2445 3 1 85.452526 -60.013428 88.101657
2446 3 1 85.639733 -59.117857 88.505273
2447 3 1 86.062584 -58.242907 88.269348
2448 3 1 86.308621 -57.403556 87.784626
2449 3 1 86.595593 -58.129592 87.159711
2450 3 1 86.311998 -58.938437 86.644596
2451 3 1 86.558937 -58.725080 85.699346
2452 3 1 87.426367 -58.423405 85.303671
2453 3 1 87.768460 -58.996121 86.048633
2454 3 1 87.821610 -58.010333 86.208000
2455 3 1 87.871092 -57.172605 85.664158
2456 3 1 87.937344 -56.524638 86.422940
2457 3 1 88.769220 -56.082398 86.087671
2458 3 1 89.464239 -56.173106 85.374423
2459 3 1 88.848453 -56.832766 84.943544
2460 3 1 89.012073 -57.552238 84.268572
2461 3 1 88.982133 -57.918358 85.198659
2462 3 1 89.256291 -57.608238 86.108968
2463 3 1 89.238232 -58.607913 86.091001
2464 3 1 89.052106 -59.082547 85.230722
2465 3 1 89.997280 -58.774828 85.340062
2466 3 1 90.825743 -58.805028 84.780833
2467 3 1 91.211723 -57.886813 84.869720
2468 3 1 91.871002 -58.324453 85.481131
2469 3 1 92.049186 -57.360614 85.282980
2470 3 1 91.642026 -57.071670 84.416532
2471 3 1 91.641344 -56.489967 83.603131
2472 3 1 91.420583 -55.523315 83.473332
2473 3 1 91.998068 -54.888979 82.959398
2474 3 1 92.003607 -54.734004 83.947301
2475 3 1 91.121554 -54.417912 83.597918
2476 3 1 90.870318 -54.643614 84.539162
2477 3 1 91.201992 -55.158311 85.329782
2478 3 1 90.226036 -55.328919 85.194124
2479 3 1 90.646276 -56.208290 85.417966
2480 3 1 91.455550 -56.040752 84.854932
2481 3 1 90.971547 -56.915806 84.850220
2482 3 1 90.664100 -57.128065 83.922630
2483 3 1 89.850223 -56.642011 83.604266
2484 3 1 89.178423 -55.903022 83.655060
2485 3 1 88.369329 -55.475012 84.057769
2486 3 1 87.540702 -55.712415 83.550799
2487 3 1 87.352276 -55.112164 84.328099
2488 3 1 86.660608 -54.418232 84.528232
2489 3 1 86.187276 -53.830166 83.872385
2490 3 1 86.088016 -54.222156 82.957786
2491 3 1 86.500304 -53.581044 82.310489
2492 3 1 87.013041 -53.877542 83.116212
2493 3 1 87.385746 -54.088064 82.212458
2494 3 1 88.224143 -53.857355 82.706284
2495 3 1 88.113010 -54.835242 82.529124
2496 3 1 88.544828 -54.986979 81.640018
2497 3 1 88.971817 -54.172317 81.247581
2498 3 1 89.393747 -54.798385 80.591826
2499 3 1 90.236308 -54.431964 80.986575
2500 3 1 90.809868 -55.069322 81.501166
2501 3 1 91.259283 -54.198708 81.301021
2502 3 1 90.763253 -54.036733 82.154085
2503 3 1 89.853592 -54.305868 82.470445
2504 3 1 90.365752 -54.919781 83.071114
2505 3 1 89.415494 -54.983106 82.766153
2506 3 1 88.671254 -54.853806 83.421430
2507 3 1 88.091214 -54.096492 83.721478
2508 3 1 89.016003 -53.981942 83.358650
2509 3 1 88.930128 -53.024574 83.634461
2510 3 1 88.860129 -53.751842 84.317237
2511 3 1 88.085951 -53.118965 84.328013
2512 3 1 87.465023 -53.119241 83.544145
2513 3 1 86.744686 -52.628500 84.034337
2514 3 1 87.620913 -52.148285 84.074575
2515 3 1 88.488406 -52.160007 84.571886
2516 3 1 87.633167 -51.716123 84.839341
2517 3 1 87.685180 -52.710639 84.930077
2518 3 1 88.660505 -52.817926 85.123027
2519 3 1 88.524859 -52.802710 86.113668
2520 3 1 88.952554 -53.655997 86.411959
2521 3 1 89.289007 -54.467438 85.934086
2522 3 1 90.211752 -54.819109 86.091785
2523 3 1 90.593799 -54.393245 86.911956
2524 3 1 90.089709 -53.668533 86.442183
2525 3 1 90.343869 -53.294512 85.550269
2526 3 1 90.091073 -53.930879 84.821481
2527 3 1 90.403953 -53.051159 84.463434
2528 3 1 90.640816 -52.104917 84.243155
2529 3 1 91.502076 -51.903683 83.776532
2530 3 1 92.188749 -51.542109 84.407203
2531 3 1 91.657321 -52.229775 84.901875
2532 3 1 91.238505 -51.874163 85.737418
2533 3 1 91.335214 -50.975832 85.308877
2534 3 1 90.476997 -51.308132 84.917673
2535 3 1 89.977582 -51.027971 85.737487
2536 3 1 90.294402 -50.231685 86.252806
2537 3 1 90.107634 -49.688716 87.071525
2538 3 1 90.705279 -50.376191 87.484077
2539 3 1 91.606803 -50.615419 87.844665
2540 3 1 92.360623 -49.974698 87.990378
2541 3 1 92.735806 -49.119676 88.348392
2542 3 1 92.416580 -48.742634 87.478947
2543 3 1 92.048390 -47.933034 87.021800
2544 3 1 91.118478 -48.155181 86.728690
2545 3 1 91.266962 -47.320633 87.259240
2546 3 1 90.503344 -46.833905 86.834995
2547 3 1 90.397440 -46.680926 87.817533
2548 3 1 91.249878 -46.578612 88.330254
2549 3 1 90.807186 -47.351240 88.785304
2550 3 1 89.876946 -47.029645 88.962026
2551 3 1 90.495630 -47.503509 89.588671
2552 3 1 90.813156 -47.406866 90.531983
2553 3 1 91.645456 -47.010806 90.144152
2554 3 1 91.588612 -47.201953 89.164238
2555 3 1 91.871605 -46.299801 88.838607
2556 3 1 92.779063 -45.979509 89.110512
2557 3 1 92.334947 -46.739580 89.584910
2558 3 1 92.559029 -46.326150 90.467442
2559 3 1 93.460289 -46.723006 90.293554
2560 3 1 93.650837 -46.429632 89.356739
2561 3 1 93.756904 -47.207318 88.737098
2562 3 1 93.226281 -47.303393 87.894953
2563 3 1 92.342331 -47.173682 87.445723
2564 3 1 92.193340 -46.257394 87.817500
2565 3 1 91.730948 -46.568483 86.987188
2566 3 1 91.284884 -46.351384 86.118917
2567 3 1 91.433197 -46.553750 85.150903
2568 3 1 92.348627 -46.374192 84.790699
2569 3 1 93.143900 -45.882243 84.436402
2570 3 1 92.332199 -46.026977 83.870545
2571 3 1 91.953501 -45.228752 83.402117
2572 3 1 91.993957 -44.234480 83.501045
2573 3 1 92.425101 -43.360187 83.278048
2574 3 1 92.699680 -42.400494 83.338004
2575 3 1 92.632994 -41.436825 83.079362
2576 3 1 93.363327 -40.856027 82.719796
2577 3 1 93.296674 -39.988556 82.226792
2578 3 1 92.638364 -40.734191 82.330028
2579 3 1 92.254796 -41.333397 81.627300
2580 3 1 91.906008 -41.485445 82.552086
2581 3 1 92.026074 -40.619533 83.037657
2582 3 1 92.030398 -39.674862 83.365648
2583 3 1 91.346663 -39.338051 84.012999
2584 3 1 90.640676 -38.645620 83.864264
2585 3 1 91.091318 -38.423246 84.728828
2586 3 1 90.525080 -37.599708 84.762875
2587 3 1 90.297753 -38.442197 85.251275
2588 3 1 89.333518 -38.486071 84.989882
2589 3 1 89.294070 -39.485129 85.007986
2590 3 1 88.317043 -39.693832 85.051138
2591 3 1 87.356745 -39.779334 84.785589
2592 3 1 86.913151 -39.433317 85.612328
2593 3 1 87.891955 -39.278992 85.746956
2594 3 1 88.828796 -39.575664 85.932202
2595 3 1 89.799335 -39.808343 85.869647
2596 3 1 89.298553 -40.198580 86.642261
2597 3 1 90.096025 -40.782058 86.795858
2598 3 1 89.728384 -41.704922 86.910582
2599 3 1 89.250670 -40.858295 87.145130
2600 3 1 89.751395 -40.511729 87.938330
2601 3 1 89.005099 -40.979913 88.411454
2602 3 1 89.005357 -41.948008 88.160869
2603 3 1 89.296573 -42.465752 88.965316
2604 3 1 88.450793 -42.054616 89.305350
2605 3 1 87.992646 -42.943330 89.322385
2606 3 1 87.050219 -42.720721 89.072832
2607 3 1 86.258086 -42.118745 89.173587
2608 3 1 86.726194 -42.317987 88.312671
2609 3 1 87.608969 -42.669775 88.001295
2610 3 1 87.211590 -41.754799 87.931232
2611 3 1 87.232740 -40.755100 87.943703
2612 3 1 87.223182 -41.019300 86.979282
2613 3 1 87.196243 -40.039766 86.779814
2614 3 1 88.192764 -40.105781 86.830686
2615 3 1 87.770376 -39.673399 87.627325
2616 3 1 88.486730 -38.976491 87.661338
2617 3 1 88.836178 -39.683366 88.276329
2618 3 1 88.900591 -40.047123 87.347065
2619 3 1 89.420734 -39.200629 87.460639
2620 3 1 90.271430 -39.654358 87.195221
2621 3 1 91.126642 -39.851883 86.716059
2622 3 1 91.840762 -40.349976 87.207928
2623 3 1 90.857715 -40.526715 87.256737
2624 3 1 91.090294 -41.366435 86.766046
2625 3 1 91.577762 -41.450307 85.896943
2626 3 1 91.523000 -40.489477 86.168615
2627 3 1 92.334040 -39.920228 86.303411
2628 3 1 92.572947 -39.905903 85.332474
2629 3 1 92.648958 -40.656567 85.988771
2630 3 1 93.541261 -40.590677 86.435374
2631 3 1 93.063007 -39.724847 86.582386
2632 3 1 92.462411 -38.928568 86.654660
2633 3 1 91.920449 -39.223634 85.867758
2634 3 1 91.810218 -38.842989 84.949631
2635 3 1 91.794934 -37.978917 85.452768
2636 3 1 91.627028 -37.408904 86.257064
2637 3 1 90.655400 -37.305207 86.044496
2638 3 1 90.970956 -36.433891 85.668687
2639 3 1 89.978540 -36.548245 85.623587
2640 3 1 89.746598 -35.588619 85.464463
2641 3 1 90.240741 -34.736219 85.293476
2642 3 1 90.225732 -35.350769 86.082210
2643 3 1 91.141988 -34.994857 86.266060
2644 3 1 91.876552 -34.467046 85.839644
2645 3 1 91.959480 -33.619180 86.363329
2646 3 1 92.556986 -33.231044 87.064997
2647 3 1 93.213571 -32.510971 86.840521
2648 3 1 93.988290 -32.738165 86.250442
2649 3 1 93.128845 -32.620933 85.752836
2650 3 1 92.237555 -32.192587 85.604105
2651 3 1 92.770537 -31.418959 85.261425
2652 3 1 93.247461 -31.570579 84.395656
2653 3 1 93.644727 -31.722547 83.490623
2654 3 1 94.574500 -32.088781 83.527973
2655 3 1 94.802581 -31.126740 83.378116
2656 3 1 95.083266 -31.291852 82.432624
2657 3 1 95.671732 -31.955026 81.970123
2658 3 1 95.208901 -32.194088 81.116521
2659 3 1 95.884322 -32.812789 80.715252
2660 3 1 96.405452 -32.957337 79.874105
2661 3 1 97.161574 -32.561651 79.352844
2662 3 1 96.872437 -32.472107 78.399754
2663 3 1 97.442215 -31.720997 78.066306
2664 3 1 97.893849 -30.866796 77.808688
2665 3 1 98.408437 -31.418620 77.152419
2666 3 1 97.780616 -32.186690 77.278546
2667 3 1 98.108241 -33.013805 77.735213
2668 3 1 97.494472 -33.440413 77.070914
2669 3 1 98.342031 -33.054686 76.706414
2670 3 1 99.017633 -32.646650 76.092355
2671 3 1 99.450333 -32.252353 75.281615
2672 3 1 99.180997 -32.988834 74.661088
2673 3 1 99.655829 -32.309644 74.101415
2674 3 1 99.389890 -32.844421 73.299362
2675 3 1 99.659383 -32.892369 72.337554
2676 3 1 99.981104 -33.634767 72.925211
2677 3 1 99.097717 -33.887259 73.320021
2678 3 1 98.842941 -34.841286 73.477886
2679 3 1 98.691551 -35.684328 73.993988
2680 3 1 98.107317 -36.323572 74.494027
2681 3 1 97.714311 -36.580335 75.376987
2682 3 1 96.934016 -35.976428 75.214397
2683 3 1 97.612128 -35.243463 75.160294
2684 3 1 98.293626 -34.571496 74.870431
2685 3 1 98.207113 -33.600878 75.094965
2686 3 1 98.417351 -33.805236 74.138912
2687 3 1 97.834846 -34.596579 73.953267
2688 3 1 97.625819 -33.642713 73.737753
2689 3 1 97.980083 -33.578969 72.804783
2690 3 1 97.505897 -32.734763 72.554855
2691 3 1 97.098571 -32.887744 71.654476
2692 3 1 96.400547 -32.678620 70.969619
2693 3 1 96.449546 -31.938319 71.640106
2694 3 1 96.667647 -30.962405 71.635176
2695 3 1 97.496324 -31.518007 71.567347
2696 3 1 97.685905 -30.985966 70.742125
2697 3 1 97.795132 -30.531891 69.857882
2698 3 1 98.748610 -30.608922 70.149337
2699 3 1 98.617093 -29.769473 69.622053
2700 3 1 97.862575 -29.481229 69.032461
2701 3 1 97.490884 -28.580608 68.807232
2702 3 1 96.903160 -28.956478 68.090780
2703 3 1 96.551860 -29.087038 67.163665
2704 3 1 95.829793 -29.294620 66.503719
2705 3 1 96.123145 -28.354429 66.676882
2706 3 1 96.075071 -27.355927 66.650727
2707 3 1 96.987068 -27.759107 66.726275
2708 3 1 97.900137 -27.396139 66.912175
2709 3 1 97.926964 -28.181303 67.530880
2710 3 1 98.611258 -27.452956 67.566253
2711 3 1 99.491347 -27.440466 67.091609
2712 3 1 99.509317 -26.901379 66.249550
2713 3 1 99.872651 -26.036596 65.902939
2714 3 1 99.461736 -25.349405 65.303843
2715 3 1 98.780728 -24.773053 64.852127
2716 3 1 98.534129 -24.183890 65.621593
2717 3 1 99.495685 -23.976944 65.441080
2718 3 1 99.137823 -24.699132 66.033008
2719 3 1 99.055652 -23.789417 66.440030
2720 3 1 99.175832 -23.003486 67.046552
2721 3 1 98.457263 -22.435942 67.448489
2722 3 1 98.258073 -22.148731 66.511562
2723 3 1 97.624815 -22.577954 65.867549
2724 3 1 97.678915 -21.598932 65.671109
2725 3 1 97.887430 -21.006457 64.892974
2726 3 1 98.620281 -20.329976 64.820139
2727 3 1 98.697482 -21.237056 64.406320
2728 3 1 98.082692 -21.228292 63.617678
2729 3 1 97.296649 -21.434473 64.200451
2730 3 1 97.319158 -22.356778 64.586257
2731 3 1 98.072708 -22.350569 63.928896
2732 3 1 98.698310 -22.793381 63.286604
2733 3 1 98.277437 -23.548295 63.789565
2734 3 1 98.866469 -24.338044 63.618283
2735 3 1 99.747126 -24.554658 64.039617
2736 3 1 99.347774 -25.465184 64.146674
2737 3 1 99.314533 -26.145656 64.878694
2738 3 1 98.955706 -26.339669 65.791712
2739 3 1 98.851317 -27.229552 65.347626
2740 3 1 97.857661 -27.145937 65.272422
2741 3 1 98.281753 -27.850955 65.840836
2742 3 1 97.836579 -28.731147 66.005404
2743 3 1 97.009346 -28.506658 65.490340
2744 3 1 96.428355 -28.524251 64.676620
2745 3 1 96.722187 -27.687081 65.137934
2746 3 1 95.893263 -28.214128 65.325305
2747 3 1 95.262488 -28.504855 64.605862
2748 3 1 94.273531 -28.559007 64.467901
2749 3 1 93.583952 -27.909885 64.146774
2750 3 1 93.070986 -28.367851 63.420735
2751 3 1 92.730397 -27.855649 64.209183
2752 3 1 93.022826 -26.940332 64.486092
2753 3 1 93.991398 -27.054840 64.265283
2754 3 1 94.287363 -27.351296 65.173312
2755 3 1 94.569234 -28.033100 65.848362
2756 3 1 95.448513 -27.573822 65.722136
2757 3 1 95.151872 -26.882145 66.380610
2758 3 1 94.722331 -26.323702 67.090283
2759 3 1 94.260105 -26.173278 67.964194
2760 3 1 93.741655 -25.861209 67.168064
2761 3 1 93.420548 -25.309404 66.398387
2762 3 1 94.325494 -25.089852 66.033874
2763 3 1 93.954385 -24.627366 66.839098
2764 3 1 94.590826 -25.382855 66.994598
2765 3 1 95.510780 -25.774467 66.976582
2766 3 1 96.030228 -26.012396 66.155873
2767 3 1 95.919992 -26.122440 65.168078
2768 3 1 96.386664 -25.347004 64.742735
2769 3 1 95.741515 -25.480589 63.990446
2770 3 1 96.310697 -24.866679 63.443503
2771 3 1 96.376754 -25.264517 62.528429
2772 3 1 96.471417 -24.367575 62.096533
2773 3 1 96.532525 -23.373247 62.183588
2774 3 1 97.482467 -23.098237 62.035330
2775 3 1 98.455863 -23.230917 61.848527
2776 3 1 99.271971 -22.773603 62.201844
2777 3 1 98.707176 -21.957753 62.077762
2778 3 1 99.674491 -21.722199 62.171661
2779 3 1 99.534802 -21.608468 61.188019
2780 3 1 99.025079 -22.405863 60.864998
2781 3 1 99.263354 -23.047335 60.135793
2782 3 1 98.777416 -23.699079 59.553476
2783 3 1 99.360826 -24.436662 59.213468
2784 3 1 98.544878 -24.938820 58.926998
2785 3 1 98.208939 -24.314037 59.631832
2786 3 1 97.782652 -24.453239 58.738018
2787 3 1 97.126617 -24.136515 59.423075
2788 3 1 96.431406 -23.616533 58.926788
2789 3 1 96.119563 -24.083054 58.099074
2790 3 1 95.718780 -23.211904 58.382747
2791 3 1 94.993495 -23.507778 57.761120
2792 3 1 94.023623 -23.264455 57.749249
2793 3 1 93.113718 -23.295601 58.162896
2794 3 1 92.644739 -22.472585 58.483370
2795 3 1 92.719495 -22.604434 57.494923
2796 3 1 92.694670 -21.810987 56.886789
2797 3 1 93.660795 -22.066093 56.847762
2798 3 1 94.500432 -22.264951 56.342326
2799 3 1 94.466106 -22.836131 57.162433
2800 3 1 94.873048 -23.158925 56.307914
2801 3 1 94.221301 -23.824924 55.945048
2802 3 1 94.006909 -23.393395 55.068796
2803 3 1 93.622563 -24.310710 54.964810
2804 3 1 92.760076 -23.863931 54.727102
2805 3 1 93.346445 -24.055546 53.940047
2806 3 1 92.447647 -24.436203 54.157451
2807 3 1 93.126606 -24.805524 53.522930
2808 3 1 93.694724 -24.676005 52.710238
2809 3 1 93.735413 -24.319031 51.777011
2810 3 1 93.102141 -23.582603 51.539020
2811 3 1 93.641569 -22.760211 51.358219
2812 3 1 94.530515 -23.072409 51.023098
2813 3 1 94.317670 -22.423868 50.292282
2814 3 1 94.786094 -22.663494 49.441894
2815 3 1 95.323938 -22.251415 48.706426
2816 3 1 94.659416 -21.504925 48.740535
2817 3 1 94.172957 -22.378623 48.737209
2818 3 1 93.785143 -21.485339 48.509954
2819 3 1 93.646514 -22.101933 47.734975
2820 3 1 93.634082 -22.911198 47.147662
2821 3 1 94.128504 -23.775794 47.058108
2822 3 1 93.983112 -24.764905 47.035300
2823 3 1 94.898009 -24.990811 46.700741
2824 3 1 94.518761 -24.349416 46.033820
2825 3 1 94.039365 -25.151020 45.676593
2826 3 1 93.309039 -24.855692 45.060635
2827 3 1 92.816032 -24.597127 44.229919
2828 3 1 93.691266 -24.270218 43.873415
2829 3 1 93.507272 -24.702164 42.990483
2830 3 1 93.054089 -24.539187 42.114091
2831 3 1 92.174291 -25.011485 42.060326
2832 3 1 92.106285 -24.745192 41.098836
2833 3 1 92.215489 -24.585485 40.117731
2834 3 1 91.779559 -25.485461 40.114916
2835 3 1 91.157075 -25.843230 40.810987
2836 3 1 90.876184 -25.036403 40.291246
2837 3 1 90.133486 -24.579156 40.780454
2838 3 1 89.608734 -23.877007 41.261725
2839 3 1 88.738668 -23.663302 40.817523
2840 3 1 87.945712 -23.551564 40.218579
2841 3 1 88.738158 -22.942652 40.254006
2842 3 1 88.685602 -22.036382 40.673424
2843 3 1 87.760685 -22.379194 40.837764
2844 3 1 86.950059 -21.994821 40.396014
2845 3 1 87.388832 -21.229140 39.925682
2846 3 1 86.657011 -20.936668 39.310134
2847 3 1 85.743627 -20.585982 39.103377
2848 3 1 85.448793 -20.450581 38.157470
2849 3 1 85.197689 -19.486516 38.070721
2850 3 1 84.635604 -19.102547 37.338173
2851 3 1 84.937792 -19.966948 36.936312
2852 3 1 85.063277 -20.167784 35.964757
2853 3 1 85.963778 -19.755576 35.826254
2854 3 1 86.390641 -20.121248 36.653341
2855 3 1 87.083532 -19.734710 37.262019
2856 3 1 86.856724 -20.300457 38.054792
2857 3 1 87.597361 -19.849366 38.552761
2858 3 1 86.619059 -19.822778 38.758233
2859 3 1 86.015400 -19.254235 39.317119
2860 3 1 86.056003 -18.997004 38.351623
2861 3 1 85.257567 -18.551148 38.756238
2862 3 1 84.883119 -19.194141 39.424332
2863 3 1 84.595351 -19.724552 38.626928
2864 3 1 84.504669 -20.371582 37.869875
2865 3 1 83.793096 -20.020008 37.261548
2866 3 1 82.975024 -19.548478 36.932280
2867 3 1 83.823461 -19.084505 36.677557
2868 3 1 83.563542 -19.078520 37.643169
2869 3 1 82.588560 -19.298965 37.671698
2870 3 1 83.054973 -18.751681 36.976760
2871 3 1 82.057092 -18.729067 37.037756
2872 3 1 82.520886 -17.843135 37.042230
2873 3 1 83.368744 -18.079448 36.567579
2874 3 1 83.119351 -18.097027 35.599336
2875 3 1 83.798710 -17.451663 35.948587
2876 3 1 83.393149 -16.564592 36.169097
2877 3 1 83.807305 -15.678990 36.379295
2878 3 1 84.492143 -15.466458 37.076308
2879 3 1 83.862583 -15.837978 37.758678
2880 3 1 84.778283 -16.110028 38.054451
2881 3 1 85.513282 -16.606468 37.592581
2882 3 1 85.627410 -17.183781 36.784073
2883 3 1 85.603684 -16.432784 36.124194
2884 3 1 85.530976 -17.366877 35.774646
2885 3 1 85.393734 -16.943238 34.879271
2886 3 1 84.561162 -17.019180 35.427957
2887 3 1 84.609604 -17.299460 34.469262
2888 3 1 83.813142 -17.168637 33.878894
2889 3 1 82.933254 -16.821579 33.554321
2890 3 1 83.769337 -16.305718 33.367627
2891 3 1 83.911519 -16.468470 34.343996
2892 3 1 83.491298 -17.272603 34.764452
2893 3 1 84.147695 -18.019440 34.657786
2894 3 1 84.596010 -18.608511 35.330102
2895 3 1 84.079619 -19.076884 34.613187
2896 3 1 83.861108 -19.720861 33.880012
2897 3 1 84.117559 -20.017553 32.960116
2898 3 1 84.831355 -19.632415 33.545064
2899 3 1 85.368380 -20.309882 33.042428
2900 3 1 85.703216 -19.814593 32.240821
2901 3 1 86.116853 -20.007422 33.130608
2902 3 1 86.354702 -20.802555 33.688454
2903 3 1 87.284411 -20.690588 34.039316
2904 3 1 86.563997 -20.398754 34.668472
2905 3 1 85.643332 -20.759064 34.818643
2906 3 1 85.548270 -20.985103 35.788111
2907 3 1 85.042504 -21.553015 36.437478
2908 3 1 85.811970 -21.833385 37.011338
2909 3 1 86.035852 -21.534752 37.939075
2910 3 1 86.554115 -22.371523 37.762386
2911 3 1 86.936204 -23.228162 37.415722
2912 3 1 87.195777 -24.186350 37.536128
2913 3 1 87.098592 -24.710806 36.690255
2914 3 1 86.928743 -25.054404 35.766626
2915 3 1 87.414089 -24.334755 35.270093
2916 3 1 86.757477 -24.214649 34.525489
2917 3 1 86.462634 -25.165783 34.617202
2918 3 1 86.027359 -25.531853 35.439715
2919 3 1 86.442924 -26.095055 34.725496
2920 3 1 86.186770 -26.500143 35.603157
2921 3 1 85.203023 -26.326054 35.647149
2922 3 1 84.835060 -26.286558 34.718148
2923 3 1 84.313428 -26.909513 34.135202
2924 3 1 83.567735 -27.560678 33.994045
2925 3 1 83.678766 -27.920261 34.920529
2926 3 1 83.828742 -27.329269 35.713142
2927 3 1 83.364698 -28.213733 35.664285
2928 3 1 82.582795 -27.649791 35.398582
2929 3 1 81.868374 -28.335296 35.538888
2930 3 1 81.674282 -27.587775 36.174137
2931 3 1 82.519673 -27.732393 36.688336
2932 3 1 83.443778 -27.920083 37.021206
2933 3 1 82.977168 -27.058470 36.821460
2934 3 1 82.190814 -26.679194 36.333815
2935 3 1 81.827284 -26.097809 35.605915
2936 3 1 81.362710 -26.263371 36.475835
2937 3 1 81.867473 -26.466130 37.314943
2938 3 1 82.073579 -25.611526 36.838318
2939 3 1 82.732371 -25.404519 37.561602
2940 3 1 83.290625 -25.840141 36.855496
2941 3 1 83.869017 -26.117008 37.622834
2942 3 1 84.421240 -26.946880 37.543073
2943 3 1 85.275448 -27.333581 37.890622
2944 3 1 85.395777 -27.091784 38.853459
2945 3 1 85.380176 -28.004780 39.261130
2946 3 1 85.498668 -27.399420 40.048212
2947 3 1 86.128785 -26.756757 40.484029
2948 3 1 86.288091 -26.666671 41.467139
2949 3 1 87.254942 -26.421242 41.537596
2950 3 1 88.073027 -26.584255 42.089107
2951 3 1 88.808165 -27.241705 41.923781
2952 3 1 88.881463 -26.484117 42.572385
2953 3 1 88.925017 -25.932742 43.405505
2954 3 1 88.343197 -25.798909 44.207735
2955 3 1 88.583775 -26.684614 43.810685
2956 3 1 87.811131 -27.308093 43.930246
2957 3 1 87.721682 -27.561844 42.967121
2958 3 1 87.676381 -28.092477 43.813511
2959 3 1 88.656487 -27.944098 43.681690
2960 3 1 89.064180 -27.597885 42.836750
2961 3 1 88.752103 -28.542320 42.939954
2962 3 1 87.785859 -28.623819 42.695555
2963 3 1 87.129401 -29.025270 43.334226
2964 3 1 86.437498 -29.706810 43.095954
2965 3 1 85.696937 -30.336129 43.331597
2966 3 1 85.888705 -30.846403 42.493239
2967 3 1 85.166216 -30.199976 42.738475
2968 3 1 85.913450 -29.642182 42.377216
2969 3 1 85.127115 -29.092556 42.095103
2970 3 1 84.414803 -29.736077 42.375268
2971 3 1 84.985532 -29.978387 41.590695
2972 3 1 85.569691 -30.383176 40.887201
2973 3 1 85.518792 -29.891570 40.017872
2974 3 1 86.300012 -29.276616 40.125228
2975 3 1 86.979612 -29.955068 39.846218
2976 3 1 87.446784 -29.186149 39.409739
2977 3 1 87.545765 -28.660711 38.564685
2978 3 1 88.261921 -29.357979 38.534068
2979 3 1 88.612347 -29.664224 37.648960
2980 3 1 88.272003 -28.736757 37.803787
2981 3 1 87.982990 -27.973956 37.225335
2982 3 1 88.310067 -27.223593 36.650901
2983 3 1 88.929783 -27.884524 37.074129
2984 3 1 88.287732 -28.244566 36.397269
2985 3 1 88.477537 -28.390148 35.426301
2986 3 1 87.839080 -29.157032 35.491584
2987 3 1 87.474772 -28.778771 34.640585
2988 3 1 88.376249 -29.206008 34.571248
2989 3 1 88.944010 -29.058811 35.381174
2990 3 1 89.447418 -29.913522 35.507862
2991 3 1 89.965154 -29.481980 36.246591
2992 3 1 90.161097 -30.440306 36.038701
2993 3 1 89.969415 -31.229533 36.622120
2994 3 1 89.371157 -31.199484 37.422860
2995 3 1 89.669279 -32.019719 37.911058
2996 3 1 90.299979 -32.685782 38.309276
2997 3 1 89.942571 -33.549943 38.663515
2998 3 1 90.237574 -33.547127 37.708022
2999 3 1 90.290008 -34.453475 38.127288
3000 3 1 90.217997 -34.922986 39.007273
3001 4 1 -43.493826 1.836724 84.764981
3002 4 1 -43.201405 1.999136 83.822584
3003 4 1 -42.222650 2.125451 83.984091
3004 4 1 -42.286533 1.527823 83.184866
3005 4 1 -42.487947 2.385659 82.712057
3006 4 1 -42.998211 2.128981 81.891236
3007 4 1 -43.125360 1.715907 80.989458
3008 4 1 -43.797187 1.662298 80.250693
3009 4 1 -43.730667 2.546356 79.788072
3010 4 1 -43.991359 1.918562 79.054645
3011 4 1 -44.575544 1.600082 78.308121
3012 4 1 -44.608065 2.585949 78.472463
3013 4 1 -44.394313 2.708727 77.503321
3014 4 1 -45.001735 2.275719 76.837332
3015 4 1 -44.964533 1.298594 76.627945
3016 4 1 -45.544601 0.717516 77.198794
3017 4 1 -45.987264 0.186811 76.476020
3018 4 1 -45.297878 -0.532091 76.386992
3019 4 1 -44.523906 -0.869996 76.922519
3020 4 1 -44.654725 -0.276741 77.716834
3021 4 1 -44.331639 -0.125705 78.651073
3022 4 1 -44.542186 -0.097721 79.628256
3023 4 1 -43.943545 0.689327 79.777196
3024 4 1 -43.359333 -0.036391 79.413838
3025 4 1 -42.647387 0.136901 78.733321
3026 4 1 -42.288763 0.647273 79.514928
3027 4 1 -42.505290 1.351502 78.838779
3028 4 1 -42.643130 2.333852 78.965230
3029 4 1 -43.138755 3.183323 78.784247
3030 4 1 -42.669348 3.523872 77.969579
3031 4 1 -43.295031 3.916432 77.295474
3032 4 1 -43.578554 3.292338 78.023569
3033 4 1 -43.646522 4.271941 78.212666
3034 4 1 -44.516362 3.874833 77.919949
3035 4 1 -44.878845 3.326862 78.673828
3036 4 1 -44.354479 3.567007 79.490756
3037 4 1 -44.562280 2.886808 80.193713
3038 4 1 -45.537119 3.074785 80.313515
3039 4 1 -45.070227 2.860870 79.455464
3040 4 1 -45.510782 3.756521 79.516460
3041 4 1 -46.242937 4.151679 78.961664
3042 4 1 -45.320359 4.535545 78.922985
3043 4 1 -45.520842 5.363299 78.398934
3044 4 1 -44.768994 5.731778 78.945695
3045 4 1 -44.492858 6.690054 78.871838
3046 4 1 -44.813993 6.968727 79.776943
3047 4 1 -45.264381 7.612851 80.395210
3048 4 1 -45.709419 7.045943 81.088433
3049 4 1 -45.208255 7.405141 81.875714
3050 4 1 -45.374318 8.232582 82.412151
3051 4 1 -45.290499 8.406552 81.430974
3052 4 1 -45.061051 9.316621 81.776124
3053 4 1 -44.286291 8.934641 81.272301
3054 4 1 -44.829932 9.681315 80.888985
3055 4 1 -45.184781 10.407376 80.299988
3056 4 1 -44.795389 11.328413 80.291873
3057 4 1 -45.619946 11.543560 79.768597
3058 4 1 -46.262481 10.949742 79.284316
3059 4 1 -47.245845 10.949642 79.465965
3060 4 1 -47.575408 10.490853 78.640798
3061 4 1 -47.067185 9.874163 78.039630
3062 4 1 -47.956108 9.748610 78.480144
3063 4 1 -48.135729 9.365103 77.574241
3064 4 1 -48.012112 8.588494 78.191977
3065 4 1 -48.990311 8.408244 78.088845
3066 4 1 -49.834761 8.919386 77.928721
3067 4 1 -49.813368 8.006114 78.335509
3068 4 1 -50.188319 7.308165 77.725363
3069 4 1 -49.480606 7.221458 77.024204
3070 4 1 -49.346102 6.296364 77.379322
3071 4 1 -49.421846 6.656586 78.309109
3072 4 1 -49.645110 5.732019 78.617861
3073 4 1 -49.421839 5.440217 77.687806
3074 4 1 -49.686710 5.661378 76.749226
3075 4 1 -49.064357 5.280360 76.065485
3076 4 1 -48.148139 4.948140 76.289482
3077 4 1 -48.373622 5.698820 76.910479
3078 4 1 -48.063015 6.523989 77.382304
3079 4 1 -48.340451 7.482170 77.312172
3080 4 1 -48.687486 7.010369 78.122709
3081 4 1 -47.925994 7.653333 78.040696
3082 4 1 -47.386104 7.263170 77.294846
3083 4 1 -46.842935 7.034919 76.486843
3084 4 1 -47.470607 7.137966 75.715216
3085 4 1 -47.093513 6.911695 74.817106
3086 4 1 -46.500216 6.307445 75.348972
3087 4 1 -45.993317 7.086009 75.718962
3088 4 1 -46.090556 7.617442 74.877462
3089 4 1 -46.423155 7.171575 74.046451
3090 4 1 -45.794595 7.910468 73.803658
3091 4 1 -45.757816 7.245809 73.057417
3092 4 1 -44.970045 7.560734 72.528041
3093 4 1 -44.255863 6.863205 72.469762
3094 4 1 -45.178092 6.873229 72.083250
3095 4 1 -46.100457 6.641388 71.774229
3096 4 1 -46.386531 6.085341 72.554596
3097 4 1 -46.430296 5.844688 71.584972
3098 4 1 -45.833657 5.400460 72.253315
3099 4 1 -45.128342 5.627177 71.581653
3100 4 1 -45.007286 5.383848 70.619293
3101 4 1 -45.854730 5.884889 70.794782
3102 4 1 -45.610234 6.240579 69.892726
3103 4 1 -44.673814 6.583354 69.967706
3104 4 1 -44.932930 7.108351 69.157004
3105 4 1 -45.704935 7.671944 68.863116
3106 4 1 -44.916444 8.218691 69.144806
3107 4 1 -45.304021 9.126596 68.985137
3108 4 1 -45.402650 9.569924 69.876054
3109 4 1 -44.615772 10.186540 69.900707
3110 4 1 -44.872630 10.758062 69.121356
3111 4 1 -44.857668 11.218847 68.233971
3112 4 1 -44.138605 11.646628 68.781651
3113 4 1 -44.668894 11.677296 69.628913
3114 4 1 -44.136345 11.320799 70.396573
3115 4 1 -43.329014 11.594374 70.919425
3116 4 1 -42.921341 12.476602 71.154958
3117 4 1 -43.277242 13.008795 71.923142
3118 4 1 -43.028149 12.375715 72.656056
3119 4 1 -42.836675 11.490730 73.080485
3120 4 1 -43.758648 11.527108 73.466024
3121 4 1 -44.072123 11.633697 72.522429
3122 4 1 -44.736638 10.954590 72.210607
3123 4 1 -45.494223 10.945135 72.863275
3124 4 1 -46.202047 11.245056 73.502832
3125 4 1 -45.374778 10.965915 73.990383
3126 4 1 -45.953813 10.547558 74.690165
3127 4 1 -45.054414 10.263754 74.357695
3128 4 1 -44.510593 11.101465 74.407693
3129 4 1 -44.895293 11.686746 73.693933
3130 4 1 -44.930817 12.652903 73.949428
3131 4 1 -45.376704 13.414460 74.419764
3132 4 1 -45.152812 12.961515 75.282732
3133 4 1 -44.257148 13.374003 75.116476
3134 4 1 -44.226130 13.601936 74.143293
3135 4 1 -43.746921 12.792730 73.803375
3136 4 1 -43.022759 12.811410 74.492752
3137 4 1 -43.284206 11.857746 74.641647
3138 4 1 -42.921408 12.111274 75.538364
3139 4 1 -42.467950 12.944851 75.222887
3140 4 1 -43.020008 13.765228 75.073841
3141 4 1 -43.647380 14.105559 75.774255
3142 4 1 -44.390438 14.067925 76.442422
3143 4 1 -44.788252 14.204333 77.349692
3144 4 1 -44.903236 15.196487 77.300618
3145 4 1 -45.350273 14.709931 76.550004
3146 4 1 -46.161230 14.300203 76.132307
3147 4 1 -46.396096 13.695198 76.893100
3148 4 1 -45.482873 13.700511 77.300525
3149 4 1 -45.415948 14.051044 78.234681
3150 4 1 -44.464350 13.745777 78.270360
3151 4 1 -43.915279 13.544792 79.081610
3152 4 1 -42.915332 13.550598 79.090191
3153 4 1 -42.158912 13.298287 79.693654
3154 4 1 -42.058888 12.724453 78.880814
3155 4 1 -42.313034 11.957245 79.469713
3156 4 1 -41.771098 12.584506 80.029042
3157 4 1 -41.074046 13.188099 79.642009
3158 4 1 -41.524163 13.758056 80.329427
3159 4 1 -42.481641 13.804455 80.614179
3160 4 1 -42.612151 13.219028 81.414331
3161 4 1 -42.817679 14.029267 81.963213
3162 4 1 -42.654120 14.288215 82.915155
3163 4 1 -42.696644 14.291949 83.914243
3164 4 1 -41.697167 14.263772 83.930081
3165 4 1 -42.197341 13.748032 84.625665
3166 4 1 -41.671423 12.964415 84.956353
3167 4 1 -41.141018 12.125111 84.837029
3168 4 1 -40.709884 13.008813 84.654840
3169 4 1 -41.230793 12.481396 83.983659
3170 4 1 -40.629923 11.742672 83.678304
3171 4 1 -40.218561 10.832898 83.622694
3172 4 1 -39.806679 11.569782 84.158748
3173 4 1 -39.188711 10.783975 84.183683
3174 4 1 -38.941751 11.714830 84.452978
3175 4 1 -39.334879 12.147842 85.264120
3176 4 1 -39.095322 12.813747 85.970649
3177 4 1 -38.903539 12.451817 86.882913
3178 4 1 -38.899054 13.020132 87.705712
3179 4 1 -38.706427 12.223636 88.278851
3180 4 1 -39.590348 11.905704 88.621784
3181 4 1 -39.905871 11.756971 87.684595
3182 4 1 -40.783017 12.063564 88.054211
3183 4 1 -41.597761 11.620709 87.679949
3184 4 1 -42.281666 11.320007 88.344668
3185 4 1 -42.502472 10.643470 89.047194
3186 4 1 -42.430253 9.665019 89.240634
3187 4 1 -43.294670 9.901453 88.796919
3188 4 1 -44.147600 9.524039 89.157568
3189 4 1 -43.366968 8.899072 89.163040
3190 4 1 -43.785792 9.168414 90.030243
3191 4 1 -43.824579 8.376875 90.640131
3192 4 1 -42.866698 8.302248 90.917431
3193 4 1 -42.537336 9.090144 90.397103
3194 4 1 -43.366637 9.285293 90.920721
3195 4 1 -43.849198 9.973073 91.463025
3196 4 1 -43.585176 10.560683 90.698168
3197 4 1 -44.433862 11.074608 90.573218
3198 4 1 -44.838256 11.530873 91.365864
3199 4 1 -45.679541 11.055789 91.623808
3200 4 1 -45.205333 10.892466 92.488939
3201 4 1 -44.362946 10.629490 92.959288
3202 4 1 -44.912866 9.822078 93.173000
3203 4 1 -44.258468 9.087185 92.994968
3204 4 1 -43.374328 9.310187 93.405537
3205 4 1 -43.249733 10.098912 94.007525
3206 4 1 -42.710563 10.728667 94.566724
3207 4 1 -43.440532 10.541519 95.224084
3208 4 1 -43.740539 10.685775 94.281117
3209 4 1 -43.142756 11.174141 93.645385
3210 4 1 -42.818894 11.735517 92.883828
3211 4 1 -42.185781 11.074233 93.286159
3212 4 1 -42.583965 11.874507 93.734502
3213 4 1 -43.069082 12.539194 93.166302
3214 4 1 -43.166547 13.370680 92.619373
3215 4 1 -42.196700 13.197149 92.790500
3216 4 1 -41.391188 13.651044 92.409541
3217 4 1 -41.630481 14.486692 91.915141
3218 4 1 -41.019822 14.391715 92.701318
3219 4 1 -40.043096 14.597830 92.641967
3220 4 1 -40.026943 15.118918 93.495317
3221 4 1 -39.766611 15.998477 93.893569
3222 4 1 -39.209901 16.806716 93.701679
3223 4 1 -39.213800 17.117093 92.751073
3224 4 1 -39.012180 17.049549 91.773941
3225 4 1 -39.776414 17.495427 91.307960
3226 4 1 -40.492360 17.254991 91.963408
3227 4 1 -40.379727 18.203904 92.258159
3228 4 1 -41.265309 18.651593 92.381924
3229 4 1 -40.780534 18.596959 93.254855
3230 4 1 -40.105326 17.908421 93.519448
3231 4 1 -40.029491 17.397488 92.663180
3232 4 1 -40.972929 17.067343 92.632700
3233 4 1 -40.164691 16.494890 92.770723
3234 4 1 -39.200711 16.315331 92.966940
3235 4 1 -38.526406 15.577295 92.991742
3236 4 1 -37.808793 16.115006 92.549138
3237 4 1 -37.287067 15.577118 91.886960
3238 4 1 -37.757139 15.359806 91.031502
3239 4 1 -38.370591 16.136068 90.886264
3240 4 1 -38.217125 15.671733 90.014002
3241 4 1 -38.115868 15.224095 89.125539
3242 4 1 -37.148183 15.475616 89.143475
3243 4 1 -36.657393 16.345569 89.095439
3244 4 1 -36.892877 16.606338 88.159198
3245 4 1 -35.930801 16.828685 88.001170
3246 4 1 -36.443431 16.368582 87.276245
3247 4 1 -35.940737 17.232241 87.238963
3248 4 1 -34.945499 17.258975 87.145224
3249 4 1 -35.198105 18.070990 87.671363
3250 4 1 -34.281788 18.044754 88.070956
3251 4 1 -34.875492 17.522172 88.682858
3252 4 1 -34.030443 17.508648 89.217376
3253 4 1 -34.234898 16.956562 88.409045
3254 4 1 -33.288519 16.656344 88.528358
3255 4 1 -32.467150 17.199767 88.355025
3256 4 1 -32.628980 16.807915 89.260709
3257 4 1 -31.770086 16.342192 89.047632
3258 4 1 -31.171359 16.620339 89.798738
3259 4 1 -30.185021 16.526890 89.934402
3260 4 1 -29.505649 17.012030 90.484940
3261 4 1 -29.353724 17.623649 89.708511
3262 4 1 -29.226115 18.555696 90.047634
3263 4 1 -29.414755 19.486262 90.361421
3264 4 1 -30.268862 19.731535 89.902790
3265 4 1 -29.895964 20.446934 89.311899
3266 4 1 -29.407466 19.771505 88.759481
3267 4 1 -28.508976 19.823270 89.195413
3268 4 1 -28.466724 19.699773 88.203968
3269 4 1 -27.991555 19.994411 87.374871
3270 4 1 -28.695861 19.298812 87.233116
3271 4 1 -28.926393 19.106241 86.279297
3272 4 1 -28.753685 19.712606 85.503093
3273 4 1 -27.795133 19.837509 85.759177
3274 4 1 -27.607378 19.022510 86.307378
3275 4 1 -27.240409 19.936287 86.481575
3276 4 1 -26.591884 20.380956 85.863768
3277 4 1 -26.729629 19.390963 85.894417
3278 4 1 -26.908277 18.618990 86.504452
3279 4 1 -26.096573 19.202602 86.481370
3280 4 1 -25.526700 18.823438 85.752343
3281 4 1 -25.773552 18.175996 85.031314
3282 4 1 -26.008889 17.206805 85.104011
3283 4 1 -26.434432 16.404965 84.684529
3284 4 1 -25.539414 16.335751 85.125157
3285 4 1 -24.775404 15.695377 85.203964
3286 4 1 -25.454800 15.545318 84.485699
3287 4 1 -24.913885 16.307623 84.130310
3288 4 1 -24.163642 15.826674 83.676634
3289 4 1 -24.699291 16.319390 82.990842
3290 4 1 -23.718615 16.460097 82.854914
3291 4 1 -23.166807 16.798397 82.092641
3292 4 1 -22.383278 16.669114 81.484884
3293 4 1 -21.655000 16.249132 82.026387
3294 4 1 -20.863036 16.672713 82.466129
3295 4 1 -21.628299 17.145328 82.029085
3296 4 1 -21.486445 17.471335 81.094421
3297 4 1 -20.928364 18.218743 81.454876
3298 4 1 -20.341893 17.560209 80.983300
3299 4 1 -19.841579 18.322606 81.393710
3300 4 1 -19.156576 18.158330 82.103487
3301 4 1 -19.574586 17.451148 82.673716
3302 4 1 -19.585682 16.898336 81.840485
3303 4 1 -18.799026 16.458212 82.273454
3304 4 1 -18.889876 15.507688 82.570524
3305 4 1 -18.908268 14.951000 83.401042
3306 4 1 -19.389300 15.776389 83.696577
3307 4 1 -20.036314 16.538456 83.721592
3308 4 1 -19.753751 17.480185 83.539098
3309 4 1 -20.574896 17.229283 83.026488
3310 4 1 -20.833196 17.976073 83.639338
3311 4 1 -20.053396 18.096413 84.253691
3312 4 1 -19.209807 17.633165 84.525278
3313 4 1 -18.660939 18.015415 85.268667
3314 4 1 -19.493601 18.147961 85.806353
3315 4 1 -20.228963 17.472371 85.859464
3316 4 1 -19.721501 17.163245 86.663780
3317 4 1 -20.000390 16.703584 87.506948
3318 4 1 -20.509919 16.318546 88.276445
3319 4 1 -21.031708 16.642707 89.065530
3320 4 1 -20.231314 16.277847 89.541185
3321 4 1 -19.319848 16.604404 89.791364
3322 4 1 -19.170758 17.493939 89.359507
3323 4 1 -19.936602 17.886426 89.868857
3324 4 1 -19.500025 17.600447 90.721862
3325 4 1 -20.079141 17.483162 91.528626
3326 4 1 -19.146364 17.836629 91.599241
3327 4 1 -18.760900 18.617519 92.090800
3328 4 1 -19.685826 18.982109 91.983158
3329 4 1 -19.921738 18.109736 92.411307
3330 4 1 -20.228660 18.273436 93.348857
3331 4 1 -20.695008 19.154854 93.273882
3332 4 1 -20.387767 19.941617 92.738525
3333 4 1 -21.252719 20.309087 92.396731
3334 4 1 -22.134513 19.839950 92.348266
3335 4 1 -22.304533 19.155054 93.056794
3336 4 1 -22.471532 19.998917 93.566702
3337 4 1 -22.149872 20.553201 92.799041
3338 4 1 -22.613748 21.035788 92.056122
3339 4 1 -23.422788 21.595743 91.877503
3340 4 1 -23.346967 20.600025 91.824612
3341 4 1 -23.147664 19.862299 92.469623
3342 4 1 -22.899091 18.940718 92.171464
3343 4 1 -22.453489 19.436015 91.425729
3344 4 1 -21.467163 19.342813 91.289813
3345 4 1 -21.875942 19.848778 90.530275
3346 4 1 -21.021461 20.288790 90.254137
3347 4 1 -21.766108 20.916331 90.026775
3348 4 1 -21.249055 20.984952 90.879973
3349 4 1 -21.526613 21.102020 91.833523
3350 4 1 -20.595518 21.176658 91.476464
3351 4 1 -20.610115 20.197453 91.678813
3352 4 1 -20.703115 19.267081 92.033438
3353 4 1 -21.301935 18.476739 91.903920
3354 4 1 -21.131370 18.116565 90.986760
3355 4 1 -21.870045 18.027811 90.318566
3356 4 1 -21.852526 18.667284 91.087181
3357 4 1 -22.167803 19.085020 90.235067
3358 4 1 -22.943268 18.454395 90.266139
3359 4 1 -22.709836 17.496341 90.099881
3360 4 1 -23.532610 16.931371 90.037823
3361 4 1 -22.881907 16.372280 89.524011
3362 4 1 -22.268292 16.788977 88.853310
3363 4 1 -22.176307 16.797334 89.849035
3364 4 1 -21.570099 16.115045 89.440387
3365 4 1 -22.374480 15.562127 89.657763
3366 4 1 -22.665053 14.865294 89.002026
3367 4 1 -22.170394 13.996217 89.006108
3368 4 1 -22.225009 14.690139 88.288131
3369 4 1 -22.009910 14.649634 87.312379
3370 4 1 -21.086415 14.742334 87.684621
3371 4 1 -21.569671 14.205437 88.376144
3372 4 1 -20.907865 14.202037 89.125811
3373 4 1 -20.750474 13.214502 89.124058
3374 4 1 -20.715149 13.520460 88.172668
3375 4 1 -19.737270 13.728432 88.150293
3376 4 1 -20.168301 12.826870 88.187680
3377 4 1 -20.992757 12.347030 87.887635
3378 4 1 -20.899801 12.013311 86.949557
3379 4 1 -20.581243 11.074071 86.821694
3380 4 1 -20.120626 10.196177 86.952596
3381 4 1 -19.124188 10.279075 86.968060
3382 4 1 -18.455025 9.707084 86.493668
3383 4 1 -17.974789 10.266110 85.817751
3384 4 1 -17.899330 11.073344 85.232362
3385 4 1 -18.594376 10.818656 84.560018
3386 4 1 -18.703696 11.123638 83.613955
3387 4 1 -18.939162 12.044847 83.304232
3388 4 1 -19.881059 11.974772 82.975722
3389 4 1 -20.310029 12.721991 82.468130
3390 4 1 -20.047877 13.141075 83.337409
3391 4 1 -21.032024 12.996697 83.234401
3392 4 1 -21.700051 12.486119 82.693060
3393 4 1 -21.839300 12.314331 83.668303
3394 4 1 -22.155309 11.368155 83.738239
3395 4 1 -21.924693 11.049957 84.657786
3396 4 1 -21.556705 10.253131 85.137008
3397 4 1 -22.050640 9.778857 84.408247
3398 4 1 -21.889070 9.999288 83.446319
3399 4 1 -21.868183 9.855785 82.456890
3400 4 1 -20.868966 9.816457 82.461204
3401 4 1 -20.480112 10.139072 81.598238
3402 4 1 -20.919889 9.271907 81.831948
3403 4 1 -21.507742 9.088286 82.619800
3404 4 1 -21.119527 8.334680 82.089360
3405 4 1 -21.911393 8.738297 81.631057
3406 4 1 -22.232228 9.682453 81.555992
3407 4 1 -23.205462 9.543045 81.738698
3408 4 1 -24.179868 9.740691 81.845788
3409 4 1 -24.294864 9.066267 82.575122
3410 4 1 -24.686580 8.459987 83.267208
3411 4 1 -25.673127 8.619561 83.302738
3412 4 1 -25.543174 9.602537 83.172844
3413 4 1 -25.058955 9.527198 82.301147
3414 4 1 -25.358557 9.245019 81.389768
3415 4 1 -25.119138 10.192658 81.178443
3416 4 1 -24.162752 10.449201 81.318127
3417 4 1 -24.403076 10.922353 80.470559
3418 4 1 -23.981575 10.017984 80.537294
3419 4 1 -24.859840 10.204041 80.096801
3420 4 1 -25.635069 10.648173 79.647618
3421 4 1 -25.591762 11.276319 80.424507
3422 4 1 -24.899558 11.799399 79.927273
3423 4 1 -25.859250 12.067732 80.010879
3424 4 1 -25.644255 12.299157 79.062080
3425 4 1 -25.945518 13.035156 78.455825
3426 4 1 -25.627795 12.944891 77.511948
3427 4 1 -26.007210 13.715322 78.024275
3428 4 1 -26.490633 13.664296 78.898174
3429 4 1 -27.285528 13.642154 79.504517
3430 4 1 -27.518839 12.968000 80.205289
3431 4 1 -27.485157 12.345463 79.423425
3432 4 1 -27.785026 12.969024 78.701449
3433 4 1 -27.432174 13.902745 78.640947
3434 4 1 -27.992794 14.430991 78.003247
3435 4 1 -27.061274 14.121178 77.812757
3436 4 1 -27.406285 13.985026 76.884086
3437 4 1 -28.159021 14.639659 76.953677
3438 4 1 -27.778933 15.551527 77.108692
3439 4 1 -27.684195 16.167851 77.890465
3440 4 1 -27.120896 15.571423 78.462276
3441 4 1 -26.784453 15.871456 79.354905
3442 4 1 -26.834267 15.525451 80.291814
3443 4 1 -27.259922 16.165849 80.931117
3444 4 1 -26.920790 16.438729 81.831409
3445 4 1 -27.182713 16.580275 82.786061
3446 4 1 -27.807104 15.931228 82.351466
3447 4 1 -27.487816 15.336031 81.614040
3448 4 1 -27.013687 14.491374 81.862545
3449 4 1 -26.075213 14.552029 81.522564
3450 4 1 -26.059094 15.145046 82.327593
3451 4 1 -26.397898 14.956122 83.249287
3452 4 1 -25.422723 14.791846 83.397769
3453 4 1 -25.054768 15.503547 82.799361
3454 4 1 -26.011711 15.708053 83.005365
3455 4 1 -25.848398 16.230440 83.842288
3456 4 1 -26.063475 16.956664 83.189340
3457 4 1 -25.539235 16.846106 82.344977
3458 4 1 -25.968445 16.838608 81.441803
3459 4 1 -26.317334 16.848393 80.504691
3460 4 1 -25.834895 17.705541 80.685104
3461 4 1 -25.921395 18.691341 80.541174
3462 4 1 -25.268237 18.451236 81.259321
3463 4 1 -25.700328 19.229757 81.714514
3464 4 1 -26.240301 18.394313 81.612230
3465 4 1 -25.469945 17.757477 81.643713
3466 4 1 -24.936328 16.964351 81.350107
3467 4 1 -24.856156 16.032165 81.703094
3468 4 1 -24.769092 15.040968 81.802842
3469 4 1 -25.157409 14.418237 81.123566
3470 4 1 -24.886531 13.976581 80.268250
3471 4 1 -25.681647 14.031199 79.664258
3472 4 1 -25.679484 13.582166 80.557770
3473 4 1 -26.307491 13.492593 79.784735
3474 4 1 -26.796843 14.341763 79.586124
3475 4 1 -27.269273 15.222451 79.551528
3476 4 1 -27.720798 14.880222 78.727511
3477 4 1 -28.221140 15.095504 79.566148
3478 4 1 -27.530060 14.941196 80.272262
3479 4 1 -26.886658 14.187728 80.407612
3480 4 1 -26.744503 13.214386 80.587600
3481 4 1 -26.672029 13.917967 81.294509
3482 4 1 -27.423399 14.545428 81.090213
3483 4 1 -27.767135 13.701962 81.503021
3484 4 1 -28.178490 14.186859 82.274812
3485 4 1 -29.045622 14.684032 82.304841
3486 4 1 -29.023982 14.220676 81.418932
3487 4 1 -29.977903 14.134767 81.131435
3488 4 1 -29.343088 14.816303 80.767406
3489 4 1 -29.222001 14.324049 79.905417
3490 4 1 -30.058721 14.748000 80.252064
3491 4 1 -30.868291 14.290870 79.883786
3492 4 1 -31.461210 13.934903 80.606097
3493 4 1 -31.936630 14.423212 79.874298
3494 4 1 -32.514241 14.131496 79.111889
3495 4 1 -32.933590 14.758054 78.454948
3496 4 1 -32.702077 15.729104 78.513798
3497 4 1 -32.396289 16.430167 79.158006
3498 4 1 -32.818600 17.330764 79.260862
3499 4 1 -33.401738 16.574975 79.558743
3500 4 1 -34.329237 16.911271 79.721995
3501 4 1 -34.129167 15.966305 79.980861
3502 4 1 -34.455345 16.083662 79.042866
3503 4 1 -34.617412 15.122497 78.819491
3504 4 1 -35.514782 14.812390 79.133434
3505 4 1 -36.084973 14.666460 79.941881
3506 4 1 -35.975347 15.646306 79.774896
3507 4 1 -36.727987 15.045863 79.504708
3508 4 1 -36.738814 15.856106 80.090703
3509 4 1 -35.942775 15.923011 80.692239
3510 4 1 -36.902147 16.130371 80.883570
3511 4 1 -36.910806 15.314305 81.461464
3512 4 1 -36.707442 15.009146 82.391798
3513 4 1 -36.515240 15.674498 83.113161
3514 4 1 -36.017196 16.505795 82.866387
3515 4 1 -36.656627 16.209265 82.157023
3516 4 1 -37.455901 16.262862 81.558451
3517 4 1 -38.406074 16.474981 81.786872
3518 4 1 -38.656994 17.427456 81.614156
3519 4 1 -39.081005 17.675776 82.485105
3520 4 1 -38.469496 18.330936 82.041457
3521 4 1 -37.666971 17.877867 82.429635
3522 4 1 -36.974864 17.157414 82.385632
3523 4 1 -37.337339 16.658304 83.172716
3524 4 1 -37.750143 16.786218 82.270923
3525 4 1 -37.903138 15.881111 82.667626
3526 4 1 -38.369203 15.024479 82.446347
3527 4 1 -39.247154 15.306909 82.059778
3528 4 1 -39.341919 16.194311 81.608626
3529 4 1 -40.238890 16.299300 82.038067
3530 4 1 -41.000633 16.379387 81.395157
3531 4 1 -41.887772 16.510548 81.837628
3532 4 1 -41.613130 15.549083 81.850150
3533 4 1 -41.614464 15.237023 80.900089
3534 4 1 -40.970934 14.741787 81.483707
3535 4 1 -40.387862 15.022852 82.245960
3536 4 1 -39.635683 14.495242 82.640743
3537 4 1 -40.083801 13.703408 82.225785
3538 4 1 -40.641339 13.880610 83.036804
3539 4 1 -40.571398 14.637941 83.686079
3540 4 1 -40.331018 14.992162 84.589819
3541 4 1 -40.956102 15.453875 83.960461
3542 4 1 -40.306258 16.176767 84.195256
3543 4 1 -39.763315 16.914986 84.595563
3544 4 1 -40.280784 16.888711 85.450861
3545 4 1 -41.224982 16.796640 85.134613
3546 4 1 -42.078771 16.544088 84.679353
3547 4 1 -43.031847 16.767060 84.884120
3548 4 1 -43.102395 15.860293 84.468431
3549 4 1 -43.420088 15.800726 83.522111
3550 4 1 -42.862045 15.121006 83.046118
3551 4 1 -43.536337 15.027048 83.778581
3552 4 1 -44.465381 14.667200 83.692634
3553 4 1 -45.425555 14.648753 83.971428
3554 4 1 -46.223222 14.159284 83.619083
3555 4 1 -46.883813 13.600616 84.120590
3556 4 1 -45.901347 13.746720 84.236411
3557 4 1 -46.550144 13.689775 84.995239
3558 4 1 -46.987546 12.841683 84.696208
3559 4 1 -47.385299 12.142671 85.290494
3560 4 1 -48.369162 11.973298 85.348163
3561 4 1 -48.285330 12.575918 84.554551
3562 4 1 -48.553159 13.454833 84.159867
3563 4 1 -47.911178 13.356564 83.399470
3564 4 1 -47.835213 13.926288 82.581153
3565 4 1 -47.012290 13.359625 82.622272
3566 4 1 -46.939058 14.145321 83.236535
3567 4 1 -47.097559 14.892620 82.591228
3568 4 1 -46.717227 15.314508 83.414247
3569 4 1 -46.921846 15.772564 82.549194
3570 4 1 -46.225521 15.106345 82.816185
3571 4 1 -45.624600 15.726158 83.320888
3572 4 1 -45.789144 16.177404 84.197987
3573 4 1 -46.774340 16.112071 84.356483
3574 4 1 -45.996520 15.691116 84.823165
3575 4 1 -45.097651 15.292003 84.642214
3576 4 1 -45.322049 15.406385 85.609975
3577 4 1 -45.317808 14.501673 86.035977
3578 4 1 -46.146291 14.034144 86.344251
3579 4 1 -46.551295 13.324117 86.920299
3580 4 1 -46.509851 13.359152 85.921773
3581 4 1 -45.810472 13.006733 86.543601
3582 4 1 -45.020057 13.613231 86.629652
3583 4 1 -44.451557 13.035548 87.215390
3584 4 1 -43.573733 13.466054 87.425364
3585 4 1 -42.657114 13.162495 87.165245
3586 4 1 -42.272704 12.868730 86.290070
3587 4 1 -41.504207 12.231925 86.227694
3588 4 1 -40.799851 12.940843 86.191383
3589 4 1 -40.102062 12.293202 85.885359
3590 4 1 -40.754767 11.958604 86.565080
3591 4 1 -40.991273 11.362510 85.797788
3592 4 1 -40.221611 11.079770 86.370220
3593 4 1 -39.488797 11.569420 85.897752
3594 4 1 -39.002375 11.061625 85.186740
3595 4 1 -38.430206 10.525415 85.807307
3596 4 1 -38.501713 10.135657 86.725444
3597 4 1 -37.668575 10.683016 86.804681
3598 4 1 -36.798931 10.822134 86.331007
3599 4 1 -35.814159 10.939636 86.202878
3600 4 1 -36.407035 10.802891 85.409279
3601 4 1 -37.149879 10.763021 84.741002
3602 4 1 -37.724099 9.944469 84.725401
3603 4 1 -38.351466 9.217810 84.445440
3604 4 1 -38.038049 9.291627 83.498697
3605 4 1 -39.019519 9.332039 83.311393
3606 4 1 -38.934031 8.554659 83.934588
3607 4 1 -38.256961 7.833172 83.789564
3608 4 1 -37.628692 8.610149 83.829378
3609 4 1 -36.971924 9.345219 83.997685
3610 4 1 -36.718363 8.818783 84.809209
3611 4 1 -36.030089 8.097157 84.883610
3612 4 1 -36.129438 7.711798 85.801012
3613 4 1 -36.656565 8.059203 86.576543
3614 4 1 -36.254716 7.785586 87.450414
3615 4 1 -35.281687 7.561619 87.505660
3616 4 1 -35.011932 8.506735 87.690020
3617 4 1 -34.060372 8.668589 87.951433
3618 4 1 -34.423221 8.844923 87.036421
3619 4 1 -33.430483 8.917164 86.940226
3620 4 1 -33.092393 8.168309 86.370216
3621 4 1 -33.745762 7.575556 86.841123
3622 4 1 -33.398189 7.108024 87.653900
3623 4 1 -32.459083 6.772340 87.727357
3624 4 1 -32.798547 7.682081 87.488326
3625 4 1 -32.075856 8.240736 87.081358
3626 4 1 -31.928796 7.273662 87.289063
3627 4 1 -31.371374 7.894742 87.840007
3628 4 1 -31.016540 7.390037 87.053008
3629 4 1 -30.979064 7.100679 88.009496
3630 4 1 -30.647750 6.738321 88.880660
3631 4 1 -30.248690 7.147236 89.701355
3632 4 1 -29.360192 7.543159 89.469373
3633 4 1 -29.614972 6.668443 89.057112
3634 4 1 -29.620821 7.534885 88.557869
3635 4 1 -29.106243 8.391803 88.527842
3636 4 1 -28.485575 7.886046 89.126994
3637 4 1 -27.938435 7.659651 88.321151
3638 4 1 -27.271778 7.325167 88.987251
3639 4 1 -27.590589 7.475210 89.923118
3640 4 1 -27.898054 6.546093 90.128557
3641 4 1 -27.489916 6.122012 89.320115
3642 4 1 -26.662591 5.964879 89.859413
3643 4 1 -26.089038 6.747795 90.100409
3644 4 1 -26.874953 7.288762 90.399897
3645 4 1 -27.474247 7.785498 91.027671
3646 4 1 -27.697737 8.576044 91.597838
3647 4 1 -27.698061 8.964841 90.676514
3648 4 1 -28.658334 8.685928 90.667364
3649 4 1 -29.585117 8.607420 90.300063
3650 4 1 -29.165080 8.908260 89.443872
3651 4 1 -29.235770 9.479865 90.261350
3652 4 1 -29.140908 10.160291 89.534699
3653 4 1 -30.110085 10.156424 89.288365
3654 4 1 -30.397576 9.895986 88.366671
3655 4 1 -30.399226 10.890462 88.261723
3656 4 1 -30.149528 11.854649 88.172313
3657 4 1 -30.082255 12.813752 88.447261
3658 4 1 -30.590232 13.468123 89.007402
3659 4 1 -31.563097 13.565839 88.797674
3660 4 1 -32.007207 13.598545 89.693049
3661 4 1 -33.006383 13.568686 89.720568
3662 4 1 -33.223963 12.862148 90.393965
3663 4 1 -34.007972 12.318489 90.094359
3664 4 1 -33.579953 11.953851 90.921305
3665 4 1 -33.753939 11.281389 91.640696
3666 4 1 -33.608306 12.047906 92.266191
3667 4 1 -33.562268 12.763097 92.963602
3668 4 1 -34.237191 12.887905 92.236345
3669 4 1 -34.979812 12.277771 92.512483
3670 4 1 -34.742508 12.460155 91.558322
3671 4 1 -34.783626 11.801853 90.806691
3672 4 1 -34.366870 11.082949 90.250372
3673 4 1 -33.589258 10.515138 90.520389
3674 4 1 -33.895189 10.316664 91.451525
3675 4 1 -33.839046 9.852260 92.335367
3676 4 1 -33.101872 9.472606 92.894329
3677 4 1 -32.360384 8.803186 92.848811
3678 4 1 -32.796307 7.936640 92.605768
3679 4 1 -33.332716 8.620331 93.100573
3680 4 1 -33.710008 8.725787 92.180502
3681 4 1 -33.918533 8.850321 91.210446
3682 4 1 -32.928252 8.804489 91.341755
3683 4 1 -32.969373 7.898251 91.762519
3684 4 1 -33.914704 7.660931 91.986192
3685 4 1 -34.359783 7.864089 92.858334
3686 4 1 -35.207045 7.773790 92.334891
3687 4 1 -35.603851 8.208798 93.143169
3688 4 1 -34.731884 8.671854 93.302083
3689 4 1 -34.516412 9.369691 92.619005
3690 4 1 -35.190811 9.252356 91.890020
3691 4 1 -36.156570 9.508849 91.929025
3692 4 1 -36.592414 9.385958 91.037432
3693 4 1 -37.015134 8.805757 91.733619
3694 4 1 -36.498193 7.972696 91.536688
3695 4 1 -37.019259 7.352325 90.950488
3696 4 1 -37.619503 6.555492 91.019511
3697 4 1 -37.598625 5.772089 91.640674
3698 4 1 -38.054429 5.396437 90.833749
3699 4 1 -37.388466 4.669696 91.002091
3700 4 1 -38.133486 4.308117 90.441550
3701 4 1 -37.394648 4.152841 89.785799
3702 4 1 -37.182495 5.128646 89.838682
3703 4 1 -36.531025 4.482444 90.236187
3704 4 1 -35.635153 4.541614 89.795834
3705 4 1 -35.225435 3.634966 89.896434
3706 4 1 -34.401657 3.092350 89.732248
3707 4 1 -33.803744 2.295008 89.814391
3708 4 1 -34.313135 2.282677 90.674838
3709 4 1 -34.957693 2.244837 89.911219
3710 4 1 -35.047477 1.248902 89.903950
3711 4 1 -35.396502 1.499190 90.807021
3712 4 1 -34.695439 1.830879 91.438284
3713 4 1 -33.870085 1.495109 90.984357
3714 4 1 -33.025950 1.088211 91.333456
3715 4 1 -33.546949 0.243506 91.210838
3716 4 1 -33.864310 0.155274 92.155029
3717 4 1 -33.580661 -0.312879 92.991913
3718 4 1 -33.033097 -0.037094 92.201904
3719 4 1 -32.374769 -0.026810 92.954565
3720 4 1 -32.301313 0.666043 93.671893
3721 4 1 -32.635110 1.608686 93.670113
3722 4 1 -33.616591 1.429818 93.738678
3723 4 1 -33.301101 0.782553 94.432591
3724 4 1 -34.221686 1.026713 94.127780
3725 4 1 -33.929021 1.378557 95.016910
3726 4 1 -33.047795 1.326119 95.486688
3727 4 1 -32.815760 1.995185 94.780635
3728 4 1 -32.053316 2.448280 95.242570
3729 4 1 -32.500584 3.102797 95.852127
3730 4 1 -32.628093 4.057324 95.582645
3731 4 1 -32.748201 5.017005 95.328505
3732 4 1 -33.102580 5.629038 94.621518
3733 4 1 -33.198435 4.744309 94.165376
3734 4 1 -33.752012 4.239723 93.502846
3735 4 1 -33.833713 3.609938 92.730386
3736 4 1 -33.340354 4.159690 92.056316
3737 4 1 -33.957169 4.504977 91.348986
3738 4 1 -34.055257 3.529675 91.151085
3739 4 1 -34.996564 3.667020 91.459431
3740 4 1 -35.615040 3.394241 92.196370
3741 4 1 -35.952832 2.608138 91.678742
3742 4 1 -36.295138 3.410988 91.190625
3743 4 1 -35.764065 4.111732 90.714264
3744 4 1 -35.543725 4.507900 91.605612
3745 4 1 -35.388890 5.428299 91.246597
3746 4 1 -34.983699 5.366384 90.334464
3747 4 1 -34.414716 6.128055 90.024438
3748 4 1 -34.446676 5.683299 90.919520
3749 4 1 -33.526399 5.693903 91.310645
3750 4 1 -33.079099 6.360821 91.906583
3751 4 1 -33.476339 6.462275 92.818673
3752 4 1 -32.770898 5.777717 92.635004
3753 4 1 -32.054504 6.274066 92.144682
3754 4 1 -31.257609 6.878184 92.145871
3755 4 1 -31.276168 7.873095 92.244899
3756 4 1 -30.879403 7.519759 91.397708
3757 4 1 -30.722924 8.456099 91.083414
3758 4 1 -30.565353 9.375124 90.722075
3759 4 1 -29.810851 8.951139 91.223038
3760 4 1 -30.311252 8.956182 92.088817
3761 4 1 -31.273837 8.849103 92.337744
3762 4 1 -31.648191 9.753683 92.541692
3763 4 1 -31.832461 10.508135 91.911735
3764 4 1 -32.113054 9.580628 91.664757
3765 4 1 -32.665499 9.904843 90.896845
3766 4 1 -33.076292 10.623390 91.458039
3767 4 1 -32.716751 10.792552 92.375707
3768 4 1 -32.030466 10.921509 93.091517
3769 4 1 -32.338602 11.475108 93.865197
3770 4 1 -33.075802 10.799929 93.891073
3771 4 1 -33.339614 10.278473 93.079601
3772 4 1 -32.446878 9.994764 92.729555
3773 4 1 -32.959633 9.474203 92.046841
3774 4 1 -33.410163 9.649973 91.171553
3775 4 1 -33.614148 9.499188 90.204261
3776 4 1 -33.204168 10.172635 89.589130
3777 4 1 -33.228721 10.053586 88.596546
3778 4 1 -32.417191 10.384025 88.114644
3779 4 1 -31.801907 11.121063 87.835001
3780 4 1 -31.976683 12.019985 88.236739
3781 4 1 -31.324867 12.742230 88.005438
3782 4 1 -31.334632 12.629441 87.011867
3783 4 1 -31.780885 13.358996 87.530142
3784 4 1 -32.081030 13.681918 86.632570
3785 4 1 -31.211085 14.171469 86.692027
3786 4 1 -32.133746 14.510152 86.876390
3787 4 1 -31.690182 15.001303 86.126709
3788 4 1 -32.115120 15.799669 86.553370
3789 4 1 -32.423923 15.940429 87.494022
3790 4 1 -32.694768 16.900025 87.570296
3791 4 1 -31.750347 17.085220 87.298686
3792 4 1 -31.815246 16.701580 88.219885
3793 4 1 -31.566040 17.669887 88.203214
3794 4 1 -30.596652 17.574038 88.429269
3795 4 1 -31.114939 18.398198 88.200929
3796 4 1 -30.382592 17.970691 87.670923
3797 4 1 -29.490429 17.525466 87.594635
3798 4 1 -29.004606 17.090610 88.352841
3799 4 1 -28.590435 17.003907 87.446781
3800 4 1 -28.634954 17.985348 87.633308
3801 4 1 -28.108309 18.804680 87.859888
3802 4 1 -28.555665 18.109741 88.422855
3803 4 1 -28.163397 17.208702 88.607936
3804 4 1 -27.355086 17.643193 88.210631
3805 4 1 -27.075599 16.739969 88.536321
3806 4 1 -27.119548 15.800879 88.195470
3807 4 1 -26.249003 15.367540 87.962301
3808 4 1 -26.669422 14.589626 87.495291
3809 4 1 -27.156021 14.085067 86.782100
3810 4 1 -28.008215 14.606704 86.741355
3811 4 1 -28.753746 14.941112 87.317858
3812 4 1 -28.644565 14.233500 88.015973
3813 4 1 -29.441659 13.828946 87.567667
3814 4 1 -30.021414 13.247790 86.996579
3815 4 1 -29.137403 13.200025 86.531558
3816 4 1 -28.928202 13.095879 85.559247
3817 4 1 -29.255863 13.974527 85.211950
3818 4 1 -28.374772 13.997874 84.739580
3819 4 1 -27.436306 13.671403 84.626889
3820 4 1 -26.707339 13.009328 84.452923
3821 4 1 -26.303712 12.779096 85.338405
3822 4 1 -27.114510 12.211570 85.481657
3823 4 1 -26.694736 12.012251 84.596184
3824 4 1 -26.705430 11.057520 84.893464
3825 4 1 -27.217558 10.770432 84.083954
3826 4 1 -27.510858 11.164802 84.954843
3827 4 1 -28.063801 11.865304 85.406011
3828 4 1 -29.051434 11.799834 85.263557
3829 4 1 -28.778790 12.661023 84.834583
3830 4 1 -28.390789 13.359869 84.233692
3831 4 1 -29.310621 13.380301 83.841911
3832 4 1 -29.051299 12.431783 84.023753
3833 4 1 -28.622380 12.299865 83.130094
3834 4 1 -28.433389 11.714324 83.918399
3835 4 1 -28.879065 11.130813 83.239511
3836 4 1 -29.075886 10.436463 83.931710
3837 4 1 -29.786900 10.186864 84.589099
3838 4 1 -29.910467 11.071204 85.039291
3839 4 1 -29.768141 11.863615 84.446140
3840 4 1 -30.238296 12.313515 83.686836
3841 4 1 -30.964523 12.444252 84.361745
3842 4 1 -31.413389 13.140749 83.801914
3843 4 1 -32.048444 13.768833 84.251600
3844 4 1 -32.533862 13.845077 83.380649
3845 4 1 -31.695376 13.559270 82.916692
3846 4 1 -30.994780 14.148968 83.318466
3847 4 1 -30.231630 14.762624 83.521023
3848 4 1 -29.361467 14.279467 83.424191
3849 4 1 -29.876120 14.674415 82.663173
3850 4 1 -30.234943 13.742752 82.720173
3851 4 1 -30.535566 13.237839 83.529301
3852 4 1 -29.728956 12.834282 83.097419
3853 4 1 -30.383597 12.809624 82.341881
3854 4 1 -30.719364 11.978805 82.785728
3855 4 1 -31.271321 11.900214 81.955567
3856 4 1 -30.703851 11.523730 81.223284
3857 4 1 -31.237202 12.369505 81.209093
3858 4 1 -31.796580 13.081131 80.784022
3859 4 1 -31.447084 13.237770 79.860271
3860 4 1 -31.327079 13.308158 78.869996
3861 4 1 -32.242867 13.549957 78.549267
3862 4 1 -32.062706 14.405388 78.063694
3863 4 1 -31.508087 15.117385 78.494342
3864 4 1 -32.071307 15.503946 79.224653
3865 4 1 -31.144968 15.853807 79.364271
3866 4 1 -30.272682 16.137028 79.762897
3867 4 1 -30.003318 16.362600 78.826649
3868 4 1 -29.693595 15.593638 78.267392
3869 4 1 -28.760546 15.877698 78.046644
3870 4 1 -29.175875 15.294838 77.348234
3871 4 1 -29.953753 15.920299 77.409093
3872 4 1 -29.928510 16.474488 76.577086
3873 4 1 -29.805807 15.829000 75.823237
3874 4 1 -30.671124 16.157959 75.445067
3875 4 1 -31.064215 15.488610 74.814629
3876 4 1 -31.994544 15.156242 74.969610
3877 4 1 -32.621929 14.970955 75.725954
3878 4 1 -32.692073 14.628946 74.788879
3879 4 1 -33.327978 14.606797 74.017430
3880 4 1 -33.702426 14.489879 73.097582
3881 4 1 -33.509811 13.904910 72.309730
3882 4 1 -32.847753 13.448881 72.904471
3883 4 1 -32.391913 12.877401 73.586836
3884 4 1 -32.214916 13.748229 74.045455
3885 4 1 -31.451970 13.331857 73.550937
3886 4 1 -31.636938 13.498982 72.582508
3887 4 1 -31.805079 12.529268 72.405351
3888 4 1 -31.913183 11.713307 71.837442
3889 4 1 -32.411718 10.880975 72.079693
3890 4 1 -33.312634 11.116281 71.715026
3891 4 1 -34.251547 11.352680 71.464912
3892 4 1 -34.081036 11.657187 70.527788
3893 4 1 -33.326591 11.875314 69.908730
3894 4 1 -33.103172 12.044541 70.868649
3895 4 1 -32.361668 12.491170 71.369342
3896 4 1 -32.045337 12.170202 70.476641
3897 4 1 -31.058286 12.147362 70.635417
3898 4 1 -31.335429 12.814076 69.943546
3899 4 1 -31.745978 13.031774 70.829016
3900 4 1 -30.866330 13.125247 71.295365
3901 4 1 -30.126758 12.456361 71.220359
3902 4 1 -29.702143 13.098409 71.858698
3903 4 1 -29.724712 13.282052 70.875964
3904 4 1 -28.987072 13.818802 70.466347
3905 4 1 -28.467469 13.388669 71.204588
3906 4 1 -27.641970 12.824902 71.177792
3907 4 1 -27.779732 11.842375 71.052637
3908 4 1 -27.262173 11.695999 71.895672
3909 4 1 -27.372571 12.242272 72.725972
3910 4 1 -27.793713 12.856325 72.058456
3911 4 1 -26.949046 13.172930 71.626835
3912 4 1 -26.214678 13.797729 71.892033
3913 4 1 -26.716393 14.038687 71.061238
3914 4 1 -26.726621 13.058983 70.861050
3915 4 1 -26.362742 13.288856 69.958415
3916 4 1 -25.990478 12.419719 69.632809
3917 4 1 -25.764186 11.542925 69.208515
3918 4 1 -25.472189 12.116648 68.443284
3919 4 1 -25.228447 12.226900 67.479730
3920 4 1 -24.653561 13.014172 67.702685
3921 4 1 -23.781308 13.503106 67.713584
3922 4 1 -23.248549 13.753299 68.522021
3923 4 1 -23.023852 13.200689 67.719443
3924 4 1 -22.207853 13.738675 67.507980
3925 4 1 -22.291291 14.620481 67.043807
3926 4 1 -22.310560 14.922292 67.996980
3927 4 1 -22.798639 15.783712 67.856498
3928 4 1 -22.330154 15.709742 66.976128
3929 4 1 -21.776328 16.541947 67.002802
3930 4 1 -22.661846 16.862894 66.666870
3931 4 1 -23.648378 16.815091 66.823296
3932 4 1 -24.376165 17.353351 67.248269
3933 4 1 -24.304831 16.423296 67.608699
3934 4 1 -23.765176 15.798964 68.173483
3935 4 1 -23.909834 15.307581 69.032329
3936 4 1 -23.869486 15.471125 70.018040
3937 4 1 -22.996818 15.538492 70.501685
3938 4 1 -22.347715 15.179937 69.830788
3939 4 1 -22.134813 14.710122 70.687494
3940 4 1 -21.967480 14.391391 71.620452
3941 4 1 -21.160835 14.650121 71.089057
3942 4 1 -21.297532 14.859613 72.057265
3943 4 1 -20.358631 14.516649 72.086255
3944 4 1 -19.882404 14.885936 71.288235
3945 4 1 -19.042970 14.396075 71.052890
3946 4 1 -19.829574 13.785971 71.147900
3947 4 1 -20.518192 13.195042 71.568148
3948 4 1 -21.435378 12.828507 71.724425
3949 4 1 -21.886734 12.919961 72.612070
3950 4 1 -21.235893 12.352762 73.116739
3951 4 1 -20.334190 12.723701 72.894623
3952 4 1 -19.730352 12.439814 72.149782
3953 4 1 -19.244695 13.304729 72.276506
3954 4 1 -18.390330 12.785625 72.252201
3955 4 1 -17.729798 12.234273 71.742585
3956 4 1 -18.259131 12.099201 70.904992
3957 4 1 -17.775504 11.269600 70.625945
3958 4 1 -17.239567 10.923476 71.395991
3959 4 1 -16.249162 10.941696 71.259006
3960 4 1 -15.864912 11.486018 70.513308
3961 4 1 -15.925878 12.479464 70.609993
3962 4 1 -15.260939 12.600236 71.347061
3963 4 1 -16.240487 12.581251 71.547372
3964 4 1 -16.096963 13.553239 71.361252
3965 4 1 -16.596968 14.418903 71.386158
3966 4 1 -16.403339 13.917328 70.542992
3967 4 1 -16.847189 13.296420 71.189112
3968 4 1 -16.593392 13.139864 70.234608
3969 4 1 -16.322475 13.673009 69.433135
3970 4 1 -17.301381 13.781081 69.259747
3971 4 1 -17.504584 13.745072 68.281273
3972 4 1 -18.415942 13.397764 68.502188
3973 4 1 -18.527971 12.663092 69.171296
3974 4 1 -19.302961 12.077667 68.933245
3975 4 1 -19.845812 12.872879 68.663151
3976 4 1 -19.250056 13.002736 67.870553
3977 4 1 -18.786535 13.400312 67.078668
3978 4 1 -18.180732 13.036000 67.785973
3979 4 1 -17.734830 12.288153 68.277801
3980 4 1 -17.988626 12.118144 67.325601
3981 4 1 -18.946482 12.389137 67.230340
3982 4 1 -18.992611 11.957837 68.131368
3983 4 1 -18.910465 11.047243 68.536425
3984 4 1 -18.461677 11.356161 69.374971
3985 4 1 -18.443596 10.371354 69.202266
3986 4 1 -19.201552 9.726084 69.106719
3987 4 1 -19.025579 10.010765 68.164387
3988 4 1 -18.322639 9.303778 68.242132
3989 4 1 -18.384765 8.341910 68.508497
3990 4 1 -18.405426 8.724729 67.584904
3991 4 1 -19.307263 8.833752 67.166808
3992 4 1 -20.052939 8.750669 66.505700
3993 4 1 -20.919781 8.316967 66.751642
3994 4 1 -21.366781 8.204994 67.639140
3995 4 1 -21.688999 8.988361 68.170658
3996 4 1 -22.233971 9.681671 67.699144
3997 4 1 -22.889454 9.973920 68.395515
3998 4 1 -22.823501 10.964431 68.274938
3999 4 1 -22.602288 10.470396 67.434108
4000 4 1 -21.763216 11.001997 67.549691
4001 5 1 80.060501 72.741475 -44.049333
4002 5 1 79.387174 72.961559 -43.343504
4003 5 1 79.948067 72.140842 -43.452240
4004 5 1 80.460031 72.098941 -42.594256
4005 5 1 79.970535 72.863511 -42.174939
4006 5 1 80.964870 72.816320 -42.270183
4007 5 1 80.999009 72.893825 -43.266591
4008 5 1 81.460354 73.442000 -42.568977
4009 5 1 81.854337 73.050119 -43.400365
4010 5 1 82.339070 72.176324 -43.439315
4011 5 1 82.412336 72.138679 -44.435917
4012 5 1 81.905763 71.294858 -44.612978
4013 5 1 81.714331 71.544245 -45.562272
4014 5 1 81.991249 72.356442 -46.075744
4015 5 1 82.437332 72.810349 -46.847092
4016 5 1 82.213337 73.646278 -46.346045
4017 5 1 81.307632 73.691218 -46.767565
4018 5 1 81.536628 74.484004 -47.332410
4019 5 1 81.759658 75.139256 -46.610675
4020 5 1 81.168868 74.456324 -46.181057
4021 5 1 81.704288 74.112126 -45.409791
4022 5 1 81.108002 73.533676 -45.966422
4023 5 1 80.922132 72.913136 -46.728251
4024 5 1 80.457109 72.993355 -47.609908
4025 5 1 79.649699 73.214537 -47.062946
4026 5 1 79.200093 72.488081 -46.543218
4027 5 1 78.630853 72.228439 -47.323315
4028 5 1 77.761563 72.006939 -46.881419
4029 5 1 77.596966 72.825290 -47.432064
4030 5 1 76.966389 73.185194 -46.744429
4031 5 1 76.938239 72.364894 -46.173189
4032 5 1 76.191550 73.028193 -46.223066
4033 5 1 76.835664 73.760909 -46.003420
4034 5 1 76.803566 73.284013 -45.125046
4035 5 1 76.298231 73.348382 -44.264527
4036 5 1 75.859248 73.198361 -43.378645
4037 5 1 75.029698 73.573525 -43.792286
4038 5 1 74.439590 73.264472 -43.046458
4039 5 1 74.013353 72.417561 -42.728554
4040 5 1 73.873247 73.206003 -42.129613
4041 5 1 73.010577 73.619659 -42.420626
4042 5 1 72.958182 73.343200 -41.461030
4043 5 1 72.257858 73.057491 -42.115184
4044 5 1 72.102821 72.593172 -41.243192
4045 5 1 71.168692 72.828922 -41.511190
4046 5 1 71.584095 73.717744 -41.317705
4047 5 1 72.295581 73.326884 -40.733738
4048 5 1 71.380954 73.124957 -40.383477
4049 5 1 71.988042 73.389786 -39.634271
4050 5 1 72.796409 73.977353 -39.670422
4051 5 1 72.174346 74.645617 -39.262425
4052 5 1 72.235343 74.055298 -38.457563
4053 5 1 71.876862 73.332045 -37.867311
4054 5 1 71.236954 72.776798 -37.336069
4055 5 1 71.122909 73.764599 -37.442105
4056 5 1 70.676171 74.213237 -38.216152
4057 5 1 69.921531 73.557191 -38.227175
4058 5 1 70.164143 73.396206 -37.270502
4059 5 1 70.529475 73.930197 -36.508015
4060 5 1 71.188386 74.165107 -35.793415
4061 5 1 71.653843 74.921347 -36.253252
4062 5 1 70.910964 75.540786 -36.507076
4063 5 1 71.336541 76.314853 -36.975803
4064 5 1 71.669374 76.788611 -36.160465
4065 5 1 71.773774 76.029149 -35.518345
4066 5 1 71.965115 76.432767 -34.623649
4067 5 1 72.089472 77.408009 -34.440787
4068 5 1 71.996761 78.161152 -35.092079
4069 5 1 71.533992 77.392761 -35.534142
4070 5 1 71.344776 78.126093 -36.187151
4071 5 1 71.204651 78.775927 -35.440103
4072 5 1 71.675994 78.872739 -36.316724
4073 5 1 72.640948 78.757451 -36.080986
4074 5 1 73.598174 78.472171 -36.032689
4075 5 1 73.156341 77.781182 -35.460572
4076 5 1 72.473704 77.120544 -35.772923
4077 5 1 73.360066 76.762823 -35.478989
4078 5 1 73.826573 76.868924 -36.357119
4079 5 1 74.172789 77.762503 -36.642866
4080 5 1 74.803522 77.865796 -35.873771
4081 5 1 74.368479 77.545692 -35.032182
4082 5 1 74.913324 76.773121 -34.706180
4083 5 1 74.796425 76.850225 -33.716034
4084 5 1 74.430595 75.982277 -34.051942
4085 5 1 75.046152 75.382136 -33.541139
4086 5 1 75.418691 76.246483 -33.878953
4087 5 1 75.820291 76.940854 -33.281821
4088 5 1 76.286003 77.223339 -32.443182
4089 5 1 75.396446 77.667535 -32.549846
4090 5 1 75.989080 78.293860 -33.056307
4091 5 1 75.974215 79.291421 -33.124506
4092 5 1 76.375353 79.067394 -34.012706
4093 5 1 77.346844 79.303959 -34.028299
4094 5 1 78.338135 79.393562 -34.124808
4095 5 1 77.753326 80.100622 -33.727233
4096 5 1 76.958938 80.577845 -33.351461
4097 5 1 76.288156 81.251648 -33.041555
4098 5 1 76.725577 81.419179 -33.925069
4099 5 1 77.638745 81.049333 -34.096353
4100 5 1 77.922093 81.759041 -33.451350
4101 5 1 78.265259 81.817870 -34.388781
4102 5 1 77.666414 81.967465 -35.175550
4103 5 1 77.692862 82.957590 -35.313219
4104 5 1 76.750111 83.224649 -35.113468
4105 5 1 76.565246 82.248641 -35.228506
4106 5 1 76.499687 82.693846 -36.121532
4107 5 1 75.680930 83.249282 -36.266885
4108 5 1 75.434617 83.979543 -35.629665
4109 5 1 75.996168 83.580484 -34.904812
4110 5 1 75.223340 83.402874 -34.295556
4111 5 1 74.652623 83.900443 -33.642329
4112 5 1 74.883832 84.554313 -32.921915
4113 5 1 75.866206 84.740854 -32.909900
4114 5 1 75.893974 85.544776 -33.503985
4115 5 1 75.484105 85.914698 -32.670220
4116 5 1 74.846832 85.326121 -32.172767
4117 5 1 75.500389 84.848527 -31.585599
4118 5 1 76.049941 85.329444 -30.902436
4119 5 1 75.706620 86.180574 -30.505310
4120 5 1 75.168707 86.903889 -30.072338
4121 5 1 74.731443 86.096144 -30.467746
4122 5 1 73.959410 86.730692 -30.503984
4123 5 1 73.732204 87.234246 -29.670431
4124 5 1 74.470788 86.732433 -29.220234
4125 5 1 73.680437 87.040683 -28.690774
4126 5 1 74.534357 86.606683 -28.403607
4127 5 1 74.101143 85.733329 -28.626272
4128 5 1 73.766879 85.612056 -29.560917
4129 5 1 73.923335 84.825652 -28.963346
4130 5 1 73.652322 84.125945 -29.624378
4131 5 1 74.547458 84.026880 -29.189732
4132 5 1 74.851202 83.078511 -29.098436
4133 5 1 75.222228 83.866612 -29.589595
4134 5 1 74.868607 84.622144 -30.141069
4135 5 1 75.501049 85.173969 -29.597464
4136 5 1 76.412176 85.562904 -29.461165
4137 5 1 77.305518 85.959242 -29.672955
4138 5 1 77.370206 85.309272 -28.915753
4139 5 1 77.297580 85.577461 -27.955128
4140 5 1 76.953090 86.308332 -27.365931
4141 5 1 77.502935 86.727647 -26.643543
4142 5 1 77.572194 85.783484 -26.321424
4143 5 1 78.306500 85.230792 -25.927310
4144 5 1 78.384700 86.133386 -25.503980
4145 5 1 79.324804 85.992908 -25.814576
4146 5 1 80.087767 86.586413 -25.558374
4147 5 1 79.293564 87.184521 -25.665656
4148 5 1 78.300647 87.295425 -25.708274
4149 5 1 78.707597 88.077302 -25.235981
4150 5 1 78.138535 87.619746 -24.552745
4151 5 1 77.945360 86.639414 -24.512322
4152 5 1 78.208132 86.933670 -23.593429
4153 5 1 78.653818 86.295929 -24.221641
4154 5 1 79.039594 87.018993 -24.794664
4155 5 1 79.050237 86.956905 -23.796650
4156 5 1 79.715201 87.424667 -23.214395
4157 5 1 79.940046 87.676033 -22.272981
4158 5 1 80.560050 88.431881 -22.483434
4159 5 1 79.573039 88.420960 -22.323151
4160 5 1 79.959277 89.149265 -22.889182
4161 5 1 80.946989 89.145567 -22.732940
4162 5 1 81.805406 89.212801 -23.241465
4163 5 1 81.294051 88.767479 -23.976451
4164 5 1 81.082898 89.531403 -24.586234
4165 5 1 80.932767 90.464800 -24.260303
4166 5 1 80.457856 91.343513 -24.212106
4167 5 1 80.060981 90.475924 -23.912472
4168 5 1 80.402975 89.563888 -24.138811
4169 5 1 79.408043 89.466368 -24.114324
4170 5 1 79.574559 90.256952 -24.703601
4171 5 1 78.792123 89.788828 -25.114274
4172 5 1 78.151601 89.418267 -25.786893
4173 5 1 78.533218 88.522723 -26.015733
4174 5 1 77.738012 88.048858 -25.637449
4175 5 1 76.768626 87.953768 -25.411068
4176 5 1 76.434878 88.475840 -24.626178
4177 5 1 75.993556 89.358407 -24.463970
4178 5 1 75.018210 89.567839 -24.394411
4179 5 1 74.941518 89.293068 -23.435965
4180 5 1 74.938854 89.899945 -22.641174
4181 5 1 74.116082 89.809347 -22.080070
4182 5 1 74.069547 89.469766 -21.140645
4183 5 1 74.800884 89.045997 -20.606261
4184 5 1 74.217921 88.619207 -19.914883
4185 5 1 73.356431 88.290338 -19.527998
4186 5 1 73.754798 87.483857 -19.964912
4187 5 1 73.016740 86.826657 -20.117746
4188 5 1 72.544266 87.661538 -20.400133
4189 5 1 72.960813 87.147543 -21.149998
4190 5 1 71.972939 87.187437 -21.300047
4191 5 1 71.026051 87.147355 -21.619100
4192 5 1 71.248621 86.679591 -20.763729
4193 5 1 71.397612 85.998670 -21.480770
4194 5 1 71.647693 85.130648 -21.051821
4195 5 1 71.442745 85.276103 -22.019725
4196 5 1 71.700691 84.314079 -22.109023
4197 5 1 70.756647 84.473601 -21.820349
4198 5 1 70.089437 85.104606 -21.424541
4199 5 1 70.716669 85.745778 -21.866670
4200 5 1 70.703303 86.392328 -22.629425
4201 5 1 71.340693 86.946236 -23.165073
4202 5 1 72.323579 86.812292 -23.038598
4203 5 1 72.206882 86.626552 -24.014243
4204 5 1 73.149166 86.333047 -23.853134
4205 5 1 73.518164 86.972169 -23.178328
4206 5 1 73.954237 86.322621 -22.555489
4207 5 1 73.386020 85.630781 -22.109971
4208 5 1 72.945054 85.483170 -21.224669
4209 5 1 72.796099 85.055663 -20.333013
4210 5 1 72.720248 85.995997 -20.001323
4211 5 1 73.291997 86.123118 -19.190803
4212 5 1 74.129525 86.528158 -18.824074
4213 5 1 74.008598 86.693879 -17.845343
4214 5 1 74.952446 86.914094 -17.599059
4215 5 1 74.735702 85.945654 -17.475988
4216 5 1 74.772014 86.348038 -16.561237
4217 5 1 75.685953 86.060180 -16.275137
4218 5 1 75.313601 85.164525 -16.518358
4219 5 1 76.252759 85.155930 -16.174978
4220 5 1 75.974111 85.226757 -17.132757
4221 5 1 76.137086 84.424232 -16.558829
4222 5 1 75.318584 84.069137 -17.010452
4223 5 1 76.154870 83.531468 -16.903040
4224 5 1 75.603100 82.711155 -16.752584
4225 5 1 74.922758 81.990826 -16.887714
4226 5 1 74.378212 81.228002 -17.236384
4227 5 1 73.425395 80.936630 -17.151281
4228 5 1 73.647971 80.043733 -16.759880
4229 5 1 73.494348 79.132092 -17.141077
4230 5 1 73.642310 78.616518 -17.985050
4231 5 1 72.898243 79.236539 -18.233927
4232 5 1 72.260476 79.763753 -18.795441
4233 5 1 72.407676 80.177775 -17.897155
4234 5 1 73.407436 80.196706 -17.886097
4235 5 1 74.268512 80.392216 -18.355483
4236 5 1 74.712268 80.275074 -17.467024
4237 5 1 74.974341 79.374845 -17.119308
4238 5 1 74.961288 78.415311 -16.838021
4239 5 1 75.901908 78.242963 -17.130478
4240 5 1 76.281156 79.054350 -17.575250
4241 5 1 76.029607 79.336479 -18.501061
4242 5 1 75.926955 78.484529 -19.014524
4243 5 1 76.224280 77.740173 -19.612462
4244 5 1 76.464104 78.354809 -20.363932
4245 5 1 76.947834 77.550416 -20.019030
4246 5 1 77.647635 77.216483 -20.650510
4247 5 1 77.432897 76.727190 -19.805241
4248 5 1 78.289711 76.226571 -19.928730
4249 5 1 79.014202 76.121384 -20.609941
4250 5 1 79.174213 76.882740 -19.981663
4251 5 1 78.413771 77.528928 -20.046224
4252 5 1 78.920929 78.369319 -19.855087
4253 5 1 79.216655 78.510245 -18.910267
4254 5 1 78.920615 79.461323 -18.998646
4255 5 1 78.931302 80.460272 -19.043203
4256 5 1 78.242275 79.975650 -19.582075
4257 5 1 77.812704 79.265259 -20.139581
4258 5 1 77.869076 79.727515 -21.024534
4259 5 1 76.906926 79.771560 -20.755595
4260 5 1 76.103059 79.895577 -20.173859
4261 5 1 75.510613 79.604092 -19.422830
4262 5 1 75.387714 79.293076 -20.365254
4263 5 1 74.754427 79.074572 -21.107685
4264 5 1 75.530448 78.675613 -21.596176
4265 5 1 76.082302 78.956113 -22.381527
4266 5 1 76.517893 78.280741 -22.976618
4267 5 1 75.897306 77.756246 -22.393714
4268 5 1 75.369833 77.105213 -22.939542
4269 5 1 76.210228 76.946775 -23.457842
4270 5 1 75.370056 76.406359 -23.412447
4271 5 1 75.257513 76.106320 -22.465182
4272 5 1 74.448444 75.735162 -22.009496
4273 5 1 73.650454 76.287905 -21.769318
4274 5 1 73.657977 75.464348 -21.202134
4275 5 1 73.957480 74.757262 -20.561566
4276 5 1 73.416187 74.663491 -21.397156
4277 5 1 74.254295 74.122162 -21.464529
4278 5 1 74.309882 73.369104 -20.808928
4279 5 1 73.473578 73.382249 -20.260820
4280 5 1 72.588624 73.827960 -20.395718
4281 5 1 72.444731 73.690870 -19.415666
4282 5 1 72.069174 73.198003 -20.200548
4283 5 1 72.567529 72.417774 -20.578549
4284 5 1 72.696098 72.479428 -19.588767
4285 5 1 72.754934 71.696214 -18.969804
4286 5 1 73.438023 70.968229 -18.911273
4287 5 1 73.823440 71.179032 -18.012932
4288 5 1 73.099124 70.522898 -18.224722
4289 5 1 72.234531 70.779452 -18.656764
4290 5 1 71.355407 71.254593 -18.619596
4291 5 1 71.639231 70.592190 -17.926295
4292 5 1 72.497936 70.294934 -17.508845
4293 5 1 72.668159 71.274131 -17.398396
4294 5 1 72.253632 71.962146 -17.994049
4295 5 1 73.041674 72.526253 -17.747527
4296 5 1 72.753366 72.819526 -18.659047
4297 5 1 73.627558 73.071332 -19.074237
4298 5 1 74.600765 73.295498 -19.023077
4299 5 1 74.978245 72.705892 -18.309023
4300 5 1 74.549546 71.806512 -18.394657
4301 5 1 74.154618 72.704920 -18.202579
4302 5 1 73.998638 72.130084 -17.399315
4303 5 1 74.672467 71.420774 -17.606277
4304 5 1 74.287699 71.320100 -16.688770
4305 5 1 73.873609 70.458900 -16.983495
4306 5 1 74.500116 69.999084 -17.612826
4307 5 1 74.820034 70.013828 -16.665495
4308 5 1 74.768976 69.257409 -16.013404
4309 5 1 73.976051 69.701139 -15.595824
4310 5 1 73.289842 70.364925 -15.298324
4311 5 1 73.238707 70.720561 -14.365099
4312 5 1 72.698922 69.938827 -14.677389
4313 5 1 71.896448 70.095311 -14.101587
4314 5 1 71.554224 70.302904 -15.017986
4315 5 1 71.746459 70.645939 -15.937428
4316 5 1 72.101808 69.807113 -15.524997
4317 5 1 72.228296 68.820159 -15.425386
4318 5 1 72.781063 68.395764 -16.142559
4319 5 1 73.676852 68.683432 -16.481395
4320 5 1 74.409047 68.869753 -17.136509
4321 5 1 74.044507 69.433040 -16.395012
4322 5 1 73.188253 69.636255 -16.869914
4323 5 1 72.694758 68.953681 -17.408947
4324 5 1 71.928736 68.570323 -17.924938
4325 5 1 71.783325 67.840003 -17.257489
4326 5 1 72.726906 67.615425 -17.014141
4327 5 1 73.444995 68.078229 -17.533910
4328 5 1 74.298210 67.738551 -17.929693
4329 5 1 74.964235 67.164233 -18.405684
4330 5 1 74.055353 67.101129 -18.817935
4331 5 1 73.196586 66.795401 -18.406777
4332 5 1 72.491341 66.525425 -17.751230
4333 5 1 71.498727 66.646419 -17.742363
4334 5 1 70.510960 66.519144 -17.652269
4335 5 1 70.937199 67.309417 -18.092483
4336 5 1 70.283170 67.874545 -18.595351
4337 5 1 69.396148 68.207288 -18.275235
4338 5 1 69.647707 67.271872 -18.026809
4339 5 1 68.832714 67.120244 -17.467528
4340 5 1 68.774273 67.374197 -16.502079
4341 5 1 68.399731 66.447996 -16.458839
4342 5 1 67.821812 66.693846 -15.680657
4343 5 1 67.791490 65.754323 -16.021799
4344 5 1 67.945908 65.280355 -15.154903
4345 5 1 68.580884 66.050931 -15.209823
4346 5 1 68.617333 66.110732 -14.212278
4347 5 1 68.092946 66.343902 -13.393346
4348 5 1 68.363876 65.405779 -13.177654
4349 5 1 69.201128 64.987236 -13.529551
4350 5 1 69.766962 65.211011 -12.735978
4351 5 1 69.084968 65.942086 -12.756364
4352 5 1 69.785082 66.613481 -12.513322
4353 5 1 69.466357 67.094340 -13.330138
4354 5 1 69.005586 66.899071 -12.464367
4355 5 1 68.204427 67.131689 -11.912974
4356 5 1 68.156923 67.141070 -10.914147
4357 5 1 68.906051 67.650967 -10.491284
4358 5 1 67.983206 67.840737 -10.156106
4359 5 1 68.316715 67.585993 -9.248429
4360 5 1 69.227179 67.503759 -8.843098
4361 5 1 69.453179 68.190362 -8.152083
4362 5 1 69.918782 68.336082 -7.279169
4363 5 1 70.095403 68.924418 -8.068260
4364 5 1 69.824596 68.713599 -9.007525
4365 5 1 68.981455 68.891483 -9.514942
4366 5 1 68.217208 69.512519 -9.688837
4367 5 1 68.290096 68.669710 -9.155582
4368 5 1 68.742570 69.469431 -8.760976
4369 5 1 67.926915 70.036858 -8.648133
4370 5 1 67.650621 70.896408 -9.078056
4371 5 1 66.967319 70.166668 -9.102085
4372 5 1 66.760722 69.893520 -8.162560
4373 5 1 66.089383 70.079275 -8.880055
4374 5 1 66.115154 69.113052 -9.136472
4375 5 1 66.384241 69.030216 -8.176924
4376 5 1 66.045719 69.054961 -7.236291
4377 5 1 66.481540 68.689904 -6.413616
4378 5 1 67.451727 68.704500 -6.655532
4379 5 1 67.829981 68.886581 -7.563150
4380 5 1 68.578054 68.256763 -7.772233
4381 5 1 68.695797 67.303491 -7.494006
4382 5 1 68.053524 67.685897 -8.158274
4383 5 1 67.869405 66.793571 -8.570406
4384 5 1 68.327159 65.994883 -8.179820
4385 5 1 67.343734 65.991097 -8.361096
4386 5 1 66.972111 66.797921 -8.820368
4387 5 1 66.318609 67.520067 -9.047173
4388 5 1 66.139886 68.125559 -9.822697
4389 5 1 66.029790 68.760473 -10.587395
4390 5 1 66.186565 67.796391 -10.801793
4391 5 1 65.973436 67.473722 -11.723998
4392 5 1 65.179874 66.892841 -11.542789
4393 5 1 64.496149 66.871506 -10.813361
4394 5 1 63.788734 66.462195 -10.237141
4395 5 1 62.819577 66.314649 -10.434534
4396 5 1 63.324911 65.630821 -9.908210
4397 5 1 62.356351 65.722528 -10.139468
4398 5 1 61.506244 65.678530 -9.614700
4399 5 1 61.012017 64.912701 -10.026095
4400 5 1 60.533318 64.038700 -10.109585
4401 5 1 59.701525 64.523864 -10.379282
4402 5 1 59.477163 64.521209 -9.404780
4403 5 1 58.686586 65.129569 -9.474688
4404 5 1 58.336108 66.039293 -9.697326
4405 5 1 58.693120 66.678687 -9.016358
4406 5 1 58.775959 66.486650 -8.038473
4407 5 1 58.439801 67.313047 -8.490208
4408 5 1 59.222529 67.679848 -7.987422
4409 5 1 58.810934 67.014714 -7.364376
4410 5 1 58.258712 66.920235 -6.536050
4411 5 1 59.121513 67.358980 -6.284898
4412 5 1 59.582809 66.477634 -6.182755
4413 5 1 59.922284 65.967613 -6.973094
4414 5 1 60.249403 65.604230 -7.845416
4415 5 1 60.093088 65.579973 -8.832825
4416 5 1 60.164800 66.286835 -9.536532
4417 5 1 59.469266 66.296506 -8.818104
4418 5 1 59.338264 66.646309 -9.745723
4419 5 1 59.335309 66.224627 -10.652462
4420 5 1 59.481258 65.625853 -11.439970
4421 5 1 59.754667 66.572533 -11.610394
4422 5 1 60.340431 66.838989 -12.375823
4423 5 1 60.120104 65.883639 -12.572710
4424 5 1 60.911818 65.454668 -12.137770
4425 5 1 61.496797 64.806790 -11.649863
4426 5 1 61.539842 65.038066 -12.621798
4427 5 1 62.407551 64.553880 -12.734246
4428 5 1 62.749803 63.653106 -12.466908
4429 5 1 63.474703 64.333021 -12.356292
4430 5 1 63.375444 65.112006 -11.737155
4431 5 1 63.274244 65.068287 -12.731059
4432 5 1 63.602324 65.009462 -13.673876
4433 5 1 63.267917 64.299806 -14.294005
4434 5 1 63.593934 63.357290 -14.220681
4435 5 1 62.812217 62.865530 -13.837156
4436 5 1 62.222110 63.564387 -14.241349
4437 5 1 62.899896 63.559337 -14.976590
4438 5 1 62.099564 62.964846 -15.054370
4439 5 1 62.345751 62.294945 -15.754816
4440 5 1 62.029870 61.436272 -16.158424
4441 5 1 62.856576 61.492713 -15.598628
4442 5 1 62.685895 60.840122 -14.860392
4443 5 1 62.734991 59.863423 -15.069314
4444 5 1 63.494478 60.317094 -15.535534
4445 5 1 62.789299 59.747288 -15.957487
4446 5 1 61.972029 60.317907 -15.877097
4447 5 1 62.386607 60.142460 -16.770038
4448 5 1 62.213284 60.907775 -17.389919
4449 5 1 62.887342 60.177683 -17.502224
4450 5 1 63.136690 59.596700 -18.277004
4451 5 1 62.266765 60.015794 -18.536990
4452 5 1 62.243465 61.012960 -18.465467
4453 5 1 62.910358 60.494865 -19.001034
4454 5 1 63.307425 61.387341 -19.215100
4455 5 1 62.504037 61.874958 -18.873343
4456 5 1 62.263742 62.816976 -19.107568
4457 5 1 63.044248 63.127164 -19.650333
4458 5 1 62.656735 63.796308 -20.284431
4459 5 1 62.703170 62.944499 -20.806221
4460 5 1 62.813229 63.872277 -21.162752
4461 5 1 62.888123 63.007547 -21.659372
4462 5 1 63.110385 62.068495 -21.921634
4463 5 1 62.879167 62.745642 -22.620211
4464 5 1 62.043703 63.256632 -22.417999
4465 5 1 61.320550 63.085500 -23.087151
4466 5 1 60.885552 63.014673 -23.984792
4467 5 1 61.115068 63.512040 -24.821421
4468 5 1 60.615407 62.785272 -25.292746
4469 5 1 59.625740 62.784309 -25.436126
4470 5 1 59.524607 62.408397 -26.357246
4471 5 1 59.336188 62.812821 -27.252199
4472 5 1 59.633807 61.866001 -27.374492
4473 5 1 60.192565 61.047263 -27.242364
4474 5 1 60.942847 61.079986 -26.582057
4475 5 1 60.237056 61.545103 -26.047711
4476 5 1 61.130216 61.580663 -25.599379
4477 5 1 61.763205 61.156619 -24.951682
4478 5 1 62.219671 62.018964 -24.732593
4479 5 1 62.334620 61.518546 -25.590712
4480 5 1 61.662756 62.035058 -26.121575
4481 5 1 61.356653 62.918890 -25.767822
4482 5 1 60.722430 63.688072 -25.689589
4483 5 1 60.318843 64.575198 -25.913476
4484 5 1 59.404482 64.451564 -26.299038
4485 5 1 59.839539 64.146269 -27.146103
4486 5 1 59.485455 64.630631 -27.946114
4487 5 1 58.510485 64.852759 -27.936564
4488 5 1 59.136757 64.992344 -27.169557
4489 5 1 58.724370 65.626581 -27.823530
4490 5 1 58.162612 65.554020 -28.647643
4491 5 1 58.788541 65.999629 -29.287679
4492 5 1 58.836116 65.008850 -29.160817
4493 5 1 58.246954 64.308273 -28.758224
4494 5 1 57.804863 63.411540 -28.778828
4495 5 1 58.304170 62.968700 -29.523532
4496 5 1 58.735478 63.133482 -30.410562
4497 5 1 59.249057 63.940546 -30.119215
4498 5 1 59.823438 64.512667 -29.533753
4499 5 1 60.322864 64.930210 -28.774654
4500 5 1 60.623336 64.641753 -27.865528
4501 5 1 61.526313 64.456074 -27.478028
4502 5 1 61.288566 65.117813 -26.766987
4503 5 1 62.079045 65.575387 -27.174135
4504 5 1 62.948895 66.067378 -27.138005
4505 5 1 63.834563 66.285778 -27.547753
4506 5 1 64.698130 66.771850 -27.681871
4507 5 1 64.839842 65.852727 -28.049473
4508 5 1 65.523158 66.518482 -28.349221
4509 5 1 65.687738 67.497536 -28.229357
4510 5 1 65.903848 68.235830 -28.868277
4511 5 1 65.030924 68.541498 -28.488054
4512 5 1 65.072937 68.979945 -29.385829
4513 5 1 64.149762 68.828442 -29.739092
4514 5 1 63.380243 69.429256 -29.955571
4515 5 1 63.897187 69.948715 -29.275181
4516 5 1 64.123100 69.796207 -30.237317
4517 5 1 64.997172 70.081756 -30.630330
4518 5 1 64.510467 70.477567 -31.409080
4519 5 1 64.824563 69.753559 -32.023210
4520 5 1 65.031755 69.754309 -33.001510
4521 5 1 65.021515 70.356305 -33.799944
4522 5 1 64.253741 69.797786 -34.113920
4523 5 1 63.516080 69.175643 -33.851635
4524 5 1 62.955227 68.941795 -33.057432
4525 5 1 63.174125 69.916894 -33.093015
4526 5 1 62.423963 70.296107 -33.634730
4527 5 1 61.573473 70.740468 -33.916172
4528 5 1 61.756610 71.372668 -33.163321
4529 5 1 61.117312 72.117079 -32.970576
4530 5 1 60.491713 72.004889 -33.742612
4531 5 1 59.934642 72.774021 -33.429389
4532 5 1 59.240711 72.186087 -33.013705
4533 5 1 59.612165 71.476755 -32.414648
4534 5 1 59.219498 70.849969 -31.741630
4535 5 1 58.772590 71.675855 -31.397848
4536 5 1 58.835531 70.844496 -30.845688
4537 5 1 58.892856 70.165619 -30.113677
4538 5 1 58.173869 70.494665 -29.501479
4539 5 1 58.559205 70.622080 -28.587541
4540 5 1 58.262926 70.305653 -27.686380
4541 5 1 59.193024 70.668095 -27.746000
4542 5 1 59.464537 70.924830 -28.673560
4543 5 1 59.056353 71.476404 -29.400988
4544 5 1 58.767404 72.378781 -29.720714
4545 5 1 59.550842 72.156410 -29.140390
4546 5 1 59.555281 71.749963 -30.054054
4547 5 1 59.590007 71.230304 -30.907721
4548 5 1 60.307422 71.635649 -31.474299
4549 5 1 60.639836 71.087682 -30.706684
4550 5 1 60.374050 70.407328 -30.023693
4551 5 1 59.893193 69.748981 -29.444594
4552 5 1 60.120406 70.027610 -28.511459
4553 5 1 60.083015 70.689434 -27.762733
4554 5 1 60.401224 71.634490 -27.837645
4555 5 1 61.341113 71.793630 -28.139774
4556 5 1 62.145486 72.166858 -27.677513
4557 5 1 62.826025 72.753057 -27.237925
4558 5 1 62.544080 72.577085 -26.294771
4559 5 1 63.058353 71.728175 -26.172806
4560 5 1 63.556616 72.336267 -26.790833
4561 5 1 64.408393 71.898498 -26.503026
4562 5 1 64.919176 71.417882 -25.790208
4563 5 1 64.350597 70.859049 -25.186533
4564 5 1 63.357291 70.878569 -25.072684
4565 5 1 62.539575 70.913712 -24.498136
4566 5 1 63.330150 71.320016 -24.039978
4567 5 1 63.770842 71.627748 -23.196715
4568 5 1 63.431141 72.490910 -23.570286
4569 5 1 64.221459 72.867146 -23.086712
4570 5 1 64.609816 73.662633 -23.551877
4571 5 1 65.570580 73.442109 -23.720109
4572 5 1 66.188841 73.004078 -24.372706
4573 5 1 66.209288 73.963637 -24.091941
4574 5 1 67.015272 73.717515 -23.553598
4575 5 1 67.298635 74.194735 -24.385444
4576 5 1 68.121225 73.626326 -24.369428
4577 5 1 67.831904 73.730955 -25.320925
4578 5 1 68.256442 73.473824 -26.189056
4579 5 1 68.441134 74.186017 -26.866308
4580 5 1 69.037323 74.973008 -26.707550
4581 5 1 68.522613 74.782211 -27.543415
4582 5 1 68.344610 74.655856 -28.519299
4583 5 1 67.410443 74.416059 -28.783550
4584 5 1 66.491603 74.494921 -28.396879
4585 5 1 66.647562 74.598787 -29.379166
4586 5 1 66.995576 74.817727 -30.290732
4587 5 1 66.046614 74.505961 -30.243055
4588 5 1 65.173312 74.128032 -30.550486
4589 5 1 64.949924 74.245948 -31.518057
4590 5 1 64.197162 74.448822 -32.144309
4591 5 1 63.240798 74.598715 -31.893511
4592 5 1 63.234131 74.186530 -32.804586
4593 5 1 62.950923 75.125177 -32.607775
4594 5 1 63.032140 76.029205 -33.027464
4595 5 1 62.173383 75.790876 -33.481046
4596 5 1 61.703372 75.114600 -32.913824
4597 5 1 61.493378 74.140998 -33.003281
4598 5 1 62.452815 74.088182 -33.280213
4599 5 1 62.616121 73.102413 -33.320088
4600 5 1 61.903259 72.943486 -34.003147
4601 5 1 61.848445 72.208991 -33.326750
4602 5 1 61.287401 72.976407 -33.016423
4603 5 1 60.589851 72.634597 -32.386669
4604 5 1 60.928113 71.759367 -32.040906
4605 5 1 60.523639 70.850424 -32.142014
4606 5 1 61.460814 70.605193 -32.390140
4607 5 1 61.199795 70.042144 -31.606019
4608 5 1 60.585061 69.385608 -32.043127
4609 5 1 60.289161 68.689317 -32.697054
4610 5 1 61.238986 68.678977 -32.384444
4611 5 1 60.916042 68.481944 -31.458763
4612 5 1 61.584193 69.170673 -31.177293
4613 5 1 61.122190 69.311377 -30.301647
4614 5 1 60.746741 68.451856 -29.954857
4615 5 1 60.548343 69.200397 -29.322145
4616 5 1 61.379537 68.897814 -28.855714
4617 5 1 62.319700 69.234213 -28.909833
4618 5 1 62.975820 69.851777 -29.343563
4619 5 1 62.037514 70.036894 -29.635645
4620 5 1 61.965233 71.031538 -29.709530
4621 5 1 61.814050 71.996899 -29.496876
4622 5 1 61.826271 71.365116 -28.721827
4623 5 1 60.865833 71.217089 -28.957722
4624 5 1 59.937889 71.202493 -29.330158
4625 5 1 60.479993 72.013141 -29.108857
4626 5 1 60.578007 72.391197 -28.188278
4627 5 1 60.263780 73.339207 -28.238673
4628 5 1 59.427812 73.805707 -28.527698
4629 5 1 59.416514 74.658792 -28.006050
4630 5 1 60.318367 74.613734 -28.435737
4631 5 1 60.392439 74.415588 -27.458367
4632 5 1 60.099124 73.470178 -27.316361
4633 5 1 59.414106 74.198639 -27.306652
4634 5 1 58.702339 73.774875 -26.746464
4635 5 1 58.187190 74.617267 -26.588360
4636 5 1 58.658651 74.541846 -25.709704
4637 5 1 58.466836 73.562003 -25.765519
4638 5 1 57.720820 73.084958 -25.300882
4639 5 1 58.046492 72.207915 -25.654060
4640 5 1 58.754158 71.509435 -25.760519
4641 5 1 59.109266 71.978691 -24.952003
4642 5 1 59.714959 71.760038 -25.717070
4643 5 1 59.392112 72.645764 -26.050626
4644 5 1 59.507096 73.619148 -25.852379
4645 5 1 60.261942 73.756937 -26.493644
4646 5 1 60.789718 73.110960 -27.045155
4647 5 1 61.708767 73.167323 -26.655062
4648 5 1 61.543893 72.766481 -27.556252
4649 5 1 61.808279 73.059938 -28.474938
4650 5 1 62.767941 72.879437 -28.259374
4651 5 1 63.430358 73.540648 -27.907232
4652 5 1 63.142684 73.300549 -28.834376
4653 5 1 62.994824 74.146261 -29.347123
4654 5 1 63.218331 74.321069 -30.306022
4655 5 1 62.282137 74.667650 -30.364519
4656 5 1 61.321661 74.687097 -30.086837
4657 5 1 61.545387 75.230399 -29.277658
4658 5 1 60.545481 75.226429 -29.290814
4659 5 1 60.062444 75.755024 -28.592772
4660 5 1 60.743233 76.221896 -28.028364
4661 5 1 60.792113 77.004803 -28.648579
4662 5 1 60.968460 77.298506 -29.588069
4663 5 1 60.595273 76.382360 -29.441750
4664 5 1 60.113358 75.742917 -30.040807
4665 5 1 60.872709 76.271156 -30.420741
4666 5 1 60.374125 75.777645 -31.133384
4667 5 1 61.146864 76.167279 -31.634442
4668 5 1 61.168540 75.472215 -30.915821
4669 5 1 60.837824 74.542192 -31.076086
4670 5 1 61.737358 74.107483 -31.032880
4671 5 1 61.943656 74.080144 -32.010987
4672 5 1 62.747803 73.486580 -32.043049
4673 5 1 62.555661 73.726187 -31.091382
4674 5 1 63.506229 73.505540 -31.309865
4675 5 1 63.758554 73.195492 -32.226491
4676 5 1 63.804088 72.208374 -32.073119
4677 5 1 64.637767 72.595615 -32.466851
4678 5 1 64.983454 73.168257 -31.723493
4679 5 1 64.641115 72.508336 -31.054683
4680 5 1 63.817365 71.946124 -30.981510
4681 5 1 62.837252 71.781901 -31.092907
4682 5 1 63.216849 72.009343 -30.196149
4683 5 1 63.152910 71.887197 -29.205698
4684 5 1 64.025196 72.249157 -29.534487
4685 5 1 64.903229 72.067198 -29.091824
4686 5 1 65.886632 72.186968 -29.228105
4687 5 1 66.878669 72.147463 -29.108514
4688 5 1 67.649199 71.705819 -29.568117
4689 5 1 67.975743 71.985901 -30.470848
4690 5 1 67.350676 72.760811 -30.564689
4691 5 1 68.040586 73.204162 -31.136934
4692 5 1 68.233751 74.076708 -30.688213
4693 5 1 69.194468 74.118075 -30.962643
4694 5 1 70.122596 74.123958 -31.334858
4695 5 1 70.357473 74.636698 -30.509066
4696 5 1 70.840931 73.782788 -30.316438
4697 5 1 69.957671 73.595933 -30.746481
4698 5 1 69.319602 72.998097 -30.261239
4699 5 1 69.615797 72.478994 -31.062987
4700 5 1 70.187226 71.692718 -30.827957
4701 5 1 70.701218 72.485794 -30.501089
4702 5 1 71.551938 71.969376 -30.599011
4703 5 1 72.182350 71.694777 -29.872943
4704 5 1 71.253302 71.398615 -30.094656
4705 5 1 71.532653 71.154164 -31.023206
4706 5 1 71.114784 71.969560 -31.423849
4707 5 1 70.420078 72.575885 -31.810829
4708 5 1 70.809971 71.992015 -32.522924
4709 5 1 70.659685 71.183313 -31.954228
4710 5 1 70.931310 70.752736 -32.814939
4711 5 1 71.519139 71.518045 -33.077156
4712 5 1 71.744561 70.693777 -32.557765
4713 5 1 71.953144 70.283884 -31.669800
4714 5 1 72.043719 70.160399 -30.681596
4715 5 1 71.294086 70.332304 -30.042456
4716 5 1 70.450545 70.034951 -29.595221
4717 5 1 70.794036 69.183645 -29.198620
4718 5 1 70.273816 69.265237 -28.348494
4719 5 1 71.130675 68.754158 -28.280742
4720 5 1 71.461029 67.996252 -27.718209
4721 5 1 72.146206 67.325824 -28.002917
4722 5 1 71.568678 67.468636 -28.806699
4723 5 1 70.593253 67.529703 -29.018401
4724 5 1 69.751671 68.020366 -28.792596
4725 5 1 70.324874 67.872012 -27.986724
4726 5 1 69.777594 67.214780 -28.504923
4727 5 1 69.114793 67.009620 -27.784780
4728 5 1 68.665609 67.718480 -27.240949
4729 5 1 69.392518 67.407044 -26.628894
4730 5 1 69.233633 66.532618 -27.087298
4731 5 1 68.409247 66.499478 -27.652355
4732 5 1 68.429545 66.914874 -26.742942
4733 5 1 68.839115 66.478679 -25.941701
4734 5 1 69.394396 65.698100 -26.228685
4735 5 1 69.657571 66.658002 -26.132111
4736 5 1 70.437417 67.016075 -25.618666
4737 5 1 70.903195 66.162390 -25.385701
4738 5 1 71.052619 65.443552 -24.706772
4739 5 1 70.563803 64.667662 -25.105588
4740 5 1 70.167479 63.810828 -25.435378
4741 5 1 69.488030 63.146856 -25.747613
4742 5 1 68.814077 62.454998 -25.488537
4743 5 1 68.693488 62.236443 -24.520192
4744 5 1 69.174884 61.442765 -24.148261
4745 5 1 69.159304 61.606818 -25.134589
4746 5 1 68.660943 60.826280 -24.757235
4747 5 1 68.866015 60.179287 -25.491637
4748 5 1 68.106926 60.558493 -26.020775
4749 5 1 68.390810 60.522446 -26.978956
4750 5 1 68.031739 61.455377 -27.005569
4751 5 1 67.671300 60.709151 -27.565238
4752 5 1 67.556751 61.576489 -28.049596
4753 5 1 67.108663 61.682925 -28.937227
4754 5 1 66.435606 61.738828 -29.674702
4755 5 1 66.402396 62.306471 -30.497307
4756 5 1 66.993383 62.583978 -29.739860
4757 5 1 67.165720 63.385935 -30.311844
4758 5 1 67.632898 63.599630 -31.169794
4759 5 1 67.493724 62.748298 -31.675625
4760 5 1 67.353355 63.438666 -32.385335
4761 5 1 68.202888 63.933942 -32.203690
4762 5 1 68.852470 63.819550 -32.955326
4763 5 1 69.531842 64.272438 -32.377964
4764 5 1 68.660431 64.720455 -32.577774
4765 5 1 68.874565 65.452221 -33.224817
4766 5 1 69.501368 65.117648 -32.521128
4767 5 1 70.379052 65.430308 -32.884330
4768 5 1 70.333641 64.693617 -33.559034
4769 5 1 71.242777 64.332116 -33.765889
4770 5 1 71.685533 63.916228 -34.560247
4771 5 1 71.841246 63.171064 -33.911800
4772 5 1 71.019650 63.171150 -33.341729
4773 5 1 71.065053 62.938044 -34.313120
4774 5 1 71.468071 62.023596 -34.276216
4775 5 1 71.813393 62.359165 -33.399777
4776 5 1 72.638975 62.905544 -33.540786
4777 5 1 72.698919 62.611764 -34.494777
4778 5 1 72.827816 62.057786 -33.672285
4779 5 1 72.994174 62.469692 -32.776373
4780 5 1 72.393954 61.741119 -32.446348
4781 5 1 72.384137 62.573026 -31.891521
4782 5 1 73.318591 62.851306 -32.113685
4783 5 1 74.151041 62.632893 -31.604449
4784 5 1 74.239525 62.146826 -32.473879
4785 5 1 74.779704 61.539522 -33.056450
4786 5 1 75.645663 61.177745 -32.711150
4787 5 1 76.639474 61.067022 -32.702202
4788 5 1 77.156013 60.628222 -33.437486
4789 5 1 76.993046 59.700495 -33.101680
4790 5 1 76.489474 59.327254 -32.322510
4791 5 1 75.564454 58.966619 -32.442012
4792 5 1 75.699037 58.085260 -32.894884
4793 5 1 75.793048 58.046622 -33.889706
4794 5 1 76.167554 58.186116 -34.806377
4795 5 1 75.339297 57.701567 -34.524948
4796 5 1 74.964237 57.650152 -35.450522
4797 5 1 74.809524 58.261587 -36.226545
4798 5 1 75.048286 57.291929 -36.174046
4799 5 1 75.639167 56.499134 -36.323500
4800 5 1 75.427036 55.569897 -36.626020
4801 5 1 75.069364 54.734974 -36.207722
4802 5 1 74.574672 54.308099 -36.964728
4803 5 1 75.357035 53.689145 -37.034030
4804 5 1 76.225735 53.213460 -36.895883
4805 5 1 75.688587 53.604663 -36.148599
4806 5 1 75.712895 52.831799 -35.514493
4807 5 1 75.039005 53.468955 -35.140456
4808 5 1 75.730383 54.122733 -34.832934
4809 5 1 76.524479 54.402177 -35.372677
4810 5 1 76.434279 55.229514 -35.927093
4811 5 1 75.496886 55.411847 -35.630363
4812 5 1 74.525504 55.307195 -35.417139
4813 5 1 75.193138 55.617863 -34.740566
4814 5 1 75.929807 55.091413 -34.316102
4815 5 1 76.025464 54.418184 -33.582881
4816 5 1 75.291164 54.784674 -33.011489
4817 5 1 75.365053 54.592682 -32.032878
4818 5 1 74.443738 54.657564 -32.416243
4819 5 1 74.708219 54.123538 -31.613208
4820 5 1 74.936698 53.872661 -32.553876
4821 5 1 74.531121 54.473027 -33.243128
4822 5 1 75.218466 54.712378 -33.928888
4823 5 1 74.843959 53.910018 -34.393607
4824 5 1 74.446172 54.516896 -35.081695
4825 5 1 74.205347 54.815656 -36.005137
4826 5 1 74.531536 55.458604 -36.698116
4827 5 1 74.731481 56.426661 -36.546828
4828 5 1 73.800615 56.608024 -36.229659
4829 5 1 73.077514 56.138887 -35.722673
4830 5 1 72.583451 55.867835 -36.548768
4831 5 1 73.425673 55.584535 -37.007465
4832 5 1 73.790153 55.609583 -37.938339
4833 5 1 74.539112 55.134099 -38.399832
4834 5 1 75.179472 54.752736 -39.066541
4835 5 1 75.768492 53.946347 -39.013696
4836 5 1 75.164573 53.396247 -39.590472
4837 5 1 74.952282 52.425942 -39.706410
4838 5 1 75.275530 52.679755 -40.618051
4839 5 1 74.306982 52.696793 -40.866296
4840 5 1 73.636576 53.159668 -41.446212
4841 5 1 74.278211 53.869609 -41.155886
4842 5 1 74.657840 53.793867 -42.077919
4843 5 1 75.263176 54.010524 -41.312002
4844 5 1 75.394176 53.684317 -40.375825
4845 5 1 76.137122 53.874757 -39.734137
4846 5 1 76.633397 53.006624 -39.741652
4847 5 1 76.554068 53.311439 -38.792550
4848 5 1 77.349068 53.180570 -38.200225
4849 5 1 78.079843 52.672887 -38.656543
4850 5 1 78.947668 52.179738 -38.717228
4851 5 1 78.382470 52.633174 -39.406392
4852 5 1 77.479001 52.902587 -39.739800
4853 5 1 77.446617 52.109553 -39.131485
4854 5 1 76.542885 51.688668 -39.209738
4855 5 1 75.682198 51.595734 -38.709156
4856 5 1 74.811746 51.103487 -38.711348
4857 5 1 75.296062 50.258909 -38.483038
4858 5 1 75.422853 49.551224 -39.178097
4859 5 1 75.776856 48.641846 -38.959664
4860 5 1 76.722994 48.681564 -39.280981
4861 5 1 77.668666 49.000120 -39.215969
4862 5 1 78.100372 49.190093 -38.334187
4863 5 1 77.853018 50.091742 -38.688933
4864 5 1 78.786642 49.848186 -38.951661
4865 5 1 78.791427 49.000130 -39.481546
4866 5 1 78.948110 48.548368 -38.603274
4867 5 1 78.528978 47.640618 -38.621149
4868 5 1 78.254766 47.268430 -37.734423
4869 5 1 77.509123 47.906138 -37.927670
4870 5 1 77.312397 47.230941 -37.216750
4871 5 1 76.707157 46.927497 -37.952690
4872 5 1 77.556707 46.869321 -38.476981
4873 5 1 76.994788 46.112772 -38.811467
4874 5 1 77.300152 45.161397 -38.771000
4875 5 1 77.790949 45.166073 -37.899739
4876 5 1 77.946160 46.143901 -37.759161
4877 5 1 77.047455 46.139422 -37.320631
4878 5 1 76.304342 46.804459 -37.246421
4879 5 1 75.841257 47.099202 -36.410551
4880 5 1 75.976244 46.110568 -36.476742
4881 5 1 76.638545 46.652304 -35.959172
4882 5 1 76.663353 45.654987 -35.890288
4883 5 1 77.544552 45.817816 -35.446469
4884 5 1 77.498088 45.394066 -36.351055
4885 5 1 77.909152 44.557194 -36.712542
4886 5 1 77.363411 43.731749 -36.568290
4887 5 1 78.363384 43.730538 -36.561045
4888 5 1 79.148346 44.128769 -37.035647
4889 5 1 79.191213 43.134654 -37.135141
4890 5 1 79.003575 42.623948 -36.296111
4891 5 1 79.606721 42.234436 -36.992169
4892 5 1 79.525835 41.282439 -37.287395
4893 5 1 80.514012 41.435337 -37.298684
4894 5 1 80.910410 40.542315 -37.085658
4895 5 1 80.822065 40.634761 -38.077449
4896 5 1 81.017543 41.592040 -38.290536
4897 5 1 81.953834 41.839336 -38.041129
4898 5 1 82.869025 41.447362 -38.134841
4899 5 1 82.491345 41.918140 -38.932166
4900 5 1 82.301080 40.966032 -39.171519
4901 5 1 81.589727 40.367037 -38.803847
4902 5 1 82.411165 40.070404 -38.316765
4903 5 1 81.812744 40.436886 -37.604317
4904 5 1 81.608176 39.458053 -37.598244
4905 5 1 81.652735 39.096731 -36.666868
4906 5 1 80.698415 38.971162 -36.395748
4907 5 1 80.024033 39.476503 -36.934115
4908 5 1 80.719019 38.873133 -37.325190
4909 5 1 81.023291 37.921961 -37.273328
4910 5 1 81.445682 37.034547 -37.457945
4911 5 1 82.369969 36.658448 -37.523080
4912 5 1 82.400338 36.577429 -36.526830
4913 5 1 82.904273 37.420954 -36.712614
4914 5 1 83.864203 37.614175 -36.915592
4915 5 1 83.161830 37.913687 -37.561320
4916 5 1 83.205895 38.227015 -36.612698
4917 5 1 82.259150 38.499474 -36.784280
4918 5 1 82.780723 39.303772 -36.499560
4919 5 1 83.258821 39.914074 -37.131188
4920 5 1 83.696448 40.549150 -37.767711
4921 5 1 83.679230 41.543420 -37.662207
4922 5 1 83.933517 42.507119 -37.580842
4923 5 1 84.712135 41.977723 -37.917730
4924 5 1 85.528759 41.735683 -38.441697
4925 5 1 85.251843 41.250605 -37.612229
4926 5 1 84.761866 41.011206 -36.774010
4927 5 1 85.007581 40.334419 -37.467973
4928 5 1 84.740228 39.954266 -36.582532
4929 5 1 84.406049 39.705815 -35.673358
4930 5 1 85.027152 40.297677 -35.159616
4931 5 1 85.514680 39.651167 -35.746422
4932 5 1 86.301297 39.037506 -35.814632
4933 5 1 85.844676 39.019292 -34.925157
4934 5 1 85.920598 39.891536 -34.442014
4935 5 1 86.831473 40.155075 -34.759587
4936 5 1 86.367558 41.001515 -34.498201
4937 5 1 85.999641 41.714167 -35.095499
4938 5 1 86.357532 41.674654 -36.028426
4939 5 1 85.431250 42.046581 -36.089023
4940 5 1 84.768986 42.525028 -35.512400
4941 5 1 85.497433 43.184550 -35.326939
4942 5 1 85.894897 43.262817 -36.241213
4943 5 1 85.209887 42.979054 -36.912211
4944 5 1 84.368405 42.569245 -36.560125
4945 5 1 83.657584 42.252491 -35.932112
4946 5 1 82.669710 42.097569 -35.921887
4947 5 1 82.055094 41.581014 -36.518058
4948 5 1 81.940778 41.798769 -35.548772
4949 5 1 81.240604 42.386317 -35.143133
4950 5 1 80.602715 42.158190 -35.878697
4951 5 1 79.906871 42.376418 -35.194463
4952 5 1 80.037549 41.658905 -34.510286
4953 5 1 79.212459 41.911503 -35.015679
4954 5 1 78.912607 42.743189 -35.482998
4955 5 1 78.736656 43.430849 -34.778609
4956 5 1 77.807967 43.255498 -34.451824
4957 5 1 78.553419 42.612493 -34.276193
4958 5 1 77.967330 42.092917 -33.654470
4959 5 1 77.605527 42.411335 -34.530660
4960 5 1 77.191878 41.641693 -35.017019
4961 5 1 76.709367 41.097428 -34.330754
4962 5 1 77.139404 40.988740 -33.434510
4963 5 1 76.977000 41.367363 -32.523319
4964 5 1 76.088150 41.805834 -32.390322
4965 5 1 75.118640 41.574866 -32.308434
4966 5 1 74.687985 42.474940 -32.374797
4967 5 1 74.339100 41.743533 -32.960735
4968 5 1 73.763718 42.468807 -32.582696
4969 5 1 74.151078 41.666574 -32.128411
4970 5 1 73.408866 42.172797 -31.689253
4971 5 1 73.566121 43.091657 -32.051146
4972 5 1 74.018578 43.714492 -32.689394
4973 5 1 74.977571 43.997921 -32.689948
4974 5 1 75.945221 43.999324 -32.437659
4975 5 1 75.806073 44.642401 -33.190713
4976 5 1 75.003089 44.368411 -33.720002
4977 5 1 75.052491 44.245669 -34.711210
4978 5 1 75.123730 44.977484 -35.388980
4979 5 1 74.596378 45.660535 -35.894293
4980 5 1 74.414473 44.699692 -35.685267
4981 5 1 73.761418 45.452572 -35.767065
4982 5 1 73.006380 45.514319 -36.419831
4983 5 1 73.465932 46.316834 -36.800333
4984 5 1 73.949320 46.012335 -37.621075
4985 5 1 74.896489 46.320842 -37.533360
4986 5 1 75.576900 47.033101 -37.705777
4987 5 1 75.296097 47.851346 -38.207399
4988 5 1 74.446536 47.355063 -38.028655
4989 5 1 74.263367 47.568172 -38.988360
4990 5 1 75.243315 47.712789 -39.125434
4991 5 1 74.530912 48.378700 -38.903974
4992 5 1 73.981870 48.840010 -38.207020
4993 5 1 74.893811 49.107320 -38.518322
4994 5 1 75.699315 49.219380 -37.936424
4995 5 1 76.488309 48.605664 -37.965421
4996 5 1 76.983310 49.243574 -37.375468
4997 5 1 76.641296 49.365986 -36.443780
4998 5 1 76.895894 50.018148 -37.157828
4999 5 1 76.633697 50.170973 -38.110664
5000 5 1 75.984417 50.419555 -37.391885
5001 6 1 43.309085 -15.849505 45.881076
5002 6 1 44.030623 -16.403402 46.296505
5003 6 1 44.795225 -17.034403 46.165274
5004 6 1 44.008888 -17.431117 46.638869
5005 6 1 43.124248 -17.666833 47.041175
5006 6 1 43.389269 -17.893126 47.978488
5007 6 1 43.279834 -16.938828 47.700390
5008 6 1 42.604911 -16.230829 47.492504
5009 6 1 43.304755 -15.519700 47.425328
5010 6 1 42.795838 -15.002842 48.113703
5011 6 1 42.755193 -14.183251 48.685209
5012 6 1 42.933316 -13.563206 49.449288
5013 6 1 42.196755 -13.293839 48.828869
5014 6 1 42.366083 -12.326600 49.018020
5015 6 1 41.473291 -12.579611 49.390724
5016 6 1 40.827898 -12.579268 48.626873
5017 6 1 41.188255 -13.274517 48.004963
5018 6 1 40.868456 -13.322062 48.951255
5019 6 1 40.187333 -13.083947 49.643622
5020 6 1 39.874930 -12.175194 49.366906
5021 6 1 39.684904 -13.019743 48.866280
5022 6 1 39.805746 -12.424915 48.071561
5023 6 1 40.299238 -11.605701 48.363714
5024 6 1 40.844373 -11.395067 47.552258
5025 6 1 41.323465 -10.925536 46.810630
5026 6 1 42.230633 -10.504782 46.807303
5027 6 1 41.963264 -9.649307 47.250785
5028 6 1 41.602781 -9.580845 46.320535
5029 6 1 40.659155 -9.599319 45.990036
5030 6 1 41.375345 -9.488704 45.300953
5031 6 1 40.824604 -8.692590 45.050180
5032 6 1 41.092453 -8.230790 44.204605
5033 6 1 40.586502 -7.924377 45.010908
5034 6 1 39.673263 -7.604442 44.758648
5035 6 1 40.008210 -8.079881 43.945156
5036 6 1 39.565939 -8.320660 43.081199
5037 6 1 39.958077 -7.440673 42.813149
5038 6 1 39.427795 -7.769608 42.031738
5039 6 1 38.508451 -7.392487 42.143921
5040 6 1 38.103863 -6.488527 42.005487
5041 6 1 38.410560 -5.668174 41.522829
5042 6 1 39.333660 -5.292626 41.605591
5043 6 1 39.060901 -5.796337 40.785910
5044 6 1 38.780662 -6.740266 40.611371
5045 6 1 39.697253 -6.970541 40.284517
5046 6 1 39.455799 -6.840200 41.246136
5047 6 1 40.198634 -7.008396 41.894138
5048 6 1 41.180072 -6.866974 41.764601
5049 6 1 41.815925 -7.033063 42.518328
5050 6 1 42.600095 -6.865715 43.115884
5051 6 1 42.945594 -7.416438 42.356058
5052 6 1 42.222551 -8.103970 42.288909
5053 6 1 41.847007 -7.744007 43.142954
5054 6 1 42.584858 -8.054741 43.742138
5055 6 1 43.371619 -7.949273 44.350317
5056 6 1 43.225609 -7.796849 45.327788
5057 6 1 44.220834 -7.812153 45.231395
5058 6 1 44.721649 -6.970630 45.028850
5059 6 1 44.577094 -6.018655 45.298752
5060 6 1 43.762753 -5.557250 45.650822
5061 6 1 43.591134 -4.580466 45.522604
5062 6 1 43.681656 -4.772598 44.545419
5063 6 1 43.226366 -4.635301 43.665725
5064 6 1 44.035055 -4.049655 43.610579
5065 6 1 44.185925 -5.023802 43.778735
5066 6 1 44.316075 -5.210588 42.804994
5067 6 1 44.937779 -5.508397 43.529420
5068 6 1 45.847091 -5.092948 43.552947
5069 6 1 46.278541 -4.436631 44.171897
5070 6 1 46.294991 -5.373477 44.521251
5071 6 1 47.114257 -5.400072 45.094047
5072 6 1 47.451411 -4.459511 45.134953
5073 6 1 48.098131 -5.215891 45.036760
5074 6 1 48.871504 -4.593270 44.917434
5075 6 1 49.679158 -4.372314 44.370742
5076 6 1 50.562587 -4.224372 44.815339
5077 6 1 49.982478 -4.313554 45.624981
5078 6 1 50.246424 -5.057098 45.010590
5079 6 1 50.537754 -4.751928 44.103949
5080 6 1 51.531202 -4.730541 43.991681
5081 6 1 52.162880 -4.083175 43.565183
5082 6 1 51.297871 -3.762253 43.950888
5083 6 1 50.857556 -3.244570 43.217316
5084 6 1 51.219485 -4.054927 42.756525
5085 6 1 50.578806 -4.421936 42.082111
5086 6 1 50.383135 -5.034953 42.847567
5087 6 1 51.377419 -5.079058 42.750331
5088 6 1 50.783266 -5.769239 43.163409
5089 6 1 49.944720 -6.164758 43.538117
5090 6 1 49.332571 -6.527527 42.835500
5091 6 1 49.707507 -7.272016 42.283089
5092 6 1 50.263887 -6.517262 41.935544
5093 6 1 50.049704 -5.640897 42.366948
5094 6 1 49.303762 -5.159666 42.827370
5095 6 1 49.733595 -5.154988 43.730266
5096 6 1 48.940298 -5.264606 44.329150
5097 6 1 49.100636 -6.210136 44.612463
5098 6 1 49.892411 -6.746305 44.905062
5099 6 1 49.233207 -7.065258 44.224092
5100 6 1 48.786546 -7.945760 44.382873
5101 6 1 49.031226 -7.297811 45.104187
5102 6 1 49.438288 -7.472865 46.000656
5103 6 1 49.041351 -7.669826 46.897120
5104 6 1 48.315014 -7.626653 47.583102
5105 6 1 47.536447 -7.174968 47.147427
5106 6 1 47.804964 -6.578836 47.904081
5107 6 1 47.295580 -5.842409 47.458879
5108 6 1 46.891133 -4.944317 47.631659
5109 6 1 47.207472 -4.521069 46.782665
5110 6 1 47.805220 -4.664281 45.993877
5111 6 1 47.571228 -5.636296 46.014705
5112 6 1 47.727144 -5.375539 46.967436
5113 6 1 46.756045 -5.392293 46.729347
5114 6 1 46.316606 -5.251319 45.842206
5115 6 1 46.619358 -6.152144 46.153424
5116 6 1 46.087828 -5.818513 46.931992
5117 6 1 45.593104 -5.478117 46.132380
5118 6 1 45.618528 -6.476997 46.172299
5119 6 1 45.422085 -7.440972 46.351639
5120 6 1 46.113645 -8.161917 46.396162
5121 6 1 45.311488 -8.187852 45.799612
5122 6 1 45.390773 -8.456664 46.759536
5123 6 1 45.808266 -9.161118 47.333508
5124 6 1 46.487177 -8.478506 47.063100
5125 6 1 47.057486 -8.849771 46.330359
5126 6 1 47.965499 -8.922912 46.742865
5127 6 1 48.680011 -8.517641 47.313153
5128 6 1 49.559386 -8.993401 47.331898
5129 6 1 49.342993 -9.256331 46.391664
5130 6 1 49.048376 -10.193837 46.576825
5131 6 1 48.064470 -10.317269 46.447624
5132 6 1 48.234892 -9.676800 45.698788
5133 6 1 47.242700 -9.733236 45.587564
5134 6 1 47.738552 -9.142886 44.950682
5135 6 1 47.300950 -8.960496 44.070206
5136 6 1 46.395817 -8.997047 44.493761
5137 6 1 46.546137 -8.972026 45.482082
5138 6 1 45.947141 -9.597968 45.981481
5139 6 1 45.112341 -10.148113 45.960251
5140 6 1 44.322689 -10.468399 46.483573
5141 6 1 44.325387 -11.060240 45.677523
5142 6 1 45.254941 -11.405750 45.548869
5143 6 1 45.842906 -11.641324 46.322692
5144 6 1 46.522835 -11.095065 46.811873
5145 6 1 47.102098 -11.888115 46.623387
5146 6 1 46.718518 -12.796408 46.790330
5147 6 1 46.142653 -13.565057 46.511836
5148 6 1 46.258996 -13.096909 45.635878
5149 6 1 45.380457 -12.980132 46.099055
5150 6 1 44.777073 -13.240283 46.852878
5151 6 1 44.161796 -13.543471 46.125202
5152 6 1 44.443051 -14.181462 46.842044
5153 6 1 44.457120 -14.847132 46.095930
5154 6 1 44.199430 -15.761883 45.784760
5155 6 1 44.235781 -16.191972 44.882706
5156 6 1 43.738840 -15.370760 44.602241
5157 6 1 42.881351 -15.828118 44.837903
5158 6 1 42.832596 -16.698452 45.327946
5159 6 1 43.097717 -17.642365 45.524767
5160 6 1 42.234308 -17.473373 46.000127
5161 6 1 41.397652 -17.674060 45.490489
5162 6 1 40.608738 -18.283370 45.570220
5163 6 1 39.937246 -17.950177 46.232096
5164 6 1 39.509367 -17.980288 47.135430
5165 6 1 38.859380 -18.158428 47.874202
5166 6 1 38.838079 -17.160572 47.812315
5167 6 1 38.793547 -16.196722 47.549619
5168 6 1 39.673128 -15.828946 47.851411
5169 6 1 39.346490 -15.479250 48.729489
5170 6 1 38.714910 -14.781859 48.390739
5171 6 1 38.077515 -14.025529 48.243455
5172 6 1 37.696832 -13.293454 48.808386
5173 6 1 37.232482 -13.069682 47.951470
5174 6 1 37.321615 -12.555871 48.804730
5175 6 1 37.311172 -11.641443 48.400118
5176 6 1 37.346544 -11.133980 49.261066
5177 6 1 36.590589 -10.651401 48.818743
5178 6 1 36.486909 -10.150070 49.677764
5179 6 1 36.385882 -9.818304 48.739827
5180 6 1 35.888390 -9.202733 49.351035
5181 6 1 36.176753 -9.343785 50.298110
5182 6 1 36.441771 -8.761338 51.066563
5183 6 1 36.596265 -8.553692 50.100637
5184 6 1 36.950577 -8.501110 49.166988
5185 6 1 36.994627 -9.316618 49.744055
5186 6 1 37.942867 -9.260117 49.431566
5187 6 1 37.642933 -8.657355 50.170970
5188 6 1 37.231708 -9.373343 50.735112
5189 6 1 38.202326 -9.144263 50.808754
5190 6 1 38.105537 -8.820011 51.749760
5191 6 1 39.015160 -8.628875 52.118614
5192 6 1 39.238211 -8.368681 53.058053
5193 6 1 39.799414 -9.097379 52.665560
5194 6 1 40.774366 -9.303162 52.749947
5195 6 1 40.865083 -9.459060 53.733546
5196 6 1 41.445515 -8.650130 53.640104
5197 6 1 42.017441 -9.421933 53.362219
5198 6 1 42.457102 -10.233823 52.978119
5199 6 1 43.332793 -9.845142 53.264635
5200 6 1 44.184887 -9.346627 53.105201
5201 6 1 43.885906 -10.093686 52.511471
5202 6 1 43.980203 -9.697979 51.597948
5203 6 1 44.637588 -9.181303 52.146484
5204 6 1 44.845641 -9.804954 51.392977
5205 6 1 45.621454 -10.419205 51.248721
5206 6 1 46.550153 -10.657023 51.533260
5207 6 1 45.901611 -10.287784 52.198885
5208 6 1 44.980548 -10.674378 52.245665
5209 6 1 44.242145 -10.965798 51.637523
5210 6 1 43.831871 -11.258838 50.773925
5211 6 1 43.385319 -10.811054 51.548574
5212 6 1 42.948535 -11.383412 52.242567
5213 6 1 41.987060 -11.541955 52.018003
5214 6 1 41.682588 -10.831328 51.383726
5215 6 1 41.645143 -10.144573 52.109650
5216 6 1 41.354758 -10.092701 53.065152
5217 6 1 41.435776 -11.086970 53.134906
5218 6 1 41.813262 -11.934003 53.509124
5219 6 1 42.005724 -11.380804 54.319636
5220 6 1 42.167803 -12.336011 54.567246
5221 6 1 41.345136 -12.825582 54.856277
5222 6 1 40.639593 -13.118369 54.210921
5223 6 1 39.912716 -12.475454 54.452396
5224 6 1 39.449792 -11.660842 54.102955
5225 6 1 40.399585 -11.555968 53.808176
5226 6 1 39.621837 -11.605800 53.181579
5227 6 1 40.592830 -11.423599 53.026737
5228 6 1 40.266175 -11.041229 52.162393
5229 6 1 39.866636 -10.270377 51.666252
5230 6 1 39.925031 -9.944013 50.722814
5231 6 1 39.184394 -10.589778 50.908405
5232 6 1 38.498889 -11.079816 51.446871
5233 6 1 38.653816 -11.784810 50.754787
5234 6 1 37.912808 -11.998250 50.118114
5235 6 1 38.724065 -12.518944 49.852142
5236 6 1 38.617384 -12.809790 50.802946
5237 6 1 37.763143 -12.423995 51.151419
5238 6 1 37.531601 -11.451268 51.137654
5239 6 1 36.923431 -10.684604 50.931850
5240 6 1 36.943238 -10.112400 51.751722
5241 6 1 36.129244 -9.626964 51.432716
5242 6 1 36.133048 -9.656340 52.432277
5243 6 1 36.954491 -9.202084 52.087481
5244 6 1 37.285161 -8.265113 52.200363
5245 6 1 38.217498 -8.138559 52.539085
5246 6 1 37.879012 -7.359094 53.066210
5247 6 1 37.436594 -8.214727 53.334833
5248 6 1 36.725819 -8.823175 52.981860
5249 6 1 36.046135 -8.123147 52.762791
5250 6 1 36.294309 -7.718339 53.642871
5251 6 1 36.172530 -6.740653 53.471697
5252 6 1 36.934996 -6.430283 54.039426
5253 6 1 36.657662 -5.545705 53.664450
5254 6 1 35.820920 -5.011128 53.545753
5255 6 1 35.609109 -5.656199 52.811574
5256 6 1 35.002004 -4.923319 52.504476
5257 6 1 35.979789 -4.751094 52.384995
5258 6 1 36.551515 -4.023369 52.763868
5259 6 1 37.231180 -4.625161 52.344460
5260 6 1 38.069869 -4.890809 52.819889
5261 6 1 38.183156 -4.965302 51.829124
5262 6 1 38.542585 -4.120268 52.225013
5263 6 1 39.474063 -4.478452 52.288677
5264 6 1 39.495009 -4.225054 53.255813
5265 6 1 39.358223 -5.138338 53.639482
5266 6 1 40.341334 -5.020912 53.779854
5267 6 1 41.132739 -4.522253 53.426278
5268 6 1 42.060094 -4.642820 53.072053
5269 6 1 41.613492 -4.144421 52.328989
5270 6 1 41.047801 -4.923593 52.598959
5271 6 1 40.497490 -5.758421 52.584099
5272 6 1 39.807321 -5.198866 52.125226
5273 6 1 39.339648 -6.052596 52.354197
5274 6 1 39.624649 -5.688775 51.467399
5275 6 1 39.043101 -4.876141 51.505199
5276 6 1 38.785347 -5.831477 51.649757
5277 6 1 38.540343 -6.011127 50.697025
5278 6 1 37.710733 -5.465018 50.580783
5279 6 1 37.891371 -4.631855 50.058088
5280 6 1 37.548888 -4.281861 49.186188
5281 6 1 38.091496 -3.840677 48.471391
5282 6 1 37.842870 -2.876059 48.559129
5283 6 1 38.158215 -1.998796 48.197236
5284 6 1 37.881375 -1.304792 47.532617
5285 6 1 38.512778 -2.034009 47.268850
5286 6 1 39.066798 -1.325538 46.831664
5287 6 1 38.747636 -0.793383 47.615850
5288 6 1 39.090448 -0.043440 48.181593
5289 6 1 38.623483 -0.723995 48.746207
5290 6 1 39.035882 -0.107815 49.417213
5291 6 1 38.069968 -0.106822 49.158353
5292 6 1 37.197185 -0.201259 49.637240
5293 6 1 37.650750 -1.087950 49.727010
5294 6 1 36.877091 -0.915768 50.336768
5295 6 1 37.218273 -0.269938 51.019775
5296 6 1 36.511291 -0.412642 51.712459
5297 6 1 36.791345 -0.220290 52.652975
5298 6 1 37.738921 -0.346816 52.359563
5299 6 1 38.592877 -0.725951 52.715956
5300 6 1 39.570027 -0.520950 52.659796
5301 6 1 39.644860 -0.141924 53.582151
5302 6 1 39.425664 0.030454 54.542484
5303 6 1 38.957289 0.795214 54.984940
5304 6 1 38.750607 0.737798 54.008218
5305 6 1 39.448708 1.417648 53.783587
5306 6 1 39.875692 2.054189 53.141325
5307 6 1 40.662894 1.696761 52.638774
5308 6 1 41.235787 2.486356 52.418924
5309 6 1 42.148058 2.855324 52.596754
5310 6 1 41.390946 3.471692 52.813252
5311 6 1 40.586784 4.022478 52.589738
5312 6 1 40.202952 3.670978 53.443623
5313 6 1 39.248791 3.372513 53.465868
5314 6 1 39.206902 4.357805 53.631532
5315 6 1 38.332007 3.921278 53.421762
5316 6 1 37.866260 3.134019 53.825869
5317 6 1 38.391454 2.806708 53.040351
5318 6 1 37.545483 2.320313 52.821826
5319 6 1 38.165911 1.554582 52.652340
5320 6 1 38.542845 1.762578 53.554925
5321 6 1 37.572155 1.566417 53.693786
5322 6 1 37.484783 0.816171 54.349146
5323 6 1 37.532013 -0.083139 53.914392
5324 6 1 36.874459 -0.821224 53.763219
5325 6 1 36.252737 -1.603329 53.805334
5326 6 1 35.834597 -2.130541 53.065599
5327 6 1 35.597265 -2.944740 53.595460
5328 6 1 35.367078 -3.025517 54.565248
5329 6 1 34.501233 -2.525809 54.540623
5330 6 1 35.239675 -2.067694 55.035431
5331 6 1 36.117893 -2.543808 55.080688
5332 6 1 36.546648 -1.737405 55.487975
5333 6 1 36.029376 -1.643291 54.637344
5334 6 1 35.409625 -1.551165 53.857972
5335 6 1 34.853919 -2.195604 53.332721
5336 6 1 34.623582 -3.107208 53.673195
5337 6 1 34.463727 -4.088235 53.563500
5338 6 1 34.446804 -4.201070 54.556970
5339 6 1 35.024067 -4.156559 55.372314
5340 6 1 35.792180 -4.402021 54.780917
5341 6 1 36.444249 -5.114615 55.039792
5342 6 1 36.502726 -5.931980 55.612937
5343 6 1 37.184264 -5.212304 55.745496
5344 6 1 37.227087 -4.490864 55.054344
5345 6 1 37.056943 -3.958618 55.883660
5346 6 1 36.287735 -3.895860 55.247751
5347 6 1 36.563810 -3.196239 55.906775
5348 6 1 37.504132 -3.134870 55.572070
5349 6 1 38.308670 -2.766533 56.037953
5350 6 1 39.110482 -3.291259 55.752015
5351 6 1 39.448446 -4.116377 55.299287
5352 6 1 40.122530 -3.803715 54.630069
5353 6 1 40.374409 -3.131678 55.326433
5354 6 1 41.373696 -3.118690 55.361875
5355 6 1 40.705843 -3.858509 55.443370
5356 6 1 41.085112 -4.021155 56.354250
5357 6 1 41.835102 -3.431633 56.054287
5358 6 1 40.933211 -3.126236 56.359780
5359 6 1 40.196879 -2.549701 56.005630
5360 6 1 39.898644 -2.229626 55.106404
5361 6 1 40.390177 -1.373768 55.267348
5362 6 1 40.585399 -0.408338 55.440074
5363 6 1 40.785421 0.529684 55.157045
5364 6 1 40.952530 1.425287 54.744771
5365 6 1 40.004466 1.133905 54.872329
5366 6 1 39.833760 0.526186 55.647917
5367 6 1 39.773201 -0.430714 55.363883
5368 6 1 39.814620 -0.778247 54.427131
5369 6 1 39.483954 -1.528423 53.854509
5370 6 1 40.339240 -2.044947 53.895613
5371 6 1 40.000010 -2.820931 54.427376
5372 6 1 39.306171 -3.342789 54.923613
5373 6 1 38.906983 -4.233373 54.705649
5374 6 1 39.807627 -4.594395 54.463773
5375 6 1 39.550058 -3.730922 54.030099
5376 6 1 39.375762 -2.765989 53.833820
5377 6 1 38.836836 -3.310613 53.191213
5378 6 1 39.415625 -3.352726 52.376825
5379 6 1 39.112908 -2.462825 52.718057
5380 6 1 38.194630 -2.066964 52.725708
5381 6 1 38.480924 -2.664593 51.976792
5382 6 1 38.919125 -2.717286 51.079461
5383 6 1 38.409005 -2.989645 50.263620
5384 6 1 37.465479 -3.270510 50.439329
5385 6 1 37.462135 -3.319880 51.438104
5386 6 1 37.897565 -4.126370 51.038135
5387 6 1 37.347898 -4.910770 51.325508
5388 6 1 37.138913 -5.872761 51.501287
5389 6 1 36.760795 -6.457117 50.783265
5390 6 1 36.911729 -7.191325 50.121330
5391 6 1 36.130867 -6.979217 50.708923
5392 6 1 35.174472 -6.708591 50.818787
5393 6 1 35.442099 -7.474509 50.234197
5394 6 1 35.476675 -8.452260 50.441097
5395 6 1 35.161312 -8.674417 49.518495
5396 6 1 34.452193 -8.097620 49.924025
5397 6 1 34.007960 -7.292540 50.317095
5398 6 1 33.675784 -8.229064 50.204927
5399 6 1 32.921883 -8.076805 49.565826
5400 6 1 32.117766 -7.736062 50.052949
5401 6 1 32.599083 -6.913818 49.749226
5402 6 1 32.830961 -6.110983 50.298487
5403 6 1 32.619516 -5.929472 51.258875
5404 6 1 33.348271 -5.327575 50.932323
5405 6 1 34.305984 -5.410478 50.656802
5406 6 1 34.424866 -6.307943 51.081566
5407 6 1 34.689847 -6.526226 50.142344
5408 6 1 35.581561 -6.807870 49.788052
5409 6 1 34.785985 -7.212326 49.336972
5410 6 1 33.838966 -7.517724 49.237538
5411 6 1 33.907656 -8.488255 49.006558
5412 6 1 34.009109 -7.949537 48.170203
5413 6 1 34.174744 -8.920651 48.341964
5414 6 1 33.299441 -9.243043 47.981534
5415 6 1 33.212831 -9.679124 48.877264
5416 6 1 33.884902 -10.211360 49.392090
5417 6 1 34.600186 -9.940994 48.747675
5418 6 1 34.357596 -10.190831 47.810268
5419 6 1 34.599001 -10.931832 48.436878
5420 6 1 33.773981 -11.266857 47.981796
5421 6 1 34.447040 -11.791793 48.502788
5422 6 1 35.446161 -11.829671 48.520759
5423 6 1 36.202534 -12.481452 48.576272
5424 6 1 36.102690 -12.312115 47.595784
5425 6 1 35.686788 -12.222740 46.690777
5426 6 1 34.732202 -12.271805 46.396910
5427 6 1 34.869480 -11.879098 45.487549
5428 6 1 35.087054 -11.352959 46.309644
5429 6 1 34.284456 -10.822111 46.037549
5430 6 1 34.936932 -10.118898 45.755117
5431 6 1 35.755537 -9.550543 45.837926
5432 6 1 35.209252 -9.607083 46.673614
5433 6 1 35.759842 -10.359392 46.311838
5434 6 1 35.650352 -10.382024 45.318108
5435 6 1 36.646956 -10.463001 45.303204
5436 6 1 37.353667 -10.293393 44.616333
5437 6 1 36.751469 -9.536808 44.361505
5438 6 1 36.655968 -9.631867 45.352385
5439 6 1 37.282547 -9.578221 46.129894
5440 6 1 37.931515 -10.136037 45.612515
5441 6 1 38.384878 -9.577388 46.307046
5442 6 1 38.771155 -8.811249 45.793409
5443 6 1 39.581071 -8.254426 45.977756
5444 6 1 39.650463 -8.078530 46.959716
5445 6 1 40.618017 -8.077639 47.212380
5446 6 1 40.713945 -7.104826 47.001591
5447 6 1 41.642465 -7.459418 46.891521
5448 6 1 41.089530 -8.180872 46.474667
5449 6 1 42.015273 -8.228366 46.849827
5450 6 1 41.789329 -8.351325 45.883478
5451 6 1 41.953881 -8.610502 44.931769
5452 6 1 42.536101 -8.816379 44.145236
5453 6 1 41.797198 -8.433553 43.590738
5454 6 1 41.289906 -9.010031 44.231307
5455 6 1 40.295471 -9.108675 44.268299
5456 6 1 40.019377 -10.063529 44.377962
5457 6 1 39.377357 -9.763293 43.672507
5458 6 1 38.994923 -10.527586 44.191739
5459 6 1 38.173572 -11.096493 44.150167
5460 6 1 38.309625 -11.536070 45.038008
5461 6 1 38.920823 -11.026113 45.643303
5462 6 1 38.739522 -11.010766 46.626611
5463 6 1 39.585329 -10.604592 46.280730
5464 6 1 40.318826 -10.756036 45.618124
5465 6 1 40.909643 -10.284156 44.963705
5466 6 1 40.486363 -10.817502 44.231328
5467 6 1 39.595188 -10.912218 43.787666
5468 6 1 40.015480 -11.188645 42.923408
5469 6 1 39.987621 -10.500228 42.198628
5470 6 1 40.234187 -10.374672 41.237670
5471 6 1 40.578117 -10.757059 40.380062
5472 6 1 41.196005 -10.698582 41.164150
5473 6 1 41.859694 -10.498666 41.884949
5474 6 1 42.723276 -10.128222 42.226996
5475 6 1 42.705815 -10.603095 41.347114
5476 6 1 43.293752 -9.854864 41.039737
5477 6 1 44.059462 -9.558558 40.468869
5478 6 1 44.560806 -9.731939 41.316568
5479 6 1 45.124243 -8.973862 40.988149
5480 6 1 45.708095 -8.269885 40.583758
5481 6 1 45.734254 -7.592813 41.319210
5482 6 1 44.746690 -7.736950 41.256421
5483 6 1 44.243972 -8.484960 41.689728
5484 6 1 43.261527 -8.362440 41.549054
5485 6 1 42.876750 -7.443261 41.465048
5486 6 1 42.499477 -6.602606 41.853589
5487 6 1 41.696841 -6.013556 41.947371
5488 6 1 42.457334 -5.770321 42.549439
5489 6 1 41.614221 -5.353468 42.889135
5490 6 1 41.051081 -6.179458 42.864340
5491 6 1 41.124501 -6.842863 43.608990
5492 6 1 40.280269 -6.349137 43.400407
5493 6 1 40.582303 -5.781698 44.166429
5494 6 1 40.774798 -4.860474 44.504500
5495 6 1 40.007915 -4.510783 45.042651
5496 6 1 39.919647 -5.482943 45.259711
5497 6 1 39.039465 -5.259950 44.840720
5498 6 1 38.684949 -6.116152 45.216534
5499 6 1 37.862706 -6.141446 44.647959
5500 6 1 36.875487 -5.988391 44.692381
5501 6 1 35.974582 -6.259822 44.353715
5502 6 1 36.064021 -5.354350 44.768588
5503 6 1 35.454164 -5.683803 44.047800
5504 6 1 34.490374 -5.420354 44.006529
5505 6 1 35.264009 -4.888392 44.350777
5506 6 1 35.673761 -4.204040 43.747647
5507 6 1 35.986045 -4.350960 42.809088
5508 6 1 36.296777 -4.088022 41.895683
5509 6 1 37.014180 -3.507712 42.281135
5510 6 1 36.401543 -2.719301 42.225600
5511 6 1 35.486633 -3.106542 42.339545
5512 6 1 35.946036 -3.052727 43.226141
5513 6 1 35.885965 -2.904168 44.213219
5514 6 1 35.368245 -2.926261 45.068484
5515 6 1 34.928717 -3.799217 44.856914
5516 6 1 34.273842 -3.292579 44.296149
5517 6 1 33.812655 -3.604210 43.465371
5518 6 1 34.573130 -3.254805 42.918020
5519 6 1 33.934903 -3.897263 42.493858
5520 6 1 32.960326 -3.853594 42.713614
5521 6 1 33.317585 -4.598141 42.149685
5522 6 1 32.842174 -3.842151 41.699726
5523 6 1 32.114062 -3.293233 42.110264
5524 6 1 32.843807 -2.618846 42.222849
5525 6 1 33.563809 -1.988111 42.512278
5526 6 1 33.604849 -1.607932 43.436280
5527 6 1 33.226990 -1.036020 42.708174
5528 6 1 32.807473 -0.163580 42.457470
5529 6 1 32.820607 -0.654861 41.586568
5530 6 1 33.101047 -0.209132 40.736462
5531 6 1 34.006231 0.215817 40.728700
5532 6 1 34.032929 -0.371838 39.920029
5533 6 1 34.551029 -0.909092 40.585560
5534 6 1 35.433872 -1.149056 40.989300
5535 6 1 35.296939 -0.904360 40.029418
5536 6 1 35.035638 -1.719677 39.512716
5537 6 1 34.191689 -1.231919 39.735970
5538 6 1 34.259004 -0.823192 38.825799
5539 6 1 34.334925 -0.537385 37.870524
5540 6 1 34.487304 0.305083 38.387272
5541 6 1 33.530986 0.403311 38.662603
5542 6 1 33.982673 0.934959 39.379072
5543 6 1 34.250659 1.467700 38.576345
5544 6 1 34.115279 2.430320 38.341748
5545 6 1 33.705803 2.363787 39.251639
5546 6 1 33.234825 2.209888 40.120256
5547 6 1 32.296822 2.556481 40.115257
5548 6 1 32.705177 2.064820 40.884358
5549 6 1 32.495703 1.091179 40.794123
5550 6 1 32.560020 0.978306 41.785649
5551 6 1 31.826098 1.542604 41.407593
5552 6 1 31.104113 0.880591 41.608777
5553 6 1 30.469809 0.260254 42.070124
5554 6 1 30.307761 0.310012 41.084596
5555 6 1 30.327439 1.142150 41.638816
5556 6 1 29.573107 1.714854 41.959742
5557 6 1 29.963232 2.582041 42.269240
5558 6 1 29.289583 3.018953 42.865315
5559 6 1 28.362794 3.393574 42.892141
5560 6 1 28.564355 4.207392 43.437186
5561 6 1 28.774668 5.142026 43.723941
5562 6 1 29.704102 5.019400 44.071957
5563 6 1 29.522195 5.595122 44.869111
5564 6 1 30.119066 6.182056 44.322070
5565 6 1 30.324859 6.939233 43.702125
5566 6 1 30.810806 7.007781 44.573421
5567 6 1 31.371176 7.408826 45.298091
5568 6 1 31.386965 7.304327 46.292491
5569 6 1 31.735249 7.090349 47.205131
5570 6 1 32.040335 6.304895 46.666629
5571 6 1 31.876397 6.311717 47.653076
5572 6 1 32.816897 6.166964 47.960493
5573 6 1 33.326285 6.987036 48.221271
5574 6 1 34.307032 6.885211 48.054634
5575 6 1 35.288727 6.747203 48.185887
5576 6 1 34.700328 6.494767 47.417733
5577 6 1 34.945010 5.753740 46.792425
5578 6 1 34.865251 6.708385 46.505561
5579 6 1 34.657476 7.231257 45.678861
5580 6 1 35.298295 7.485563 44.954513
5581 6 1 34.675383 7.751294 44.218736
5582 6 1 33.827957 7.269889 43.994866
5583 6 1 33.020964 7.332852 44.582062
5584 6 1 33.275869 7.496054 45.535156
5585 6 1 33.980799 8.168605 45.760430
5586 6 1 33.600274 8.231345 44.837790
5587 6 1 34.382527 8.751196 44.494518
5588 6 1 35.279476 8.797202 44.054785
5589 6 1 35.454846 8.600007 43.090234
5590 6 1 35.861587 9.330686 42.541900
5591 6 1 36.016357 10.297875 42.340428
5592 6 1 35.801912 10.221179 41.366708
5593 6 1 35.132029 10.892627 41.049828
5594 6 1 34.223290 10.928522 41.465647
5595 6 1 34.695771 11.767723 41.196384
5596 6 1 33.890065 11.826571 41.785769
5597 6 1 33.144102 11.175368 41.646222
5598 6 1 33.343460 11.696809 42.475894
5599 6 1 32.832192 10.847502 42.607355
5600 6 1 32.274628 11.479995 42.069697
5601 6 1 31.779926 12.201289 42.554470
5602 6 1 31.364841 12.887547 43.151759
5603 6 1 31.626494 11.933881 43.300282
5604 6 1 32.621149 11.924203 43.403085
5605 6 1 32.388747 12.882387 43.570038
5606 6 1 33.342143 12.603909 43.686171
5607 6 1 33.663033 13.471680 44.065646
5608 6 1 33.364437 14.201781 44.680295
5609 6 1 33.588873 13.340157 45.135522
5610 6 1 32.940343 12.830288 45.700715
5611 6 1 33.658231 12.439784 46.277033
5612 6 1 34.112306 12.778498 47.101102
5613 6 1 34.048902 12.008060 47.735457
5614 6 1 34.906792 12.460826 47.492502
5615 6 1 34.979615 13.388643 47.126645
5616 6 1 34.881670 12.809415 46.317385
5617 6 1 35.306612 12.485001 45.472293
5618 6 1 35.619735 11.541769 45.583051
5619 6 1 35.903241 10.585332 45.513388
5620 6 1 35.350352 9.832645 45.155931
5621 6 1 35.613937 9.287983 45.952087
5622 6 1 35.467986 8.308905 45.810294
5623 6 1 35.872721 7.964259 46.657294
5624 6 1 36.365434 8.477922 45.954880
5625 6 1 37.124439 8.633168 45.322575
5626 6 1 37.211817 9.548704 45.715206
5627 6 1 37.550550 9.408913 44.784766
5628 6 1 38.289127 9.069137 44.202481
5629 6 1 37.570928 9.580155 43.730200
5630 6 1 37.278992 10.351456 43.164631
5631 6 1 36.686665 9.790422 42.586367
5632 6 1 37.556830 9.392722 42.877310
5633 6 1 37.310523 8.435293 42.726772
5634 6 1 37.878671 8.434905 43.549698
5635 6 1 37.886752 7.888246 44.387014
5636 6 1 38.692697 8.361171 44.030932
5637 6 1 38.920570 7.846940 43.204107
5638 6 1 38.898487 8.813017 42.946798
5639 6 1 38.296854 9.398461 42.403390
5640 6 1 37.603475 9.406407 41.682861
5641 6 1 38.539482 9.481006 41.338877
5642 6 1 38.177195 10.064488 40.612037
5643 6 1 37.791949 10.934557 40.919550
5644 6 1 38.324900 11.576987 40.368872
5645 6 1 39.062747 11.673751 41.036868
5646 6 1 39.546879 12.522231 40.823098
5647 6 1 39.807716 13.354331 41.312561
5648 6 1 39.119735 12.707090 41.640832
5649 6 1 38.333620 12.089171 41.654915
5650 6 1 38.870070 11.264777 41.835459
5651 6 1 39.798252 11.617509 41.716893
5652 6 1 40.546465 11.335445 42.317408
5653 6 1 40.279344 12.269557 42.080591
5654 6 1 41.093386 12.714393 41.707154
5655 6 1 41.271674 13.416914 41.018186
5656 6 1 42.031799 13.184302 40.411471
5657 6 1 42.803273 13.804574 40.269730
5658 6 1 43.317354 12.949881 40.197474
5659 6 1 43.136123 12.236607 40.874523
5660 6 1 42.915794 11.281018 40.678810
5661 6 1 42.372247 10.652924 41.235636
5662 6 1 41.604464 10.012217 41.237415
5663 6 1 42.063458 9.167387 40.962482
5664 6 1 41.408933 9.209049 41.717375
5665 6 1 41.203354 9.002773 40.760720
5666 6 1 40.750724 9.548049 40.055172
5667 6 1 40.355334 8.777560 40.555185
5668 6 1 40.278567 7.780699 40.574577
5669 6 1 41.263303 7.697172 40.727276
5670 6 1 41.625656 6.902545 41.214378
5671 6 1 41.744575 6.806074 40.226172
5672 6 1 42.112811 6.395100 39.392204
5673 6 1 42.097127 5.606903 38.776981
5674 6 1 42.732261 5.055523 39.317892
5675 6 1 42.484229 4.981297 38.351988
5676 6 1 42.299064 5.454107 37.490498
5677 6 1 41.483754 5.933083 37.165149
5678 6 1 41.415217 5.408647 38.013836
5679 6 1 40.807033 5.036886 37.312477
5680 6 1 40.419165 4.626747 36.487040
5681 6 1 40.262691 5.592099 36.278205
5682 6 1 41.125475 6.094376 36.335834
5683 6 1 40.729316 6.950885 36.666667
5684 6 1 41.598585 7.008849 36.175738
5685 6 1 40.833584 6.551620 35.722180
5686 6 1 39.973773 7.028091 35.538601
5687 6 1 39.024971 6.785316 35.336526
5688 6 1 39.077334 6.396958 34.416506
5689 6 1 38.384593 7.094915 34.598072
5690 6 1 37.761463 6.469006 34.129088
5691 6 1 36.903601 6.920318 33.883342
5692 6 1 37.085112 7.098828 34.850394
5693 6 1 36.967954 8.000908 34.435031
5694 6 1 37.706298 7.952104 35.107687
5695 6 1 37.732884 8.067903 36.100604
5696 6 1 36.942432 7.775760 35.562238
5697 6 1 36.425035 7.010286 35.944796
5698 6 1 36.918257 6.144265 36.026887
5699 6 1 36.309665 5.364101 35.882116
5700 6 1 36.584754 5.308296 34.922318
5701 6 1 35.724080 5.634514 34.531393
5702 6 1 35.741297 4.743927 34.076904
5703 6 1 35.079426 4.023807 33.868690
5704 6 1 35.390735 4.396953 34.742674
5705 6 1 35.783815 4.186329 35.637731
5706 6 1 36.435709 3.942449 36.355754
5707 6 1 35.794674 3.290134 36.760179
5708 6 1 36.419081 3.129141 37.524507
5709 6 1 35.688512 3.641424 37.975989
5710 6 1 36.166486 3.555448 38.850145
5711 6 1 36.947173 3.813893 39.419121
5712 6 1 37.934953 3.942088 39.330473
5713 6 1 37.843357 3.105804 38.789882
5714 6 1 38.415477 2.966335 37.981657
5715 6 1 37.809314 3.759405 37.921606
5716 6 1 37.764487 4.709402 37.612580
5717 6 1 37.378616 5.520909 38.051395
5718 6 1 38.001600 6.278035 37.854796
5719 6 1 38.612206 6.543634 38.600864
5720 6 1 37.767540 6.239662 39.041478
5721 6 1 37.723249 5.243868 38.961273
5722 6 1 38.557788 5.618312 38.557123
5723 6 1 39.023686 5.693948 37.675523
5724 6 1 39.824348 5.847983 38.254499
5725 6 1 39.791567 5.764606 39.250478
5726 6 1 40.029154 5.085248 39.944758
5727 6 1 40.064904 4.626518 39.056902
5728 6 1 40.611799 4.002912 38.498312
5729 6 1 40.502707 3.863042 37.514170
5730 6 1 39.646623 3.459072 37.836547
5731 6 1 39.997569 3.348797 38.766427
5732 6 1 40.397697 3.148757 39.660788
5733 6 1 41.264785 2.733537 39.385558
5734 6 1 42.254545 2.754398 39.526763
5735 6 1 41.991842 2.574748 40.474768
5736 6 1 41.753082 1.936714 41.206824
5737 6 1 40.871426 1.906945 41.677776
5738 6 1 41.074502 1.831901 42.654059
5739 6 1 40.772281 0.959956 42.268863
5740 6 1 40.839059 0.817710 41.281287
5741 6 1 40.881925 -0.124863 40.950048
5742 6 1 41.343712 -0.467231 40.131796
5743 6 1 40.612611 -0.124510 39.541853
5744 6 1 39.907276 -0.006171 38.842926
5745 6 1 40.221257 0.409467 37.989310
5746 6 1 40.463104 -0.559777 37.943743
5747 6 1 39.740731 -0.792675 37.292640
5748 6 1 40.303846 -0.845234 36.467934
5749 6 1 40.816796 -1.040866 35.632105
5750 6 1 40.437961 -1.831418 36.113261
5751 6 1 39.942725 -2.421374 35.475535
5752 6 1 39.728676 -2.969446 36.284115
5753 6 1 40.689192 -2.761013 36.099821
5754 6 1 40.751118 -3.744647 36.269021
5755 6 1 41.615216 -3.708393 35.767005
5756 6 1 42.206440 -4.499567 35.610484
5757 6 1 42.917982 -4.801598 34.976067
5758 6 1 43.750233 -4.304267 35.221060
5759 6 1 43.909096 -3.982318 36.154394
5760 6 1 43.886845 -4.770053 36.770006
5761 6 1 44.213870 -5.459032 37.416815
5762 6 1 43.604491 -5.522793 36.626505
5763 6 1 43.232181 -5.899271 37.474826
5764 6 1 42.999908 -4.927497 37.433534
5765 6 1 42.383076 -4.144552 37.352812
5766 6 1 41.498416 -4.467307 37.689273
5767 6 1 41.938968 -3.814047 38.305037
5768 6 1 42.063443 -2.836039 38.137685
5769 6 1 41.409229 -3.257542 38.765649
5770 6 1 41.036592 -2.414708 38.377355
5771 6 1 41.449219 -1.507016 38.453729
5772 6 1 41.976294 -2.031663 37.785195
5773 6 1 41.171107 -1.689369 37.300933
5774 6 1 41.529284 -0.837584 37.683258
5775 6 1 41.055116 -0.927534 36.807431
5776 6 1 41.638887 -0.796227 36.006202
5777 6 1 42.531571 -1.208926 36.187297
5778 6 1 43.082217 -1.026517 37.001861
5779 6 1 43.139280 -0.044545 36.821653
5780 6 1 43.638794 -0.016514 35.955800
5781 6 1 42.840288 0.405824 35.526825
5782 6 1 42.294713 0.315267 34.693670
5783 6 1 41.577812 0.018233 34.062937
5784 6 1 40.888113 0.706491 34.287918
5785 6 1 40.248376 0.341630 33.611447
5786 6 1 40.430754 1.186010 33.107700
5787 6 1 40.719814 2.026503 33.565975
5788 6 1 40.977559 1.818564 34.509547
5789 6 1 41.859657 2.041635 34.924447
5790 6 1 42.609311 1.923839 35.575710
5791 6 1 42.665608 2.829546 35.155560
5792 6 1 43.487673 2.968373 34.603349
5793 6 1 43.127146 3.898637 34.535299
5794 6 1 43.364842 3.962523 35.504536
5795 6 1 43.205473 4.859369 35.091899
5796 6 1 42.952100 5.822861 35.005384
5797 6 1 43.047975 6.636146 34.431471
5798 6 1 43.611230 5.866681 34.130359
5799 6 1 44.073252 6.737187 33.960788
5800 6 1 44.068260 6.554777 32.977578
5801 6 1 44.862984 6.719576 33.561748
5802 6 1 44.922105 6.413364 32.611622
5803 6 1 44.706805 5.743113 31.901405
5804 6 1 44.228163 5.389518 32.705067
5805 6 1 43.393208 5.903373 32.508080
5806 6 1 43.618974 6.511929 31.747364
5807 6 1 43.939796 7.451139 31.625061
5808 6 1 44.827111 7.817751 31.345297
5809 6 1 45.073365 6.890992 31.061612
5810 6 1 44.738506 6.132487 30.502560
5811 6 1 43.994066 5.468811 30.575666
5812 6 1 44.658925 5.430527 29.829678
5813 6 1 45.420360 6.060075 29.984228
5814 6 1 46.292196 6.549754 29.973407
5815 6 1 46.110946 6.835787 29.032486
5816 6 1 45.489379 7.426087 29.547462
5817 6 1 44.865252 8.178793 29.756984
5818 6 1 45.778452 8.571244 29.647220
5819 6 1 45.912589 9.560961 29.696888
5820 6 1 45.583298 10.028256 28.876398
5821 6 1 46.422198 10.289837 28.399092
5822 6 1 46.702933 11.154467 27.982434
5823 6 1 46.531495 11.408414 28.934337
5824 6 1 46.595479 11.690914 29.891468
5825 6 1 46.190338 10.777299 29.857283
5826 6 1 45.559671 11.445293 29.462260
5827 6 1 44.571796 11.404962 29.312341
5828 6 1 45.094055 10.666832 29.739435
5829 6 1 44.164957 10.513354 29.402952
5830 6 1 44.760599 10.103168 28.712330
5831 6 1 44.591152 11.072889 28.536461
5832 6 1 44.110299 11.504776 27.773405
5833 6 1 43.474930 10.873714 28.218453
5834 6 1 43.046527 10.197390 28.817665
5835 6 1 43.694960 9.706091 29.399180
5836 6 1 43.511044 9.096347 30.170145
5837 6 1 43.262112 8.649324 29.310957
5838 6 1 42.275438 8.688621 29.468852
5839 6 1 42.548999 9.027534 28.568684
5840 6 1 41.977488 8.253021 28.839801
5841 6 1 42.116877 8.403909 27.861126
5842 6 1 42.681469 7.841783 27.256766
5843 6 1 43.068737 7.137302 26.662014
5844 6 1 42.379112 7.814681 26.405936
5845 6 1 42.553434 7.405085 25.510479
5846 6 1 42.712178 6.821342 24.714210
5847 6 1 42.159353 6.399291 23.995699
5848 6 1 42.368516 5.451309 24.235658
5849 6 1 42.123303 5.775861 25.149188
5850 6 1 42.576856 4.946879 24.821960
5851 6 1 42.759166 4.006319 24.535409
5852 6 1 42.058652 3.372501 24.863364
5853 6 1 41.249506 2.792429 24.769558
5854 6 1 41.232594 2.811093 25.769240
5855 6 1 41.490106 3.775794 25.824379
5856 6 1 42.280231 4.343072 25.592221
5857 6 1 43.257133 4.556755 25.593638
5858 6 1 43.320979 3.565415 25.478876
5859 6 1 43.608546 3.832243 26.398718
5860 6 1 43.029073 4.401835 26.981620
5861 6 1 42.498612 4.793737 27.733302
5862 6 1 41.836267 4.896099 28.475475
5863 6 1 41.867228 5.588357 29.196460
5864 6 1 42.188001 5.633085 28.250361
5865 6 1 42.509363 6.291258 27.569527
5866 6 1 42.133754 5.479037 27.123193
5867 6 1 41.239805 5.093099 27.351025
5868 6 1 40.600581 5.749834 27.751138
5869 6 1 39.992414 5.604993 26.970655
5870 6 1 40.700718 6.185233 26.568626
5871 6 1 40.761475 7.181292 26.504005
5872 6 1 41.491321 7.809017 26.774720
5873 6 1 40.607886 8.230032 26.569079
5874 6 1 39.918758 8.952069 26.630445
5875 6 1 40.916992 9.010643 26.640359
5876 6 1 40.922062 9.726364 25.941991
5877 6 1 40.565524 8.792394 25.917896
5878 6 1 39.817796 8.529875 25.307988
5879 6 1 38.915965 8.244201 25.632165
5880 6 1 38.611991 8.106120 26.574786
5881 6 1 38.278186 7.893716 27.493186
5882 6 1 38.697560 7.129012 27.982422
5883 6 1 37.946706 6.499459 28.182124
5884 6 1 37.456365 7.370989 28.183414
5885 6 1 37.614875 6.798562 28.987903
5886 6 1 37.388142 6.975953 29.945569
5887 6 1 38.010834 7.133249 30.712062
5888 6 1 37.380253 7.824588 30.359335
5889 6 1 37.408249 8.537615 29.658757
5890 6 1 36.976048 7.674318 29.398140
5891 6 1 37.878592 7.694744 28.968028
5892 6 1 38.740245 7.325127 29.315788
5893 6 1 39.489075 7.024662 28.725046
5894 6 1 39.987689 6.238201 29.089550
5895 6 1 39.253903 5.755108 29.567230
5896 6 1 39.476836 5.024232 28.922155
5897 6 1 39.363424 4.030778 28.908511
5898 6 1 39.123098 3.287200 28.284543
5899 6 1 39.308091 3.432112 27.312546
5900 6 1 40.257518 3.708846 27.164199
5901 6 1 41.045997 3.934105 27.736527
5902 6 1 41.793099 3.363153 28.076898
5903 6 1 42.118460 3.011101 28.954508
5904 6 1 42.856550 3.112140 28.287415
5905 6 1 42.839036 3.311167 27.307577
5906 6 1 42.434717 3.243151 26.395492
5907 6 1 43.159270 2.625568 26.089529
5908 6 1 44.067916 2.399976 26.440912
5909 6 1 43.496967 3.092228 26.882278
5910 6 1 44.352172 3.253019 26.389560
5911 6 1 44.778856 2.434132 26.005678
5912 6 1 44.674397 2.621914 25.029038
5913 6 1 44.278167 3.380961 25.545613
5914 6 1 44.668589 4.299658 25.485900
5915 6 1 45.039537 3.410988 25.216340
5916 6 1 45.943303 3.005974 25.354803
5917 6 1 45.672148 2.461006 26.148204
5918 6 1 46.114173 1.601938 25.890102
5919 6 1 45.314628 1.046167 26.117798
5920 6 1 44.982190 1.670897 25.411259
5921 6 1 45.318222 1.428091 24.501243
5922 6 1 44.729579 1.759716 23.764002
5923 6 1 44.039537 1.919821 23.058164
5924 6 1 44.428188 2.619496 23.657669
5925 6 1 43.598421 2.170741 23.989490
5926 6 1 43.089347 2.531303 24.771052
5927 6 1 43.461727 3.367830 24.369112
5928 6 1 43.073139 4.049639 23.749325
5929 6 1 43.025556 3.676598 22.822731
5930 6 1 42.218218 4.266686 22.821183
5931 6 1 41.652635 3.650076 23.368821
5932 6 1 40.817944 4.096662 23.691082
5933 6 1 39.835252 4.219003 23.830183
5934 6 1 39.812158 4.902841 23.100914
5935 6 1 40.704649 5.341939 23.204133
5936 6 1 40.780016 5.861180 22.352835
5937 6 1 40.839357 4.867664 22.449813
5938 6 1 41.081035 4.788811 21.482666
5939 6 1 40.412862 5.079116 20.797634
5940 6 1 40.711601 5.863921 21.340622
5941 6 1 40.932061 6.177286 20.416934
5942 6 1 41.492943 5.387281 20.664529
5943 6 1 42.120256 5.272139 19.894321
5944 6 1 42.689552 4.692847 20.477694
5945 6 1 42.872482 5.668563 20.357217
5946 6 1 42.967626 5.710664 19.362644
5947 6 1 42.541869 5.683209 18.458223
5948 6 1 41.680951 5.914737 18.005217
5949 6 1 41.709712 4.928323 18.166953
5950 6 1 40.787387 4.708574 18.484802
5951 6 1 40.679303 5.055961 17.553330
5952 6 1 40.661790 5.721417 16.807098
5953 6 1 39.948893 5.452938 16.159257
5954 6 1 40.352721 4.595241 16.477501
5955 6 1 40.248122 4.355715 15.512262
5956 6 1 40.121550 3.864930 14.650225
5957 6 1 41.116491 3.965274 14.655207
5958 6 1 41.510346 4.798336 15.043646
5959 6 1 41.868630 4.397061 14.200669
5960 6 1 42.849409 4.513506 14.357241
5961 6 1 43.264253 5.084002 15.066069
5962 6 1 42.601799 5.797927 14.839206
5963 6 1 42.338733 6.730503 15.086384
5964 6 1 42.622432 7.625076 14.741054
5965 6 1 42.908547 7.956810 15.639993
5966 6 1 43.774146 8.177008 16.089716
5967 6 1 43.903778 7.807743 17.009955
5968 6 1 43.050681 7.742464 16.492301
5969 6 1 42.592342 7.675159 17.378526
5970 6 1 42.668474 7.342576 18.318522
5971 6 1 42.256866 7.544989 19.207121
5972 6 1 43.135968 8.006521 19.326151
5973 6 1 43.277897 7.313714 20.033169
5974 6 1 42.638490 6.817129 20.620162
5975 6 1 42.324788 6.417939 19.758629
5976 6 1 42.619687 6.448957 18.803604
5977 6 1 43.463895 6.522886 18.272711
5978 6 1 44.439762 6.333992 18.382267
5979 6 1 44.200726 5.892585 17.517385
5980 6 1 44.126623 6.217958 16.574707
5981 6 1 44.803485 5.575541 16.215320
5982 6 1 45.666108 5.627200 15.712118
5983 6 1 44.949349 5.364486 15.066179
5984 6 1 44.231982 4.888146 14.557764
5985 6 1 44.448907 4.199774 15.249926
5986 6 1 44.514087 4.591480 16.167704
5987 6 1 43.895501 5.327192 16.443530
5988 6 1 43.757643 4.336984 16.421549
5989 6 1 43.664594 3.342850 16.366418
5990 6 1 42.997820 3.844082 15.814894
5991 6 1 42.987771 3.677721 14.828881
5992 6 1 42.174254 3.128452 15.019911
5993 6 1 41.570494 3.576651 15.679147
5994 6 1 40.668408 3.649352 15.253759
5995 6 1 41.289529 2.884222 15.084096
5996 6 1 40.830961 2.826709 14.197299
5997 6 1 40.212146 3.486249 13.770597
5998 6 1 39.609801 3.429731 12.974365
5999 6 1 39.916121 3.603971 12.038519
6000 6 1 39.537479 2.679337 11.997513
6001 7 1 -59.774723 -41.820686 -32.849470
6002 7 1 -60.268305 -42.663134 -32.633467
6003 7 1 -61.119862 -43.173988 -32.751277
6004 7 1 -61.535578 -42.744985 -31.949319
6005 7 1 -61.026053 -41.925927 -31.685634
6006 7 1 -60.858996 -41.553465 -32.598522
6007 7 1 -61.056050 -41.042778 -31.761641
6008 7 1 -61.898816 -41.520155 -32.010350
6009 7 1 -62.860117 -41.289608 -32.161176
6010 7 1 -63.810730 -41.222154 -31.858217
6011 7 1 -63.714169 -41.400489 -32.837438
6012 7 1 -64.409338 -42.000881 -33.232746
6013 7 1 -64.011866 -42.666433 -32.601036
6014 7 1 -63.049660 -42.626300 -32.870383
6015 7 1 -62.257674 -42.340169 -32.331044
6016 7 1 -62.005896 -43.220874 -32.732251
6017 7 1 -62.553888 -43.947900 -33.145939
6018 7 1 -62.032136 -44.550886 -33.749415
6019 7 1 -62.794345 -45.074412 -33.368683
6020 7 1 -62.918221 -44.990411 -34.357418
6021 7 1 -63.746482 -44.591308 -33.964100
6022 7 1 -64.359591 -43.817862 -33.803227
6023 7 1 -64.662091 -42.940072 -34.174682
6024 7 1 -64.967111 -42.425435 -34.976000
6025 7 1 -65.772508 -42.225573 -35.534024
6026 7 1 -66.758748 -42.218302 -35.699188
6027 7 1 -67.211234 -42.307395 -34.811879
6028 7 1 -67.731107 -42.655078 -35.592166
6029 7 1 -67.709559 -41.668889 -35.756387
6030 7 1 -67.954093 -41.146592 -36.573337
6031 7 1 -67.252325 -40.680090 -36.034916
6032 7 1 -66.997702 -39.769122 -35.710412
6033 7 1 -66.526656 -39.785630 -36.592366
6034 7 1 -65.555144 -39.810191 -36.356654
6035 7 1 -65.131651 -39.922436 -35.457735
6036 7 1 -65.402393 -40.744851 -35.958067
6037 7 1 -65.828307 -40.714258 -35.053821
6038 7 1 -65.791760 -40.203942 -34.194611
6039 7 1 -65.486088 -40.325681 -33.250289
6040 7 1 -65.117663 -41.195820 -32.922995
6041 7 1 -65.009094 -40.526551 -32.187949
6042 7 1 -65.495848 -39.958521 -31.524314
6043 7 1 -65.918540 -40.112283 -32.417448
6044 7 1 -66.641267 -39.421404 -32.398639
6045 7 1 -66.518059 -40.044652 -31.626381
6046 7 1 -67.359452 -39.539737 -31.433717
6047 7 1 -67.569358 -39.986048 -30.563805
6048 7 1 -68.137353 -39.752530 -31.353014
6049 7 1 -68.754090 -40.538763 -31.314651
6050 7 1 -67.895388 -40.904051 -30.955213
6051 7 1 -68.526454 -41.324584 -31.607062
6052 7 1 -69.505622 -41.429287 -31.433085
6053 7 1 -69.250993 -41.913655 -30.596095
6054 7 1 -69.595996 -41.667503 -29.690345
6055 7 1 -69.643006 -42.633156 -29.945893
6056 7 1 -70.560804 -42.304963 -30.169359
6057 7 1 -71.135111 -42.950566 -29.666002
6058 7 1 -71.638349 -43.471819 -30.355238
6059 7 1 -72.429165 -43.868643 -29.889254
6060 7 1 -72.436679 -44.467313 -29.088293
6061 7 1 -72.138857 -45.284989 -29.580949
6062 7 1 -72.974913 -45.833632 -29.580966
6063 7 1 -73.775849 -46.422890 -29.474769
6064 7 1 -74.429624 -46.462335 -30.230429
6065 7 1 -73.621475 -45.897039 -30.395766
6066 7 1 -73.942982 -45.158817 -30.988777
6067 7 1 -73.923424 -45.488010 -31.932837
6068 7 1 -73.064474 -45.054799 -31.659830
6069 7 1 -72.424401 -44.536480 -32.226973
6070 7 1 -72.469231 -44.363047 -33.210798
6071 7 1 -72.863797 -44.202952 -34.115611
6072 7 1 -73.285624 -43.371914 -34.478156
6073 7 1 -73.867275 -42.581115 -34.668733
6074 7 1 -73.878207 -43.093566 -35.527380
6075 7 1 -74.495884 -42.661350 -36.184392
6076 7 1 -74.419966 -42.914262 -37.148898
6077 7 1 -73.859619 -42.676239 -37.942218
6078 7 1 -73.652136 -43.630214 -38.158742
6079 7 1 -74.500717 -43.121870 -38.305354
6080 7 1 -74.173690 -43.718133 -39.038514
6081 7 1 -74.833709 -42.977644 -39.165212
6082 7 1 -75.473877 -42.407380 -39.679977
6083 7 1 -75.861489 -42.137912 -38.798420
6084 7 1 -76.410166 -41.526080 -38.228669
6085 7 1 -75.454326 -41.427826 -38.505645
6086 7 1 -75.417390 -41.567883 -37.516190
6087 7 1 -76.053485 -41.394856 -36.764230
6088 7 1 -76.381132 -41.706017 -35.872140
6089 7 1 -75.500273 -41.772361 -35.403433
6090 7 1 -75.082525 -42.379456 -34.727472
6091 7 1 -75.282495 -43.357473 -34.668355
6092 7 1 -76.043460 -42.957549 -35.179231
6093 7 1 -76.047240 -43.499541 -34.338856
6094 7 1 -76.419378 -42.980523 -33.569354
6095 7 1 -76.112012 -42.444413 -32.783153
6096 7 1 -75.471900 -42.929773 -33.378705
6097 7 1 -74.950970 -42.589426 -32.595892
6098 7 1 -75.150317 -42.135485 -33.464338
6099 7 1 -74.791583 -41.726011 -32.625505
6100 7 1 -74.757183 -40.726840 -32.647284
6101 7 1 -74.066608 -40.720558 -31.924052
6102 7 1 -74.094972 -39.939648 -32.548050
6103 7 1 -74.307847 -40.381927 -33.419298
6104 7 1 -73.394942 -40.683914 -33.693903
6105 7 1 -72.468900 -40.553264 -33.339818
6106 7 1 -72.602982 -40.334824 -32.373222
6107 7 1 -72.371482 -39.395824 -32.118888
6108 7 1 -71.749586 -40.099771 -31.775808
6109 7 1 -71.526691 -39.695954 -32.663079
6110 7 1 -71.424904 -40.681146 -32.801051
6111 7 1 -71.110523 -41.501458 -33.278808
6112 7 1 -70.449913 -41.136260 -32.622892
6113 7 1 -70.769686 -40.456237 -33.282675
6114 7 1 -69.888793 -40.926534 -33.229317
6115 7 1 -69.361750 -40.151884 -32.879826
6116 7 1 -68.543335 -39.624911 -33.108948
6117 7 1 -67.969332 -39.548770 -33.924253
6118 7 1 -68.558492 -39.168594 -34.637243
6119 7 1 -67.819192 -39.538851 -35.199688
6120 7 1 -68.123207 -40.455217 -34.939213
6121 7 1 -68.879861 -40.475395 -35.592717
6122 7 1 -68.863024 -40.593808 -34.599895
6123 7 1 -69.647118 -41.099421 -34.239962
6124 7 1 -69.735163 -41.440299 -35.175938
6125 7 1 -69.867919 -42.138896 -35.879029
6126 7 1 -70.338197 -41.676713 -36.630844
6127 7 1 -69.773194 -40.877292 -36.835045
6128 7 1 -69.932012 -40.017173 -36.350307
6129 7 1 -70.741100 -39.668149 -35.877485
6130 7 1 -71.366862 -40.414290 -35.650119
6131 7 1 -71.926336 -40.796978 -36.385331
6132 7 1 -72.156568 -41.534619 -37.020059
6133 7 1 -73.127652 -41.695362 -36.843543
6134 7 1 -73.690461 -41.543867 -36.030957
6135 7 1 -73.889530 -42.190361 -36.767447
6136 7 1 -72.943303 -42.482599 -36.628700
6137 7 1 -72.618666 -43.377268 -36.935585
6138 7 1 -72.212484 -44.177674 -37.376455
6139 7 1 -73.157997 -44.481959 -37.260622
6140 7 1 -72.442238 -45.179561 -37.228353
6141 7 1 -72.122446 -46.126187 -37.268756
6142 7 1 -72.857740 -45.691660 -37.788880
6143 7 1 -72.065254 -45.112595 -37.980317
6144 7 1 -71.512218 -44.322020 -38.243266
6145 7 1 -71.360644 -44.078934 -39.201355
6146 7 1 -70.493335 -44.389114 -39.590669
6147 7 1 -69.629809 -44.648593 -40.023095
6148 7 1 -69.840528 -43.746285 -40.399177
6149 7 1 -69.076023 -43.102153 -40.374120
6150 7 1 -69.135934 -43.985521 -40.838955
6151 7 1 -69.832560 -43.585104 -41.434252
6152 7 1 -70.636448 -43.418799 -40.863195
6153 7 1 -69.984383 -42.714454 -40.582644
6154 7 1 -70.576672 -43.192760 -39.934249
6155 7 1 -70.880169 -44.038501 -40.373124
6156 7 1 -70.761313 -45.025202 -40.262244
6157 7 1 -70.640882 -45.975290 -39.974442
6158 7 1 -70.500036 -46.844542 -40.448323
6159 7 1 -70.779613 -46.821723 -39.488471
6160 7 1 -70.931268 -47.649182 -38.947813
6161 7 1 -70.471489 -47.119325 -38.235174
6162 7 1 -69.492819 -47.177787 -38.432119
6163 7 1 -69.689378 -47.001853 -39.396697
6164 7 1 -69.653282 -47.654385 -40.153599
6165 7 1 -69.033376 -46.931524 -40.458867
6166 7 1 -68.610994 -47.193713 -39.591197
6167 7 1 -68.320371 -47.821385 -38.869002
6168 7 1 -67.634926 -48.453787 -38.508126
6169 7 1 -66.801192 -48.089458 -38.923038
6170 7 1 -66.881981 -47.098571 -38.815265
6171 7 1 -66.043153 -47.240481 -39.340840
6172 7 1 -65.293972 -46.627162 -39.090706
6173 7 1 -64.751352 -47.445851 -38.902795
6174 7 1 -64.020643 -47.611087 -38.240404
6175 7 1 -64.260252 -48.241972 -37.502453
6176 7 1 -64.990701 -47.604102 -37.258392
6177 7 1 -65.073402 -47.425218 -36.278004
6178 7 1 -64.287092 -47.170646 -35.715056
6179 7 1 -64.202731 -48.104298 -36.063163
6180 7 1 -64.950794 -48.744468 -35.888281
6181 7 1 -65.426645 -48.021860 -35.386880
6182 7 1 -66.070702 -48.124173 -36.144984
6183 7 1 -66.139677 -49.100460 -36.350183
6184 7 1 -65.378808 -49.738362 -36.231192
6185 7 1 -64.762055 -50.100304 -35.532183
6186 7 1 -65.102048 -49.324804 -35.000202
6187 7 1 -65.720478 -48.559341 -34.822407
6188 7 1 -66.377906 -49.309327 -34.749540
6189 7 1 -66.150165 -50.047940 -35.384035
6190 7 1 -66.973758 -50.136402 -35.944276
6191 7 1 -67.737681 -49.832805 -35.374847
6192 7 1 -67.929217 -50.281010 -36.248017
6193 7 1 -67.393501 -50.208150 -37.089266
6194 7 1 -67.422302 -51.058657 -36.564092
6195 7 1 -67.049695 -51.944289 -36.286927
6196 7 1 -67.660810 -51.491905 -35.637398
6197 7 1 -68.137505 -50.676639 -35.308609
6198 7 1 -68.583721 -51.550273 -35.502655
6199 7 1 -69.497022 -51.715173 -35.875065
6200 7 1 -70.452472 -51.996287 -35.785123
6201 7 1 -70.096260 -52.695005 -35.164715
6202 7 1 -70.166000 -52.440794 -34.200083
6203 7 1 -71.089923 -52.422876 -33.817926
6204 7 1 -71.715420 -52.486058 -33.040262
6205 7 1 -71.804566 -53.176965 -33.757688
6206 7 1 -70.947157 -53.217035 -33.244615
6207 7 1 -70.351362 -53.620959 -33.938786
6208 7 1 -70.121594 -53.668340 -32.966695
6209 7 1 -69.954878 -53.616634 -31.982046
6210 7 1 -69.571971 -54.492285 -31.687736
6211 7 1 -68.918429 -55.247731 -31.734468
6212 7 1 -68.847069 -55.763794 -32.588041
6213 7 1 -69.491040 -55.057327 -32.294432
6214 7 1 -69.072267 -54.338755 -32.849664
6215 7 1 -68.764377 -53.521183 -33.336264
6216 7 1 -68.615393 -53.712095 -34.306499
6217 7 1 -67.896826 -54.259461 -33.877487
6218 7 1 -67.090352 -54.524541 -33.348968
6219 7 1 -66.950461 -53.562749 -33.584312
6220 7 1 -66.785665 -52.909463 -34.323270
6221 7 1 -66.532057 -53.316911 -35.200578
6222 7 1 -66.291058 -52.715126 -35.962007
6223 7 1 -65.617124 -52.640465 -35.226998
6224 7 1 -65.038594 -51.908391 -34.867316
6225 7 1 -64.598015 -52.569027 -35.475141
6226 7 1 -64.504911 -51.934260 -36.242215
6227 7 1 -63.640596 -52.245276 -36.637474
6228 7 1 -64.259585 -51.502616 -36.893029
6229 7 1 -63.820198 -50.886437 -36.239375
6230 7 1 -62.902434 -51.051057 -35.877977
6231 7 1 -63.651519 -51.658954 -35.614665
6232 7 1 -63.886920 -50.735795 -35.310752
6233 7 1 -63.641260 -50.825303 -34.345538
6234 7 1 -63.650924 -49.829529 -34.254214
6235 7 1 -63.556920 -49.587857 -33.288420
6236 7 1 -63.299883 -49.208182 -32.399725
6237 7 1 -63.300934 -50.138969 -32.034166
6238 7 1 -64.141002 -50.240753 -32.567013
6239 7 1 -63.488561 -50.856982 -33.008127
6240 7 1 -63.489446 -51.475235 -32.222148
6241 7 1 -62.608891 -51.657490 -31.784647
6242 7 1 -61.979504 -51.303938 -31.092641
6243 7 1 -61.835194 -52.219602 -30.717496
6244 7 1 -61.954244 -51.944478 -29.763487
6245 7 1 -62.616525 -52.480391 -30.287109
6246 7 1 -61.821404 -52.789432 -29.765309
6247 7 1 -61.421755 -53.475217 -29.157049
6248 7 1 -60.912408 -53.998872 -29.839948
6249 7 1 -60.850731 -54.109378 -28.847988
6250 7 1 -60.619816 -55.060957 -29.050909
6251 7 1 -61.579584 -55.116820 -29.326093
6252 7 1 -61.897743 -55.142130 -28.378394
6253 7 1 -61.598379 -56.035429 -28.043133
6254 7 1 -60.721761 -56.111499 -27.567998
6255 7 1 -60.376290 -55.349195 -27.020693
6256 7 1 -59.799217 -54.538209 -27.117071
6257 7 1 -59.411703 -54.528310 -26.195261
6258 7 1 -59.369370 -54.655913 -25.204339
6259 7 1 -58.916983 -55.237480 -25.880451
6260 7 1 -58.305854 -56.028466 -25.851090
6261 7 1 -58.175897 -56.982868 -25.582337
6262 7 1 -57.710284 -57.668032 -25.022200
6263 7 1 -57.398300 -58.176058 -24.219345
6264 7 1 -57.250348 -58.366177 -23.248796
6265 7 1 -57.114454 -57.461524 -22.844893
6266 7 1 -56.861594 -56.497814 -22.930478
6267 7 1 -57.219234 -55.838717 -22.268902
6268 7 1 -56.310880 -56.254372 -22.222811
6269 7 1 -55.444285 -56.202211 -22.719089
6270 7 1 -54.756447 -56.566942 -23.346663
6271 7 1 -54.236843 -56.540351 -22.492670
6272 7 1 -53.950025 -57.030360 -21.669489
6273 7 1 -54.892807 -56.931394 -21.351107
6274 7 1 -55.419429 -57.020789 -20.505721
6275 7 1 -56.368206 -57.328054 -20.432157
6276 7 1 -56.412742 -58.138742 -19.848376
6277 7 1 -57.282583 -58.114869 -19.355622
6278 7 1 -56.604338 -57.609168 -18.822471
6279 7 1 -55.953213 -58.272392 -18.453459
6280 7 1 -55.253088 -58.491157 -17.773777
6281 7 1 -55.061041 -58.371116 -16.799760
6282 7 1 -55.752396 -59.062345 -17.010071
6283 7 1 -56.172016 -59.512322 -16.221756
6284 7 1 -56.736395 -58.791602 -16.624298
6285 7 1 -55.816900 -58.773880 -16.231597
6286 7 1 -54.878714 -58.855736 -15.895283
6287 7 1 -55.576827 -58.844654 -15.179381
6288 7 1 -55.634719 -57.922261 -14.797492
6289 7 1 -54.695311 -57.623416 -14.965434
6290 7 1 -54.707504 -57.832957 -15.943158
6291 7 1 -53.801833 -57.945581 -16.351908
6292 7 1 -53.979600 -58.146705 -15.388607
6293 7 1 -53.016577 -57.879035 -15.357958
6294 7 1 -52.789172 -58.851617 -15.309252
6295 7 1 -52.596956 -59.530502 -14.600615
6296 7 1 -51.746758 -59.103857 -14.292171
6297 7 1 -52.082336 -59.323414 -15.208240
6298 7 1 -51.184521 -59.680568 -14.950620
6299 7 1 -50.685129 -59.022233 -15.513828
6300 7 1 -51.429074 -58.881453 -16.167073
6301 7 1 -51.351728 -59.559204 -16.898285
6302 7 1 -51.637212 -59.806022 -15.972229
6303 7 1 -50.670884 -59.756869 -16.224804
6304 7 1 -49.920149 -60.414134 -16.158474
6305 7 1 -48.983107 -60.451024 -16.505737
6306 7 1 -48.188260 -59.860505 -16.366081
6307 7 1 -48.313037 -59.226442 -17.129229
6308 7 1 -49.286815 -59.336498 -16.930119
6309 7 1 -49.086149 -58.396191 -17.204993
6310 7 1 -48.684631 -58.504530 -16.295572
6311 7 1 -49.668950 -58.343235 -16.366995
6312 7 1 -50.161746 -57.541431 -16.028969
6313 7 1 -50.667138 -56.710634 -16.262110
6314 7 1 -50.510431 -56.038786 -16.986032
6315 7 1 -49.740669 -55.737440 -17.548756
6316 7 1 -48.771366 -55.921488 -17.385728
6317 7 1 -48.474609 -54.990208 -17.597041
6318 7 1 -48.191883 -55.096288 -18.550358
6319 7 1 -47.968961 -54.872675 -19.499201
6320 7 1 -48.867351 -54.446886 -19.391504
6321 7 1 -49.426952 -53.867805 -18.798620
6322 7 1 -48.457864 -53.655227 -18.673403
6323 7 1 -47.462270 -53.561963 -18.663732
6324 7 1 -47.116478 -52.834596 -19.256492
6325 7 1 -46.349646 -52.519492 -19.815668
6326 7 1 -46.993175 -52.881546 -20.490046
6327 7 1 -47.687548 -53.548695 -20.759786
6328 7 1 -48.172610 -53.666970 -19.893342
6329 7 1 -47.405722 -54.008854 -19.350206
6330 7 1 -47.049555 -54.209656 -20.262798
6331 7 1 -46.732899 -53.610172 -20.997882
6332 7 1 -46.361956 -54.501452 -20.737071
6333 7 1 -46.744065 -54.804449 -21.610103
6334 7 1 -45.964392 -54.264884 -21.927877
6335 7 1 -45.238407 -54.727861 -21.419352
6336 7 1 -44.676558 -54.023577 -20.985404
6337 7 1 -44.243720 -53.152844 -20.752007
6338 7 1 -43.316808 -53.527438 -20.729385
6339 7 1 -43.532909 -52.745456 -20.144745
6340 7 1 -43.045679 -52.538615 -20.993170
6341 7 1 -43.722347 -52.075710 -21.565743
6342 7 1 -43.311301 -51.176564 -21.415485
6343 7 1 -42.669304 -51.663805 -20.823509
6344 7 1 -42.861880 -50.683080 -20.856559
6345 7 1 -42.245922 -51.002516 -20.136450
6346 7 1 -43.090536 -51.489103 -19.913159
6347 7 1 -42.552445 -52.265615 -19.585306
6348 7 1 -42.641363 -53.245430 -19.406264
6349 7 1 -43.508062 -53.337855 -18.916070
6350 7 1 -44.422964 -53.596097 -19.226338
6351 7 1 -44.016049 -52.686490 -19.142464
6352 7 1 -44.402910 -51.800055 -18.888352
6353 7 1 -44.716766 -51.607074 -17.958700
6354 7 1 -45.175229 -52.460670 -18.206058
6355 7 1 -44.571347 -53.128072 -17.770282
6356 7 1 -45.288673 -53.430364 -17.142538
6357 7 1 -45.455222 -53.767129 -16.215796
6358 7 1 -45.233436 -53.461395 -15.289871
6359 7 1 -44.878711 -52.618120 -15.693676
6360 7 1 -45.402594 -51.942186 -15.175353
6361 7 1 -45.416302 -51.005695 -14.824928
6362 7 1 -44.721539 -50.905885 -15.537208
6363 7 1 -44.540717 -50.776962 -16.512237
6364 7 1 -44.719694 -51.709531 -16.825739
6365 7 1 -45.536586 -52.235527 -16.589063
6366 7 1 -44.896071 -51.711967 -16.027258
6367 7 1 -44.344378 -51.578121 -15.204021
6368 7 1 -43.769528 -52.332235 -14.886435
6369 7 1 -44.641026 -52.821547 -14.919050
6370 7 1 -44.458826 -53.671423 -14.424566
6371 7 1 -43.840534 -54.274328 -14.928770
6372 7 1 -43.798574 -53.290243 -15.101443
6373 7 1 -43.935080 -52.670478 -15.874267
6374 7 1 -43.310525 -52.689478 -16.655017
6375 7 1 -43.830847 -51.950763 -17.083460
6376 7 1 -43.311938 -51.126155 -17.308751
6377 7 1 -43.276661 -50.127041 -17.285809
6378 7 1 -43.098423 -49.644394 -16.428322
6379 7 1 -42.145551 -49.788431 -16.161322
6380 7 1 -42.410116 -50.613217 -15.661588
6381 7 1 -41.509790 -50.207421 -15.504290
6382 7 1 -41.166470 -49.462659 -14.932048
6383 7 1 -41.455612 -50.305776 -14.478672
6384 7 1 -41.046977 -50.807821 -13.716460
6385 7 1 -41.950768 -51.194286 -13.532591
6386 7 1 -41.985494 -51.052135 -14.521827
6387 7 1 -41.027935 -51.265308 -14.715830
6388 7 1 -40.207560 -50.770318 -14.429525
6389 7 1 -39.317481 -51.154571 -14.674696
6390 7 1 -38.898900 -51.727213 -13.969805
6391 7 1 -38.287550 -52.493523 -14.167339
6392 7 1 -38.784749 -52.035654 -14.904325
6393 7 1 -37.908723 -51.651116 -14.613275
6394 7 1 -36.956795 -51.360964 -14.711482
6395 7 1 -36.395480 -50.873824 -15.380526
6396 7 1 -36.766484 -50.409791 -16.184908
6397 7 1 -36.403906 -51.327442 -16.347555
6398 7 1 -37.346305 -51.028581 -16.497777
6399 7 1 -37.144429 -51.917484 -16.908992
6400 7 1 -37.423373 -51.402271 -17.719391
6401 7 1 -36.707270 -51.080772 -18.338935
6402 7 1 -36.284426 -51.158774 -19.241774
6403 7 1 -35.305530 -50.967725 -19.314323
6404 7 1 -35.857108 -51.224153 -18.520593
6405 7 1 -36.071876 -51.307401 -17.547482
6406 7 1 -35.465188 -51.942512 -18.025566
6407 7 1 -34.603310 -51.845788 -17.527761
6408 7 1 -35.079468 -52.141903 -16.699758
6409 7 1 -35.381294 -52.562962 -15.844415
6410 7 1 -34.934581 -52.944399 -15.035123
6411 7 1 -34.241580 -53.180283 -14.353868
6412 7 1 -33.933265 -53.899442 -14.976565
6413 7 1 -34.090099 -54.686061 -15.573753
6414 7 1 -33.542090 -55.415470 -15.983202
6415 7 1 -33.719325 -56.292608 -16.429540
6416 7 1 -32.775065 -56.619506 -16.468395
6417 7 1 -32.408234 -57.022064 -17.307074
6418 7 1 -31.745452 -57.112891 -18.050358
6419 7 1 -30.874164 -57.367907 -18.469671
6420 7 1 -31.210040 -57.863837 -17.668896
6421 7 1 -30.882526 -58.364480 -16.867590
6422 7 1 -31.729936 -58.285302 -16.342587
6423 7 1 -31.619924 -57.348999 -16.676105
6424 7 1 -31.940611 -56.478632 -16.302445
6425 7 1 -32.488905 -55.703043 -15.989658
6426 7 1 -32.645456 -56.129051 -15.098587
6427 7 1 -32.781833 -57.071961 -15.402431
6428 7 1 -31.791752 -57.182298 -15.315443
6429 7 1 -31.914819 -57.809328 -14.546231
6430 7 1 -31.148014 -58.446236 -14.466496
6431 7 1 -31.235430 -59.060036 -15.251103
6432 7 1 -30.461799 -58.449717 -15.421417
6433 7 1 -29.940536 -57.811711 -15.988190
6434 7 1 -30.128419 -57.627666 -15.023396
6435 7 1 -29.328103 -57.161117 -15.399994
6436 7 1 -28.622125 -57.832123 -15.173394
6437 7 1 -29.349873 -57.660147 -14.509461
6438 7 1 -28.779515 -57.147839 -13.867408
6439 7 1 -29.715737 -57.233832 -13.526682
6440 7 1 -29.086516 -57.864631 -13.072617
6441 7 1 -28.431885 -57.195843 -12.720223
6442 7 1 -29.313196 -57.223135 -12.248476
6443 7 1 -29.970464 -56.476292 -12.147358
6444 7 1 -29.279428 -55.776894 -12.329876
6445 7 1 -28.286711 -55.768201 -12.209726
6446 7 1 -28.882028 -56.489249 -11.855202
6447 7 1 -29.129337 -57.271218 -11.283046
6448 7 1 -29.099923 -56.698065 -10.464126
6449 7 1 -29.634214 -57.507573 -10.707498
6450 7 1 -29.945690 -57.712202 -9.779538
6451 7 1 -29.981895 -56.844829 -9.283198
6452 7 1 -30.252078 -56.850842 -10.245988
6453 7 1 -30.766387 -56.999517 -11.090608
6454 7 1 -30.988382 -57.478989 -10.241594
6455 7 1 -30.767177 -57.146567 -9.324771
6456 7 1 -31.645644 -57.140858 -9.802541
6457 7 1 -31.106317 -57.952883 -9.579514
6458 7 1 -31.690218 -58.455188 -10.217284
6459 7 1 -31.649459 -58.928822 -9.337505
6460 7 1 -32.232177 -58.117985 -9.282884
6461 7 1 -32.641979 -57.205873 -9.293619
6462 7 1 -33.509514 -57.530890 -8.917127
6463 7 1 -33.879197 -56.721788 -8.460302
6464 7 1 -34.395276 -55.959439 -8.850796
6465 7 1 -33.847314 -55.968523 -9.687250
6466 7 1 -34.285543 -55.130648 -10.012704
6467 7 1 -34.961266 -55.282249 -9.291307
6468 7 1 -35.359497 -56.032403 -9.819209
6469 7 1 -35.803241 -55.724936 -10.660966
6470 7 1 -35.604671 -56.702079 -10.585058
6471 7 1 -34.783407 -56.204926 -10.864995
6472 7 1 -34.561928 -56.832628 -11.611277
6473 7 1 -34.229830 -57.005983 -12.538455
6474 7 1 -34.345225 -57.900424 -12.970498
6475 7 1 -34.485939 -58.887235 -13.050517
6476 7 1 -34.369916 -58.732353 -14.031613
6477 7 1 -34.764292 -57.816537 -13.955798
6478 7 1 -34.952489 -56.901426 -13.599213
6479 7 1 -35.579453 -56.557367 -14.298169
6480 7 1 -34.670196 -56.924273 -14.494718
6481 7 1 -34.324248 -56.007942 -14.696357
6482 7 1 -33.492799 -55.462432 -14.590956
6483 7 1 -33.392983 -54.487981 -14.792160
6484 7 1 -32.711912 -53.766427 -14.667653
6485 7 1 -31.870893 -54.038128 -14.199823
6486 7 1 -31.574121 -54.294088 -15.119828
6487 7 1 -31.174670 -55.189027 -14.921024
6488 7 1 -31.060688 -55.428774 -13.956903
6489 7 1 -32.013876 -55.443322 -13.654875
6490 7 1 -32.336341 -54.711069 -13.055023
6491 7 1 -32.881012 -54.245805 -13.752780
6492 7 1 -32.320145 -53.569398 -13.275388
6493 7 1 -33.035292 -54.172859 -12.922684
6494 7 1 -33.073293 -54.858734 -12.195957
6495 7 1 -33.016445 -55.420259 -11.370453
6496 7 1 -32.289129 -55.524962 -12.048721
6497 7 1 -31.412314 -55.609723 -12.522020
6498 7 1 -31.106172 -56.397332 -13.056762
6499 7 1 -31.434886 -56.326834 -13.998556
6500 7 1 -32.022405 -56.559517 -14.773592
6501 7 1 -32.881956 -56.968460 -14.467100
6502 7 1 -32.106134 -57.006495 -13.837295
6503 7 1 -32.883265 -56.766589 -13.255475
6504 7 1 -32.857149 -57.103947 -12.314461
6505 7 1 -31.965727 -57.404786 -12.653377
6506 7 1 -31.209172 -57.511743 -12.008254
6507 7 1 -30.589259 -58.256397 -11.760872
6508 7 1 -30.056213 -57.598026 -12.292294
6509 7 1 -30.207019 -58.428620 -12.828364
6510 7 1 -29.760875 -58.414959 -13.723220
6511 7 1 -29.974229 -59.300582 -14.135715
6512 7 1 -29.891609 -60.117720 -13.565224
6513 7 1 -29.583156 -61.038979 -13.328289
6514 7 1 -29.199652 -61.803904 -12.810780
6515 7 1 -29.010900 -62.080728 -11.868580
6516 7 1 -30.001657 -62.044865 -11.737766
6517 7 1 -30.976207 -61.828206 -11.795316
6518 7 1 -31.509463 -61.070556 -11.419012
6519 7 1 -31.926221 -61.020884 -12.326672
6520 7 1 -32.603988 -61.624588 -11.906942
6521 7 1 -32.300412 -62.314294 -12.564321
6522 7 1 -32.353576 -61.594702 -13.256680
6523 7 1 -33.186803 -61.205666 -13.649596
6524 7 1 -33.196588 -60.614383 -14.456001
6525 7 1 -33.395547 -61.116924 -15.297350
6526 7 1 -33.876966 -61.767170 -14.709629
6527 7 1 -33.868924 -61.957499 -15.691317
6528 7 1 -33.978821 -60.991455 -15.925156
6529 7 1 -33.608717 -60.557528 -16.746576
6530 7 1 -33.950186 -60.182876 -15.884581
6531 7 1 -33.869783 -59.425243 -16.532291
6532 7 1 -34.185916 -58.973380 -17.366485
6533 7 1 -33.453057 -59.320339 -17.951751
6534 7 1 -33.747365 -58.599317 -18.579055
6535 7 1 -33.609019 -57.852379 -17.928714
6536 7 1 -33.197657 -57.233414 -18.597791
6537 7 1 -34.028239 -56.691393 -18.469935
6538 7 1 -33.939684 -55.769702 -18.847618
6539 7 1 -34.644105 -55.158272 -19.208096
6540 7 1 -34.378093 -54.778013 -20.093896
6541 7 1 -34.593967 -54.246759 -19.274648
6542 7 1 -35.374126 -53.653922 -19.074912
6543 7 1 -35.261991 -52.981685 -18.343117
6544 7 1 -35.882523 -52.253463 -18.634033
6545 7 1 -34.950477 -51.954313 -18.838483
6546 7 1 -34.163986 -51.801037 -18.240204
6547 7 1 -33.500953 -52.282700 -17.667153
6548 7 1 -32.704308 -52.122886 -18.250091
6549 7 1 -32.915311 -51.365294 -18.867773
6550 7 1 -32.470890 -50.514169 -19.147194
6551 7 1 -31.614395 -50.084682 -19.433476
6552 7 1 -32.228333 -50.479896 -20.116766
6553 7 1 -31.857838 -49.592680 -20.391686
6554 7 1 -31.680519 -49.198916 -21.293633
6555 7 1 -31.206907 -48.850298 -22.102432
6556 7 1 -30.735218 -49.337160 -21.367262
6557 7 1 -31.109843 -50.006388 -22.008971
6558 7 1 -31.195180 -50.516965 -22.864557
6559 7 1 -31.449699 -51.015976 -22.036181
6560 7 1 -30.620590 -51.277218 -22.530479
6561 7 1 -30.087135 -51.973112 -22.049691
6562 7 1 -30.788307 -51.719912 -21.383172
6563 7 1 -31.166077 -52.607927 -21.645315
6564 7 1 -32.034842 -52.358021 -22.072859
6565 7 1 -31.572155 -52.565684 -22.934715
6566 7 1 -32.198095 -53.308699 -23.171627
6567 7 1 -32.222940 -53.366419 -24.169651
6568 7 1 -32.372016 -54.354114 -24.122389
6569 7 1 -32.011800 -55.011032 -23.460042
6570 7 1 -31.233130 -55.414651 -23.940422
6571 7 1 -30.841957 -56.325742 -24.070409
6572 7 1 -31.047622 -57.128275 -24.630447
6573 7 1 -30.103878 -57.360713 -24.395250
6574 7 1 -30.006276 -56.393202 -24.162021
6575 7 1 -30.328426 -56.781507 -23.298633
6576 7 1 -30.807816 -57.586214 -23.648822
6577 7 1 -31.711750 -57.937917 -23.405495
6578 7 1 -31.229560 -57.675759 -22.569572
6579 7 1 -31.225399 -58.675738 -22.564571
6580 7 1 -31.519354 -58.180240 -21.747214
6581 7 1 -31.848122 -58.113019 -20.805199
6582 7 1 -32.783582 -58.185997 -21.151016
6583 7 1 -32.460599 -58.633417 -20.317051
6584 7 1 -31.658867 -58.891783 -19.778095
6585 7 1 -32.219915 -58.099465 -19.538395
6586 7 1 -31.525729 -57.386420 -19.440048
6587 7 1 -32.083510 -56.581651 -19.643091
6588 7 1 -32.376769 -56.094022 -18.820767
6589 7 1 -31.913439 -55.358221 -18.326882
6590 7 1 -31.643370 -55.067517 -19.244790
6591 7 1 -31.399759 -54.160986 -19.589542
6592 7 1 -31.879634 -54.360503 -18.735193
6593 7 1 -32.826556 -54.115780 -18.526749
6594 7 1 -33.581346 -54.660773 -18.891818
6595 7 1 -33.544627 -53.950229 -18.189123
6596 7 1 -34.498567 -53.779107 -17.942716
6597 7 1 -34.430912 -53.356932 -18.846702
6598 7 1 -33.688399 -52.982815 -18.291085
6599 7 1 -33.168982 -53.357826 -17.523249
6600 7 1 -32.433096 -54.031209 -17.452347
6601 7 1 -31.688927 -54.681994 -17.602989
6602 7 1 -31.327986 -53.858835 -18.041315
6603 7 1 -30.692222 -54.574503 -18.330493
6604 7 1 -29.711514 -54.390079 -18.265678
6605 7 1 -30.211736 -54.069308 -19.069969
6606 7 1 -30.152482 -55.067150 -19.098269
6607 7 1 -30.887129 -55.202077 -19.763166
6608 7 1 -30.701429 -55.363615 -20.732403
6609 7 1 -30.505330 -55.360371 -21.712982
6610 7 1 -31.008221 -54.541637 -21.990069
6611 7 1 -30.194786 -54.955001 -22.399281
6612 7 1 -29.371069 -55.140555 -22.935061
6613 7 1 -29.234240 -54.274507 -23.415934
6614 7 1 -28.314260 -54.143833 -23.785475
6615 7 1 -28.410566 -54.764656 -24.563488
6616 7 1 -27.699214 -55.064199 -23.927680
6617 7 1 -26.897466 -55.540260 -24.289019
6618 7 1 -26.272126 -56.237278 -24.639900
6619 7 1 -25.840175 -55.869047 -23.816600
6620 7 1 -26.575617 -56.413777 -23.413620
6621 7 1 -25.666938 -56.830061 -23.381842
6622 7 1 -26.429398 -57.153461 -23.942259
6623 7 1 -26.519319 -58.128502 -23.739256
6624 7 1 -27.093206 -58.915880 -23.514115
6625 7 1 -27.557451 -58.447081 -24.265583
6626 7 1 -26.757054 -57.950366 -24.601199
6627 7 1 -26.607040 -58.934574 -24.507226
6628 7 1 -27.259582 -59.507435 -25.003230
6629 7 1 -28.224921 -59.761266 -25.063977
6630 7 1 -28.796976 -59.855014 -25.878816
6631 7 1 -28.138031 -59.121220 -26.044157
6632 7 1 -28.866779 -58.561550 -25.649574
6633 7 1 -28.694415 -59.132323 -24.846761
6634 7 1 -28.937651 -60.031644 -24.483363
6635 7 1 -28.658798 -59.615394 -23.617929
6636 7 1 -28.106911 -58.781834 -23.593472
6637 7 1 -27.746702 -58.680894 -22.666078
6638 7 1 -27.999114 -57.894093 -23.229312
6639 7 1 -28.005300 -56.947560 -22.906762
6640 7 1 -27.479110 -56.380234 -22.273307
6641 7 1 -27.580401 -57.206300 -21.718910
6642 7 1 -26.680386 -57.548166 -21.989279
6643 7 1 -26.018108 -58.070187 -22.526756
6644 7 1 -26.936586 -58.032306 -22.920409
6645 7 1 -26.969004 -58.993366 -22.645977
6646 7 1 -26.519845 -59.725915 -22.134482
6647 7 1 -26.019731 -60.450878 -22.608102
6648 7 1 -25.539948 -59.685687 -22.178811
6649 7 1 -25.449502 -58.696864 -22.297333
6650 7 1 -25.291062 -57.978252 -21.620211
6651 7 1 -25.158307 -57.171893 -21.043876
6652 7 1 -25.363843 -56.620284 -21.852259
6653 7 1 -25.343770 -57.331489 -22.554956
6654 7 1 -24.825153 -56.612966 -23.018380
6655 7 1 -24.321748 -55.755325 -23.123423
6656 7 1 -24.356964 -55.470356 -22.165533
6657 7 1 -23.725807 -55.098257 -22.846108
6658 7 1 -24.558880 -54.624640 -23.131898
6659 7 1 -24.089575 -53.754596 -22.980978
6660 7 1 -23.144080 -53.997336 -23.198046
6661 7 1 -23.275782 -53.234483 -23.831062
6662 7 1 -23.667624 -53.695660 -24.627162
6663 7 1 -24.623239 -53.935304 -24.798544
6664 7 1 -25.016702 -53.533471 -25.625416
6665 7 1 -25.393278 -54.157858 -24.941068
6666 7 1 -26.161652 -53.537471 -25.098301
6667 7 1 -26.916672 -53.350034 -24.469960
6668 7 1 -27.124505 -52.916497 -23.593119
6669 7 1 -27.602427 -53.794656 -23.613770
6670 7 1 -27.157628 -53.497097 -22.769013
6671 7 1 -26.216676 -53.248335 -22.539392
6672 7 1 -25.667589 -54.065427 -22.363715
6673 7 1 -26.324693 -54.818784 -22.389563
6674 7 1 -26.827467 -54.347806 -21.664720
6675 7 1 -25.918030 -54.762287 -21.631105
6676 7 1 -26.152406 -55.641306 -21.215902
6677 7 1 -26.404918 -55.685632 -22.182480
6678 7 1 -26.418158 -56.671964 -22.018246
6679 7 1 -25.879274 -56.149404 -22.678954
6680 7 1 -25.382215 -55.687926 -21.944127
6681 7 1 -24.994289 -55.394055 -21.070541
6682 7 1 -24.099952 -55.478271 -20.631144
6683 7 1 -23.858750 -54.843532 -21.365261
6684 7 1 -24.572393 -54.608527 -22.025175
6685 7 1 -24.885179 -54.355847 -21.109578
6686 7 1 -24.296748 -53.912176 -20.433631
6687 7 1 -24.822881 -54.422010 -19.753004
6688 7 1 -25.652690 -54.460898 -19.196313
6689 7 1 -25.035715 -55.246676 -19.152801
6690 7 1 -24.448328 -55.596521 -19.882585
6691 7 1 -23.696611 -54.983823 -19.638613
6692 7 1 -24.073920 -54.821277 -18.726902
6693 7 1 -23.381873 -55.148003 -18.083224
6694 7 1 -23.071513 -54.976948 -19.018326
6695 7 1 -22.401499 -55.598215 -19.424660
6696 7 1 -22.487066 -56.566067 -19.661181
6697 7 1 -22.743637 -56.938208 -20.553191
6698 7 1 -23.070294 -57.868873 -20.388393
6699 7 1 -22.084015 -57.932573 -20.236092
6700 7 1 -21.717096 -57.029576 -20.012560
6701 7 1 -22.077454 -57.397114 -19.155205
6702 7 1 -22.389232 -58.017843 -18.435837
6703 7 1 -21.951441 -58.771556 -18.925996
6704 7 1 -21.975762 -59.701480 -18.559050
6705 7 1 -22.973672 -59.674539 -18.500321
6706 7 1 -23.039996 -58.831345 -17.966819
6707 7 1 -22.253751 -58.418109 -17.507412
6708 7 1 -23.224776 -58.203308 -17.402667
6709 7 1 -23.666584 -58.414303 -18.274611
6710 7 1 -24.158393 -59.260201 -18.480964
6711 7 1 -24.815820 -59.127469 -19.222699
6712 7 1 -24.829560 -59.058238 -20.220205
6713 7 1 -24.126170 -59.766368 -20.281799
6714 7 1 -24.540003 -59.505378 -21.153938
6715 7 1 -23.798615 -60.175731 -21.122780
6716 7 1 -23.112888 -60.139513 -20.395823
6717 7 1 -23.148614 -59.182605 -20.684008
6718 7 1 -23.891830 -58.522274 -20.576338
6719 7 1 -23.142978 -58.316948 -21.206466
6720 7 1 -23.923321 -57.759057 -21.488997
6721 7 1 -23.246837 -57.993035 -22.187298
6722 7 1 -23.029989 -57.538948 -23.051463
6723 7 1 -23.709879 -58.053083 -23.574354
6724 7 1 -23.613892 -58.769358 -22.883168
6725 7 1 -22.877348 -58.648969 -23.548758
6726 7 1 -22.423800 -59.444981 -23.147935
6727 7 1 -22.632873 -59.386280 -22.171799
6728 7 1 -21.672388 -59.607524 -22.002919
6729 7 1 -21.266952 -59.173582 -22.807478
6730 7 1 -21.828562 -58.448315 -23.205702
6731 7 1 -21.491504 -57.538856 -23.449170
6732 7 1 -20.767593 -58.161086 -23.747135
6733 7 1 -20.204445 -57.478362 -24.212703
6734 7 1 -20.757160 -56.955081 -23.564102
6735 7 1 -21.531936 -56.514842 -23.110327
6736 7 1 -21.908726 -55.593944 -23.010444
6737 7 1 -21.608600 -55.077856 -23.812676
6738 7 1 -21.074245 -54.542638 -24.466899
6739 7 1 -20.369486 -54.147158 -23.877908
6740 7 1 -20.272153 -53.174898 -24.090597
6741 7 1 -19.836562 -53.928368 -24.583083
6742 7 1 -20.077848 -54.096212 -25.538912
6743 7 1 -20.623683 -54.826504 -25.128135
6744 7 1 -20.272581 -55.633627 -24.653499
6745 7 1 -20.944984 -56.038265 -24.033706
6746 7 1 -21.105773 -55.631587 -23.134395
6747 7 1 -20.384389 -55.722587 -22.447864
6748 7 1 -19.926153 -55.712487 -21.559091
6749 7 1 -20.815947 -55.725045 -21.102900
6750 7 1 -20.539533 -56.644273 -20.822515
6751 7 1 -20.431378 -57.213242 -20.007299
6752 7 1 -20.738221 -58.112500 -19.695559
6753 7 1 -21.329103 -58.710667 -20.236905
6754 7 1 -22.135595 -59.041930 -19.747176
6755 7 1 -21.991640 -59.217389 -20.721081
6756 7 1 -22.726729 -59.796112 -21.074243
6757 7 1 -22.413542 -60.552203 -21.648908
6758 7 1 -23.318025 -60.203435 -21.894411
6759 7 1 -23.532399 -59.648047 -22.697896
6760 7 1 -24.347289 -59.431538 -22.160237
6761 7 1 -24.297376 -58.433696 -22.117562
6762 7 1 -23.829037 -59.020052 -21.456619
6763 7 1 -24.669145 -58.710618 -21.011121
6764 7 1 -25.650913 -58.630036 -20.838960
6765 7 1 -26.162908 -57.819140 -20.555574
6766 7 1 -25.892023 -57.287483 -21.358046
6767 7 1 -25.652923 -57.128356 -20.400179
6768 7 1 -24.984986 -57.867731 -20.484954
6769 7 1 -24.244325 -57.220536 -20.665397
6770 7 1 -23.712011 -57.419911 -19.842663
6771 7 1 -24.595969 -57.532615 -19.388884
6772 7 1 -24.314224 -58.286424 -18.795257
6773 7 1 -25.096063 -58.370504 -18.177472
6774 7 1 -24.955099 -59.356183 -18.270024
6775 7 1 -25.864173 -59.772790 -18.265186
6776 7 1 -26.845600 -59.753932 -18.456095
6777 7 1 -27.015080 -59.595948 -17.483306
6778 7 1 -27.620279 -59.020842 -18.033749
6779 7 1 -26.826946 -58.496129 -17.725043
6780 7 1 -26.610300 -57.542203 -17.932621
6781 7 1 -26.971599 -56.825281 -18.528848
6782 7 1 -26.035806 -57.176644 -18.557769
6783 7 1 -25.808153 -57.188502 -19.531440
6784 7 1 -26.649138 -57.561797 -19.139782
6785 7 1 -27.193209 -57.744880 -19.958603
6786 7 1 -27.307574 -58.013107 -19.002060
6787 7 1 -26.568800 -58.493735 -18.529608
6788 7 1 -26.109864 -58.793720 -19.365901
6789 7 1 -25.779620 -58.090839 -18.735903
6790 7 1 -24.901334 -57.635403 -18.590329
6791 7 1 -25.017691 -56.665336 -18.377181
6792 7 1 -24.745595 -56.718550 -17.416383
6793 7 1 -24.377436 -55.820076 -17.655552
6794 7 1 -23.725454 -56.397351 -18.147155
6795 7 1 -23.928566 -56.347763 -19.125054
6796 7 1 -23.528761 -57.255599 -18.998599
6797 7 1 -24.094683 -57.261899 -18.174165
6798 7 1 -23.122188 -57.178260 -17.956778
6799 7 1 -22.498186 -57.037251 -17.188183
6800 7 1 -22.497495 -56.044440 -17.068488
6801 7 1 -21.726429 -55.926221 -16.442804
6802 7 1 -20.869221 -56.279455 -16.068076
6803 7 1 -20.432684 -55.415548 -15.816880
6804 7 1 -20.177613 -54.663445 -16.424565
6805 7 1 -21.163560 -54.590333 -16.574776
6806 7 1 -21.172374 -55.136238 -17.412577
6807 7 1 -20.253275 -55.518758 -17.507100
6808 7 1 -19.714434 -56.356436 -17.417955
6809 7 1 -19.913055 -56.522241 -18.383904
6810 7 1 -19.981489 -57.413849 -18.831512
6811 7 1 -20.037425 -58.332973 -18.441534
6812 7 1 -20.137278 -57.440781 -18.001054
6813 7 1 -19.382224 -57.466465 -17.345894
6814 7 1 -20.055695 -58.205028 -17.376881
6815 7 1 -20.994258 -57.980572 -17.114737
6816 7 1 -20.625689 -58.889840 -17.308098
6817 7 1 -20.988040 -59.051535 -18.226007
6818 7 1 -21.125528 -58.513913 -19.057909
6819 7 1 -21.283491 -57.561732 -18.796376
6820 7 1 -21.183360 -58.249547 -18.077430
6821 7 1 -21.857794 -57.623937 -17.685318
6822 7 1 -21.890615 -57.957910 -16.743307
6823 7 1 -21.523343 -57.686247 -15.853750
6824 7 1 -21.652036 -56.971943 -16.541652
6825 7 1 -21.065635 -56.758949 -17.323168
6826 7 1 -20.259477 -57.278374 -17.039785
6827 7 1 -20.215034 -56.326702 -16.735903
6828 7 1 -19.699578 -55.474400 -16.647100
6829 7 1 -18.878594 -55.547537 -17.213347
6830 7 1 -18.281272 -55.544731 -16.411351
6831 7 1 -18.847627 -55.903776 -15.669509
6832 7 1 -18.029266 -56.249328 -15.210293
6833 7 1 -17.492672 -55.429908 -15.411831
6834 7 1 -17.071801 -55.894302 -16.191065
6835 7 1 -16.625441 -56.186604 -17.036832
6836 7 1 -16.021727 -56.901843 -17.388917
6837 7 1 -16.924860 -57.087526 -17.776051
6838 7 1 -16.982709 -56.374469 -18.474767
6839 7 1 -17.931656 -56.353989 -18.789538
6840 7 1 -17.318946 -56.522815 -19.561603
6841 7 1 -16.738364 -55.729627 -19.377820
6842 7 1 -16.198053 -55.420676 -18.595123
6843 7 1 -15.648378 -56.040921 -19.154724
6844 7 1 -14.905377 -55.376160 -19.076992
6845 7 1 -14.928831 -56.366079 -18.937312
6846 7 1 -14.211039 -57.003009 -19.218551
6847 7 1 -14.159191 -57.299734 -18.264997
6848 7 1 -14.933847 -57.172079 -17.645632
6849 7 1 -14.994658 -57.229732 -16.649149
6850 7 1 -14.654625 -57.780494 -15.886890
6851 7 1 -14.417321 -58.295952 -16.710291
6852 7 1 -14.970051 -59.008077 -17.143151
6853 7 1 -14.976194 -59.953812 -17.468030
6854 7 1 -15.913709 -60.301285 -17.486142
6855 7 1 -16.408934 -59.915297 -18.264451
6856 7 1 -17.060441 -60.505183 -17.787405
6857 7 1 -18.044753 -60.642509 -17.898181
6858 7 1 -19.032791 -60.567227 -18.032766
6859 7 1 -19.004911 -59.863218 -17.323123
6860 7 1 -19.664788 -59.244802 -16.896364
6861 7 1 -19.643109 -59.869472 -16.115776
6862 7 1 -19.177281 -60.021360 -15.244034
6863 7 1 -18.799751 -59.311946 -15.839183
6864 7 1 -19.263970 -58.470602 -15.562341
6865 7 1 -18.957126 -59.134194 -14.880072
6866 7 1 -19.025231 -58.586424 -14.046220
6867 7 1 -18.212705 -58.727581 -13.480644
6868 7 1 -17.982736 -59.064535 -14.393648
6869 7 1 -17.326427 -59.806921 -14.528265
6870 7 1 -17.161413 -60.790338 -14.603516
6871 7 1 -16.374437 -61.096250 -15.139320
6872 7 1 -16.847616 -61.956100 -15.331049
6873 7 1 -16.657271 -62.169405 -14.372785
6874 7 1 -16.470838 -61.971593 -13.410437
6875 7 1 -17.084818 -61.525112 -12.759527
6876 7 1 -18.058755 -61.441236 -12.548790
6877 7 1 -18.731659 -61.502110 -13.286011
6878 7 1 -18.667213 -62.383535 -13.753918
6879 7 1 -17.700564 -62.538177 -13.549773
6880 7 1 -17.412781 -62.434683 -12.597686
6881 7 1 -18.332738 -62.348490 -12.215261
6882 7 1 -18.697019 -63.226251 -12.526443
6883 7 1 -18.000405 -63.900865 -12.282261
6884 7 1 -17.842761 -64.796931 -12.697246
6885 7 1 -16.982945 -64.442776 -12.329427
6886 7 1 -16.235219 -65.068734 -12.550972
6887 7 1 -15.753995 -64.349326 -13.051846
6888 7 1 -15.650252 -64.335758 -12.057335
6889 7 1 -15.429615 -65.183812 -12.539127
6890 7 1 -15.759548 -66.090650 -12.276848
6891 7 1 -15.196575 -65.939684 -11.464278
6892 7 1 -15.997964 -65.980293 -10.867514
6893 7 1 -16.764451 -66.296255 -10.308349
6894 7 1 -17.279255 -66.623430 -11.100772
6895 7 1 -17.604132 -66.669492 -10.156137
6896 7 1 -17.707014 -65.747149 -9.783717
6897 7 1 -17.900246 -66.478321 -9.129463
6898 7 1 -18.856025 -66.271332 -8.920557
6899 7 1 -19.024142 -67.126886 -9.410215
6900 7 1 -19.226774 -68.094370 -9.258841
6901 7 1 -19.839264 -68.796215 -8.895152
6902 7 1 -19.348263 -68.714683 -8.027816
6903 7 1 -19.706202 -68.538777 -7.110790
6904 7 1 -19.780046 -68.068065 -6.231599
6905 7 1 -19.647713 -68.751824 -5.513991
6906 7 1 -19.054069 -69.499607 -5.216658
6907 7 1 -19.931697 -69.876741 -4.920788
6908 7 1 -19.746217 -70.378574 -4.075944
6909 7 1 -20.068590 -71.121543 -4.662521
6910 7 1 -20.389467 -71.569554 -5.496982
6911 7 1 -19.849430 -72.029754 -6.201662
6912 7 1 -20.267063 -71.121438 -6.224997
6913 7 1 -19.894680 -70.468741 -5.565212
6914 7 1 -19.326522 -70.613499 -6.375299
6915 7 1 -18.861161 -70.829574 -7.233641
6916 7 1 -19.638231 -71.392591 -6.952263
6917 7 1 -19.797106 -72.108944 -7.631672
6918 7 1 -19.630325 -71.941136 -8.603281
6919 7 1 -18.765001 -72.364350 -8.334759
6920 7 1 -17.797132 -72.241672 -8.554255
6921 7 1 -18.323305 -71.406406 -8.713858
6922 7 1 -18.868596 -71.317303 -9.547356
6923 7 1 -19.863604 -71.227877 -9.503072
6924 7 1 -20.145768 -72.185502 -9.445290
6925 7 1 -19.770177 -71.703135 -10.236652
6926 7 1 -18.966464 -71.929030 -10.787121
6927 7 1 -19.667777 -71.299963 -11.122433
6928 7 1 -20.335528 -71.687834 -11.757779
6929 7 1 -19.778689 -71.723742 -12.587623
6930 7 1 -20.314691 -71.186904 -13.239165
6931 7 1 -19.558725 -70.873003 -13.813605
6932 7 1 -19.215608 -71.811669 -13.847898
6933 7 1 -19.615475 -72.699099 -14.077190
6934 7 1 -20.513401 -72.499994 -14.469728
6935 7 1 -21.090546 -73.313241 -14.395337
6936 7 1 -20.555738 -73.866685 -15.033835
6937 7 1 -20.377962 -73.708703 -16.005142
6938 7 1 -19.540474 -74.251851 -15.945094
6939 7 1 -19.274769 -75.048857 -16.487478
6940 7 1 -20.225717 -74.956735 -16.192163
6941 7 1 -21.081375 -74.512769 -16.458141
6942 7 1 -20.611027 -75.020076 -17.180231
6943 7 1 -20.257505 -75.067425 -18.114458
6944 7 1 -20.867831 -75.121341 -18.904772
6945 7 1 -21.322976 -74.418698 -18.357838
6946 7 1 -20.672556 -74.326217 -19.111762
6947 7 1 -20.885660 -73.368964 -19.307346
6948 7 1 -20.608077 -72.408898 -19.342298
6949 7 1 -21.228913 -71.655435 -19.125834
6950 7 1 -21.154600 -71.832903 -18.144517
6951 7 1 -20.872911 -72.099900 -17.222908
6952 7 1 -20.047534 -72.343712 -17.732131
6953 7 1 -19.471433 -73.161065 -17.738558
6954 7 1 -20.043224 -72.755578 -18.451744
6955 7 1 -20.994533 -72.766503 -18.143699
6956 7 1 -21.012231 -73.403175 -17.372768
6957 7 1 -20.287892 -74.062188 -17.170198
6958 7 1 -20.699088 -73.751477 -18.027155
6959 7 1 -21.667566 -73.502391 -18.024810
6960 7 1 -22.211332 -73.139643 -18.781601
6961 7 1 -21.813222 -73.497359 -19.626318
6962 7 1 -22.085202 -73.932292 -20.484724
6963 7 1 -22.168560 -74.792803 -20.987290
6964 7 1 -22.013731 -75.608025 -20.429221
6965 7 1 -22.541421 -75.949878 -19.651610
6966 7 1 -22.416940 -76.680875 -20.322540
6967 7 1 -23.221147 -76.624296 -20.914191
6968 7 1 -22.405842 -77.033877 -21.323484
6969 7 1 -21.711563 -77.302708 -21.991097
6970 7 1 -22.705100 -77.373436 -22.079882
6971 7 1 -22.056439 -78.124460 -21.956583
6972 7 1 -22.126059 -78.029462 -20.963543
6973 7 1 -21.342427 -77.586350 -20.528145
6974 7 1 -21.705009 -77.391869 -19.616711
6975 7 1 -22.535372 -77.645292 -20.112972
6976 7 1 -23.522832 -77.787226 -20.182078
6977 7 1 -23.011967 -78.602495 -20.454753
6978 7 1 -22.667628 -79.523096 -20.270568
6979 7 1 -22.516934 -78.903087 -21.040555
6980 7 1 -21.616418 -78.692971 -20.659868
6981 7 1 -21.202001 -79.321354 -21.318195
6982 7 1 -20.984227 -79.706511 -22.214982
6983 7 1 -20.965880 -79.929030 -23.189738
6984 7 1 -20.377204 -79.349507 -23.753310
6985 7 1 -19.997001 -80.011035 -23.106915
6986 7 1 -19.277249 -80.705196 -23.097049
6987 7 1 -20.192369 -81.100354 -23.177087
6988 7 1 -20.243433 -81.859390 -22.528044
6989 7 1 -19.624492 -81.096450 -22.341407
6990 7 1 -19.015631 -81.882260 -22.232821
6991 7 1 -19.278217 -82.740468 -21.791768
6992 7 1 -18.871178 -83.379456 -22.444465
6993 7 1 -18.638892 -82.446161 -22.718334
6994 7 1 -18.026323 -83.199526 -22.957501
6995 7 1 -17.528474 -82.365798 -22.718664
6996 7 1 -16.628373 -81.952486 -22.580856
6997 7 1 -17.356336 -81.413025 -23.004000
6998 7 1 -16.367828 -81.449021 -23.150820
6999 7 1 -16.540171 -80.474224 -23.009158
7000 7 1 -16.303203 -79.561295 -23.341431
7001 8 1 31.320051 -61.607170 32.546886
7002 8 1 31.723614 -60.765591 32.905886
7003 8 1 32.397163 -60.029074 32.843628
7004 8 1 33.196008 -60.629844 32.813254
7005 8 1 33.337320 -60.693338 31.825327
7006 8 1 34.197587 -61.019982 31.433864
7007 8 1 34.405741 -60.928250 32.407649
7008 8 1 34.933003 -60.328187 31.806052
7009 8 1 34.394726 -59.956993 32.562671
7010 8 1 35.319479 -59.680446 32.824115
7011 8 1 35.708949 -58.812183 32.516816
7012 8 1 36.186903 -59.521431 33.035013
7013 8 1 36.558568 -58.604609 32.889055
7014 8 1 35.687761 -58.643472 33.379140
7015 8 1 36.463598 -58.037382 33.554445
7016 8 1 37.443272 -58.159652 33.713470
7017 8 1 37.175574 -58.603897 34.568446
7018 8 1 37.792240 -58.981729 35.259074
7019 8 1 37.703771 -58.020632 35.520734
7020 8 1 38.205531 -57.299235 35.998042
7021 8 1 38.952930 -56.708588 35.693853
7022 8 1 38.630540 -56.869796 34.761074
7023 8 1 39.508589 -56.729634 34.303487
7024 8 1 38.839231 -56.040932 34.024832
7025 8 1 38.090041 -55.527536 34.443330
7026 8 1 39.044723 -55.259057 34.314869
7027 8 1 39.966586 -55.639696 34.242186
7028 8 1 40.345839 -54.827329 34.685160
7029 8 1 40.764159 -54.546713 35.549025
7030 8 1 41.583634 -55.053788 35.816113
7031 8 1 41.930771 -55.106184 36.752462
7032 8 1 42.716392 -54.820126 37.301070
7033 8 1 43.113860 -53.936564 37.548736
7034 8 1 43.026719 -54.603291 38.288926
7035 8 1 42.893034 -53.629950 38.475300
7036 8 1 42.215975 -52.894196 38.459277
7037 8 1 41.983227 -53.691648 39.015962
7038 8 1 42.060920 -54.572798 38.549552
7039 8 1 42.746132 -54.914397 39.192821
7040 8 1 43.480698 -54.278748 38.955412
7041 8 1 44.445077 -54.374976 39.201813
7042 8 1 44.850842 -55.288716 39.222647
7043 8 1 45.437530 -55.541769 38.453387
7044 8 1 44.988593 -55.070825 37.694000
7045 8 1 45.538663 -55.824783 37.334877
7046 8 1 46.087611 -56.495998 37.833000
7047 8 1 45.547521 -56.965252 37.134356
7048 8 1 44.916345 -57.608268 36.700596
7049 8 1 45.685938 -57.642454 36.062978
7050 8 1 46.307862 -56.922446 36.370873
7051 8 1 47.201810 -56.475047 36.344579
7052 8 1 46.577948 -56.121391 37.041518
7053 8 1 46.996706 -56.442221 37.891053
7054 8 1 47.206131 -55.618531 38.418003
7055 8 1 47.008762 -55.225563 37.519882
7056 8 1 47.617815 -54.449572 37.355894
7057 8 1 46.896427 -54.139609 37.975186
7058 8 1 46.275605 -54.421719 38.706619
7059 8 1 46.434825 -53.560619 39.189482
7060 8 1 46.219453 -53.644125 40.162437
7061 8 1 46.255212 -52.768096 39.681506
7062 8 1 45.353839 -53.200166 39.710525
7063 8 1 45.585092 -52.229568 39.643736
7064 8 1 46.286607 -51.998288 40.317818
7065 8 1 45.785066 -51.194311 40.637315
7066 8 1 45.719704 -51.843159 41.395420
7067 8 1 45.147951 -51.100425 41.743908
7068 8 1 45.629637 -50.713070 42.529996
7069 8 1 45.330544 -49.975430 43.135331
7070 8 1 46.065014 -49.454547 43.570343
7071 8 1 46.053837 -48.732067 44.261644
7072 8 1 45.587185 -48.791323 45.144098
7073 8 1 46.354704 -49.431528 45.176543
7074 8 1 46.698885 -48.586454 45.585676
7075 8 1 47.195944 -49.044163 46.322856
7076 8 1 46.277998 -49.057579 46.719337
7077 8 1 46.277037 -48.610560 47.613861
7078 8 1 47.063071 -48.003805 47.732177
7079 8 1 47.189763 -47.040617 47.969281
7080 8 1 47.299950 -47.152210 46.981655
7081 8 1 46.349410 -46.872589 46.846428
7082 8 1 46.889381 -46.653684 46.033709
7083 8 1 45.894347 -46.656677 45.934211
7084 8 1 45.586408 -45.705368 45.947783
7085 8 1 46.128097 -44.902031 45.700351
7086 8 1 46.429825 -43.971468 45.907747
7087 8 1 46.880813 -43.586584 46.713026
7088 8 1 47.070280 -43.548837 47.694188
7089 8 1 47.955453 -43.936233 47.951858
7090 8 1 48.351940 -44.045295 48.863397
7091 8 1 48.581943 -43.808034 49.807222
7092 8 1 48.207514 -43.004131 50.269329
7093 8 1 47.421164 -43.533285 49.950503
7094 8 1 46.859771 -44.286880 50.292455
7095 8 1 45.872764 -44.334514 50.138996
7096 8 1 45.173174 -43.651889 50.350175
7097 8 1 45.807920 -43.636182 51.122736
7098 8 1 46.629881 -44.193776 51.238791
7099 8 1 47.180809 -43.360628 51.190403
7100 8 1 47.607905 -42.489462 50.948207
7101 8 1 48.344880 -41.814862 50.990431
7102 8 1 47.789950 -41.055180 51.329453
7103 8 1 47.734291 -41.027565 52.327521
7104 8 1 47.840315 -41.305909 53.282132
7105 8 1 47.565020 -42.120458 53.792743
7106 8 1 47.178904 -42.711811 53.084776
7107 8 1 46.347970 -43.190631 52.801439
7108 8 1 46.198441 -43.855850 52.069917
7109 8 1 46.113201 -44.834609 52.256371
7110 8 1 45.996387 -45.479914 53.011313
7111 8 1 45.336910 -44.906997 53.497993
7112 8 1 45.318927 -43.945944 53.773771
7113 8 1 44.661026 -44.631092 54.086404
7114 8 1 44.398509 -44.320361 53.172877
7115 8 1 44.514202 -43.330125 53.250637
7116 8 1 43.600757 -43.721444 53.138885
7117 8 1 43.749285 -42.738039 53.243074
7118 8 1 43.480709 -43.094127 54.138098
7119 8 1 44.104396 -43.685323 54.649470
7120 8 1 45.074273 -43.874305 54.803172
7121 8 1 44.668910 -43.634252 55.685246
7122 8 1 44.000557 -44.319011 55.975780
7123 8 1 44.995541 -44.308060 56.075212
7124 8 1 44.962531 -45.148913 55.534957
7125 8 1 44.138191 -45.611450 55.208579
7126 8 1 44.607519 -45.909529 56.039771
7127 8 1 45.225045 -45.177401 56.327263
7128 8 1 45.636826 -44.676585 57.088590
7129 8 1 46.389805 -44.979609 56.504467
7130 8 1 46.880768 -45.214868 57.343281
7131 8 1 47.252925 -45.356218 56.425937
7132 8 1 47.262448 -45.192857 55.439416
7133 8 1 48.258693 -45.110904 55.411486
7134 8 1 48.063647 -44.932621 56.375941
7135 8 1 48.689352 -45.693882 56.546162
7136 8 1 49.535477 -45.400431 56.101236
7137 8 1 49.686119 -45.451792 57.088489
7138 8 1 49.770798 -46.140841 57.808241
7139 8 1 50.135359 -45.843588 58.690702
7140 8 1 50.614105 -44.985650 58.877098
7141 8 1 51.348073 -44.438243 58.475058
7142 8 1 52.060777 -45.131657 58.581035
7143 8 1 51.506849 -44.796995 59.343378
7144 8 1 51.501197 -44.697066 60.338356
7145 8 1 51.313352 -45.639676 60.614401
7146 8 1 50.508345 -45.947189 61.121747
7147 8 1 49.828787 -45.816655 60.399832
7148 8 1 50.229331 -44.901297 60.440891
7149 8 1 49.670010 -44.687909 61.241906
7150 8 1 49.346639 -45.274205 61.984663
7151 8 1 49.712348 -44.837689 62.806679
7152 8 1 50.502545 -45.407184 62.580262
7153 8 1 51.477814 -45.235585 62.440969
7154 8 1 50.938533 -45.530153 61.652043
7155 8 1 51.323953 -46.393836 61.976856
7156 8 1 51.432601 -46.496384 62.965633
7157 8 1 52.368871 -46.162851 63.075883
7158 8 1 51.980781 -47.059754 63.287899
7159 8 1 52.277189 -46.997239 62.334886
7160 8 1 52.292553 -47.980407 62.516940
7161 8 1 52.984399 -47.464062 63.021656
7162 8 1 53.457026 -46.582830 63.028963
7163 8 1 53.761120 -45.908383 62.356172
7164 8 1 54.417233 -45.218387 62.050522
7165 8 1 55.379154 -45.491148 62.032969
7166 8 1 56.105313 -45.881991 62.598599
7167 8 1 56.194264 -45.967168 63.590986
7168 8 1 56.375622 -45.010501 63.818798
7169 8 1 55.827424 -45.340844 64.587142
7170 8 1 55.691069 -45.236970 65.572341
7171 8 1 56.638547 -45.149799 65.264627
7172 8 1 56.832045 -44.223783 64.940508
7173 8 1 55.926051 -44.603706 65.127146
7174 8 1 55.495450 -43.858916 64.617370
7175 8 1 55.150588 -43.231976 65.315952
7176 8 1 54.274704 -43.095131 64.853242
7177 8 1 54.398285 -43.944163 65.366927
7178 8 1 53.534385 -43.956771 64.863422
7179 8 1 53.221332 -44.906286 64.883903
7180 8 1 53.361164 -45.765767 65.375574
7181 8 1 52.469759 -45.888809 64.939388
7182 8 1 51.576378 -46.227301 65.234842
7183 8 1 51.650945 -46.935642 64.532921
7184 8 1 52.626154 -46.929147 64.754109
7185 8 1 53.012967 -46.647829 63.875908
7186 8 1 53.653282 -47.397366 63.708008
7187 8 1 53.550354 -47.628916 64.675371
7188 8 1 53.805391 -46.861691 65.263862
7189 8 1 52.901758 -47.057563 65.644758
7190 8 1 53.255773 -46.890902 66.565028
7191 8 1 54.037928 -46.368440 66.904539
7192 8 1 54.346703 -47.319375 66.885030
7193 8 1 55.286691 -47.653988 66.818263
7194 8 1 54.788973 -48.034246 67.597802
7195 8 1 54.345991 -47.302993 68.116487
7196 8 1 53.749083 -48.063367 68.372482
7197 8 1 53.982320 -48.254129 67.418957
7198 8 1 53.630604 -48.167781 66.486841
7199 8 1 53.680259 -47.656637 65.628781
7200 8 1 53.904554 -48.612307 65.819538
7201 8 1 53.736442 -49.412650 65.244048
7202 8 1 53.094746 -48.694644 64.974430
7203 8 1 53.144459 -48.509067 63.993058
7204 8 1 52.166228 -48.424538 63.803537
7205 8 1 52.302420 -49.338944 64.184738
7206 8 1 51.385716 -49.010908 63.956601
7207 8 1 50.696891 -48.468610 63.475526
7208 8 1 51.291994 -48.183907 64.227055
7209 8 1 50.834399 -48.997836 64.585005
7210 8 1 50.556843 -49.461578 63.743633
7211 8 1 51.190278 -50.155492 64.086041
7212 8 1 51.800686 -50.726221 64.635287
7213 8 1 51.626180 -50.302845 65.524275
7214 8 1 52.227088 -49.852878 64.863640
7215 8 1 53.084492 -50.351082 64.992676
7216 8 1 53.820268 -51.024132 64.917591
7217 8 1 53.686330 -50.738522 65.866531
7218 8 1 53.275848 -51.571951 66.236533
7219 8 1 53.778434 -52.352009 65.863816
7220 8 1 52.979066 -52.500625 65.281644
7221 8 1 53.166254 -52.066311 64.400548
7222 8 1 52.666873 -52.440731 63.619249
7223 8 1 52.403482 -53.223275 64.183385
7224 8 1 52.011865 -53.307543 63.267124
7225 8 1 52.356867 -54.226554 63.457896
7226 8 1 52.650943 -55.167697 63.624537
7227 8 1 51.785018 -54.833383 63.996569
7228 8 1 52.167337 -55.532145 64.601188
7229 8 1 51.659682 -56.163825 64.015298
7230 8 1 50.763952 -55.752193 63.847292
7231 8 1 50.236184 -56.401795 64.394539
7232 8 1 49.843619 -56.231790 63.490664
7233 8 1 50.745406 -56.647152 63.610057
7234 8 1 50.627443 -56.899429 62.649619
7235 8 1 50.725035 -57.891182 62.566549
7236 8 1 51.402303 -58.396069 62.031388
7237 8 1 50.673039 -58.932152 61.606196
7238 8 1 50.529108 -59.624285 60.898922
7239 8 1 51.293318 -59.601770 60.254347
7240 8 1 50.665962 -58.851521 60.463038
7241 8 1 50.719309 -58.457382 59.545537
7242 8 1 50.769342 -59.095306 58.777064
7243 8 1 50.953833 -58.620739 57.916397
7244 8 1 50.753592 -57.863616 58.538223
7245 8 1 50.002523 -58.502203 58.705859
7246 8 1 49.502804 -59.356599 58.848299
7247 8 1 49.012350 -60.034524 58.300693
7248 8 1 49.960425 -60.350647 58.335634
7249 8 1 50.546095 -61.154428 58.231105
7250 8 1 51.275373 -61.736510 57.871473
7251 8 1 50.870058 -61.995788 56.994834
7252 8 1 50.725961 -61.095358 57.405275
7253 8 1 51.061203 -60.532952 56.649423
7254 8 1 51.911280 -60.946609 56.975395
7255 8 1 52.649342 -61.559643 56.693520
7256 8 1 52.263778 -61.605097 57.615081
7257 8 1 51.791284 -61.071806 58.316758
7258 8 1 52.295221 -61.931283 58.402476
7259 8 1 52.749112 -62.661244 57.891457
7260 8 1 52.330202 -63.560356 57.764527
7261 8 1 52.507015 -63.464858 58.744127
7262 8 1 52.372645 -64.429250 58.971927
7263 8 1 52.971632 -65.227582 58.909619
7264 8 1 53.680979 -65.880128 58.643143
7265 8 1 53.286439 -65.252642 57.971875
7266 8 1 53.806005 -64.930566 58.763278
7267 8 1 54.417738 -65.534851 59.273789
7268 8 1 54.088875 -66.303373 59.822628
7269 8 1 53.499647 -65.509548 59.672120
7270 8 1 53.346131 -66.035446 60.508699
7271 8 1 53.983594 -66.805804 60.522486
7272 8 1 54.089702 -67.684940 60.987094
7273 8 1 54.063231 -67.556978 59.995669
7274 8 1 54.670694 -68.350383 60.034365
7275 8 1 55.063547 -68.022380 59.175249
7276 8 1 55.510396 -67.970942 60.068378
7277 8 1 55.579718 -68.015899 61.064959
7278 8 1 54.891587 -67.902076 61.781563
7279 8 1 53.968109 -67.937977 62.163530
7280 8 1 53.439082 -67.158446 61.828176
7281 8 1 53.919789 -67.041016 62.697159
7282 8 1 53.234455 -67.294269 63.379934
7283 8 1 53.649010 -68.137573 63.037905
7284 8 1 54.468649 -68.674502 62.838161
7285 8 1 55.094458 -69.173443 62.238643
7286 8 1 55.642986 -69.867239 61.771991
7287 8 1 56.175114 -69.977865 60.932586
7288 8 1 57.011334 -70.071744 60.392287
7289 8 1 57.323757 -69.122464 60.427777
7290 8 1 57.782419 -69.864234 59.938485
7291 8 1 58.169638 -70.784383 59.996686
7292 8 1 57.520602 -71.201732 60.632746
7293 8 1 58.178614 -71.699422 60.067659
7294 8 1 58.791955 -72.395182 59.693853
7295 8 1 58.621218 -72.080186 60.627462
7296 8 1 59.591573 -72.230525 60.816695
7297 8 1 59.147272 -71.336128 60.868164
7298 8 1 59.452183 -70.456980 61.234400
7299 8 1 60.230889 -70.006084 61.670645
7300 8 1 60.910680 -70.262924 60.983682
7301 8 1 60.819475 -70.929497 61.723521
7302 8 1 61.472509 -70.463018 62.320131
7303 8 1 61.285447 -69.551663 61.953470
7304 8 1 60.601139 -68.890054 62.260057
7305 8 1 61.103735 -68.987679 61.401065
7306 8 1 61.097647 -68.044246 61.732573
7307 8 1 61.772914 -68.062559 62.469919
7308 8 1 61.268161 -67.439307 63.067231
7309 8 1 60.610585 -67.467666 63.820086
7310 8 1 60.360423 -68.435741 63.804319
7311 8 1 59.891600 -67.645979 64.199895
7312 8 1 59.229021 -68.318852 63.870910
7313 8 1 58.664102 -67.772169 64.488976
7314 8 1 58.961761 -67.553878 65.418356
7315 8 1 59.240110 -67.104048 64.569725
7316 8 1 58.256991 -67.060473 64.392023
7317 8 1 57.614867 -67.774032 64.672219
7318 8 1 57.367275 -66.807690 64.742090
7319 8 1 58.114739 -67.192376 65.283674
7320 8 1 57.536941 -67.806048 65.821779
7321 8 1 57.762619 -68.737588 65.536641
7322 8 1 57.433627 -68.660332 66.477809
7323 8 1 57.975230 -69.268342 67.058317
7324 8 1 58.213027 -69.515101 67.997765
7325 8 1 57.543563 -68.862623 67.642673
7326 8 1 57.120570 -67.969979 67.798440
7327 8 1 57.758693 -67.267381 67.483552
7328 8 1 58.072583 -67.622914 66.603172
7329 8 1 58.575730 -67.713908 67.462570
7330 8 1 59.007411 -67.288003 68.257715
7331 8 1 59.429903 -66.794047 69.017655
7332 8 1 59.368827 -66.626831 70.001682
7333 8 1 58.711566 -65.967972 70.367624
7334 8 1 58.766102 -65.205626 69.722757
7335 8 1 58.910074 -64.313825 69.293846
7336 8 1 59.120699 -64.110806 68.337593
7337 8 1 59.415591 -64.711403 67.594409
7338 8 1 60.208345 -64.373108 67.087361
7339 8 1 60.452973 -63.476304 66.718716
7340 8 1 59.457854 -63.477607 66.817395
7341 8 1 59.586818 -62.486442 66.848400
7342 8 1 60.139277 -61.660522 66.960851
7343 8 1 59.406571 -60.980994 66.923645
7344 8 1 58.679916 -60.332038 67.149095
7345 8 1 59.108199 -60.432605 66.251064
7346 8 1 58.362747 -60.939579 65.818307
7347 8 1 57.453830 -60.614172 65.557574
7348 8 1 56.663236 -60.285132 66.073998
7349 8 1 55.886900 -60.070049 65.481510
7350 8 1 56.419137 -60.886129 65.256259
7351 8 1 55.769536 -61.571625 64.927452
7352 8 1 55.101083 -62.288894 64.730740
7353 8 1 55.451213 -62.819697 65.502528
7354 8 1 55.483451 -63.817835 65.450744
7355 8 1 56.103981 -64.423637 64.952802
7356 8 1 55.564070 -64.720271 65.740523
7357 8 1 54.710949 -64.936225 65.265603
7358 8 1 53.872880 -64.823019 64.731914
7359 8 1 52.887675 -64.836245 64.561042
7360 8 1 52.644795 -65.442456 63.803732
7361 8 1 51.895435 -65.787225 63.238407
7362 8 1 51.287113 -65.889827 64.025438
7363 8 1 51.826854 -65.108288 64.338291
7364 8 1 52.014085 -64.927241 63.372803
7365 8 1 51.480634 -64.309651 63.950742
7366 8 1 50.967750 -64.578218 64.766108
7367 8 1 50.251541 -63.931369 64.504131
7368 8 1 49.593067 -64.526084 64.042907
7369 8 1 49.515358 -65.451456 63.671897
7370 8 1 50.137598 -65.238595 62.918565
7371 8 1 50.779539 -64.673940 63.437292
7372 8 1 50.345581 -65.198777 64.169567
7373 8 1 50.096154 -65.994502 64.721480
7374 8 1 49.310542 -66.481814 65.102716
7375 8 1 50.285618 -66.651894 65.245197
7376 8 1 50.839066 -66.004381 65.769049
7377 8 1 51.684153 -65.620152 66.140797
7378 8 1 51.763309 -65.543731 65.146869
7379 8 1 52.742157 -65.705798 65.271734
7380 8 1 52.423738 -64.804742 65.566192
7381 8 1 51.947864 -64.736197 66.443031
7382 8 1 52.532419 -64.074603 65.973361
7383 8 1 52.276466 -63.881498 65.026156
7384 8 1 53.249933 -63.791255 65.236433
7385 8 1 52.601311 -63.200786 64.756188
7386 8 1 53.185597 -63.254578 63.946425
7387 8 1 53.113466 -62.263365 63.835542
7388 8 1 53.669513 -61.772518 64.506274
7389 8 1 52.941513 -61.408093 63.925575
7390 8 1 52.740148 -60.968031 63.050477
7391 8 1 53.262575 -60.307974 62.510667
7392 8 1 53.614500 -59.604490 63.128128
7393 8 1 53.080640 -60.210833 63.717485
7394 8 1 53.879656 -60.326146 64.307634
7395 8 1 54.414671 -59.554392 64.651371
7396 8 1 54.246659 -59.647269 65.632771
7397 8 1 53.693792 -59.072388 66.235970
7398 8 1 54.025380 -58.235635 66.671738
7399 8 1 54.337226 -58.719472 65.854025
7400 8 1 54.966747 -58.743375 65.077410
7401 8 1 55.231156 -58.043105 65.740516
7402 8 1 54.288265 -57.768501 65.929063
7403 8 1 54.737846 -57.118032 65.316881
7404 8 1 55.629764 -56.808593 64.987140
7405 8 1 54.863128 -56.321490 64.568809
7406 8 1 55.186268 -55.627255 63.925677
7407 8 1 56.083638 -55.944186 64.232732
7408 8 1 56.728524 -56.683747 64.425531
7409 8 1 56.725918 -56.594907 65.421573
7410 8 1 55.845062 -56.150700 65.585197
7411 8 1 55.435976 -56.019206 66.488169
7412 8 1 56.134762 -55.386431 66.154561
7413 8 1 56.548429 -54.743491 66.799160
7414 8 1 55.630320 -54.455713 67.071666
7415 8 1 55.422259 -53.491125 66.909553
7416 8 1 55.485306 -52.838022 67.664193
7417 8 1 55.084215 -52.405767 66.856553
7418 8 1 55.190691 -51.431621 66.657297
7419 8 1 56.079804 -51.852030 66.838221
7420 8 1 56.676928 -52.641354 66.981089
7421 8 1 57.040576 -53.289667 66.312171
7422 8 1 57.242446 -52.323687 66.473825
7423 8 1 56.620067 -51.585192 66.214463
7424 8 1 57.047611 -50.691225 66.080186
7425 8 1 57.116125 -51.347597 65.328866
7426 8 1 57.866845 -51.993446 65.189947
7427 8 1 58.306488 -51.095814 65.221123
7428 8 1 57.955053 -51.497654 66.066710
7429 8 1 58.847987 -51.104313 66.285688
7430 8 1 58.282600 -50.355986 65.938781
7431 8 1 58.172432 -49.368073 65.829736
7432 8 1 59.170139 -49.435626 65.833966
7433 8 1 60.087969 -49.829450 65.883859
7434 8 1 61.037410 -49.739276 66.184575
7435 8 1 60.865299 -49.194893 67.005565
7436 8 1 61.829155 -49.318700 67.241472
7437 8 1 61.573934 -50.282378 67.320126
7438 8 1 62.368970 -50.464703 67.898637
7439 8 1 62.812773 -49.652651 68.277596
7440 8 1 63.786132 -49.861883 68.371380
7441 8 1 64.082248 -49.364580 69.186858
7442 8 1 64.719978 -48.614267 69.361016
7443 8 1 64.448640 -47.880123 69.983437
7444 8 1 65.356195 -47.542746 69.733396
7445 8 1 65.537032 -47.777821 68.778389
7446 8 1 65.536460 -47.303429 67.898075
7447 8 1 65.125248 -47.746991 67.101735
7448 8 1 64.222007 -48.084996 67.366137
7449 8 1 63.398316 -48.522146 67.727291
7450 8 1 63.454506 -48.223802 68.680094
7451 8 1 62.598134 -47.801597 68.977366
7452 8 1 62.262898 -48.694204 69.278812
7453 8 1 62.762215 -48.510597 70.125553
7454 8 1 63.475078 -48.890383 69.535986
7455 8 1 63.581666 -48.472875 70.438387
7456 8 1 62.799068 -48.454789 71.060651
7457 8 1 63.443387 -47.716729 71.260951
7458 8 1 62.657002 -47.202801 71.603699
7459 8 1 61.918465 -47.606874 72.143410
7460 8 1 61.546569 -47.071259 72.901572
7461 8 1 60.884951 -47.317530 73.609818
7462 8 1 60.809156 -47.913142 74.409507
7463 8 1 61.541711 -47.244806 74.280312
7464 8 1 61.319633 -47.442052 75.235181
7465 8 1 60.614577 -48.138732 75.367593
7466 8 1 60.248266 -47.852606 76.253001
7467 8 1 59.566382 -47.645220 75.551556
7468 8 1 59.235086 -48.114472 76.370119
7469 8 1 58.873119 -49.005040 76.094678
7470 8 1 58.708928 -48.486615 75.255466
7471 8 1 58.856197 -48.914676 74.363796
7472 8 1 59.274834 -49.798902 74.570889
7473 8 1 58.751987 -50.346719 73.917799
7474 8 1 58.034362 -50.188520 73.239575
7475 8 1 58.584067 -49.653077 72.598385
7476 8 1 59.510852 -50.027298 72.630465
7477 8 1 58.725002 -50.578997 72.909872
7478 8 1 59.402761 -51.212083 73.283831
7479 8 1 59.731509 -51.590050 72.418345
7480 8 1 60.418986 -51.180327 71.818760
7481 8 1 61.186502 -50.560020 71.657085
7482 8 1 61.338614 -51.128205 72.465805
7483 8 1 61.889695 -51.333147 73.274698
7484 8 1 62.211002 -51.923559 72.534309
7485 8 1 62.766634 -51.356459 73.142315
7486 8 1 63.478331 -51.901144 72.698686
7487 8 1 62.968219 -52.387128 71.989035
7488 8 1 62.620065 -53.252981 71.629748
7489 8 1 61.799208 -52.971451 71.132823
7490 8 1 62.101378 -53.924357 71.107083
7491 8 1 62.295869 -54.430573 71.947272
7492 8 1 61.436424 -54.865872 71.679187
7493 8 1 60.802738 -54.949730 70.910155
7494 8 1 59.828688 -55.174501 70.883611
7495 8 1 59.946343 -54.254588 71.257666
7496 8 1 60.151824 -54.162169 72.231954
7497 8 1 60.163399 -53.164622 72.162920
7498 8 1 59.606692 -53.181791 72.993451
7499 8 1 58.699014 -52.767314 73.059245
7500 8 1 58.055313 -52.272795 73.643283
7501 8 1 58.231438 -53.257081 73.630615
7502 8 1 58.552701 -54.203848 73.651144
7503 8 1 58.613359 -54.133870 72.655442
7504 8 1 59.371348 -54.762704 72.828705
7505 8 1 59.083644 -55.718981 72.881246
7506 8 1 58.627543 -56.421438 73.427621
7507 8 1 58.484749 -57.349061 73.772766
7508 8 1 58.070939 -56.577362 74.255718
7509 8 1 58.570713 -57.104402 74.943072
7510 8 1 57.752753 -57.677180 74.996623
7511 8 1 57.480182 -57.795798 75.951418
7512 8 1 56.905565 -58.605970 75.835498
7513 8 1 57.785108 -58.883182 75.448770
7514 8 1 57.815460 -59.216200 74.506339
7515 8 1 58.634356 -58.853572 74.951210
7516 8 1 59.422576 -59.311138 75.362722
7517 8 1 59.818392 -60.214075 75.530157
7518 8 1 60.212661 -60.005438 74.635158
7519 8 1 60.627795 -60.885956 74.863965
7520 8 1 60.590907 -61.788139 74.434192
7521 8 1 60.299805 -61.156169 73.715950
7522 8 1 59.352203 -60.848070 73.800368
7523 8 1 58.406245 -61.053951 73.549818
7524 8 1 57.606834 -60.686734 73.074324
7525 8 1 57.617250 -60.472133 74.050970
7526 8 1 58.570863 -60.242834 74.246020
7527 8 1 59.364465 -59.658513 74.076417
7528 8 1 59.176446 -58.856688 73.509208
7529 8 1 59.371812 -58.328638 72.682773
7530 8 1 59.826014 -59.207476 72.536674
7531 8 1 59.522844 -60.066188 72.123514
7532 8 1 59.522031 -60.997587 72.487513
7533 8 1 59.181424 -60.998676 71.547308
7534 8 1 59.062912 -60.544226 70.664454
7535 8 1 59.840008 -60.426089 70.046259
7536 8 1 60.237924 -60.371995 70.962085
7537 8 1 59.690297 -59.583543 71.242173
7538 8 1 58.718519 -59.349087 71.216126
7539 8 1 58.568831 -60.333206 71.311540
7540 8 1 57.808174 -60.270094 70.665461
7541 8 1 58.244878 -60.997626 70.136324
7542 8 1 58.795569 -60.519630 69.452029
7543 8 1 58.408741 -59.739148 69.943162
7544 8 1 59.395624 -59.577713 69.942484
7545 8 1 59.424790 -59.565705 68.942982
7546 8 1 58.743599 -58.861371 69.142716
7547 8 1 59.604282 -58.469588 68.817553
7548 8 1 60.121469 -58.590769 67.970303
7549 8 1 60.977164 -58.878793 67.540386
7550 8 1 61.792868 -58.707005 68.092759
7551 8 1 62.302676 -59.095860 67.325369
7552 8 1 63.213423 -59.478738 67.480106
7553 8 1 63.290138 -59.608175 68.468722
7554 8 1 64.182500 -60.048732 68.370746
7555 8 1 63.655016 -59.893025 69.205920
7556 8 1 63.505955 -59.932866 70.193945
7557 8 1 63.164103 -60.062740 71.124681
7558 8 1 62.584713 -60.868285 71.248799
7559 8 1 62.942168 -61.139695 72.142423
7560 8 1 62.052153 -61.380667 72.529470
7561 8 1 62.727013 -61.274890 73.259794
7562 8 1 62.870624 -62.243562 73.462404
7563 8 1 62.438951 -62.751503 74.207826
7564 8 1 61.985553 -62.359486 73.407355
7565 8 1 61.879131 -62.588825 72.439844
7566 8 1 61.436223 -63.458792 72.656615
7567 8 1 61.716101 -63.255381 73.594854
7568 8 1 61.141447 -63.611221 74.331842
7569 8 1 60.605875 -63.454200 75.161605
7570 8 1 61.140729 -62.701255 75.545019
7571 8 1 61.589767 -61.960921 76.045289
7572 8 1 61.214265 -61.645066 75.173949
7573 8 1 60.737285 -61.132177 75.887697
7574 8 1 59.934697 -61.480460 75.403392
7575 8 1 59.051479 -61.158234 75.744120
7576 8 1 58.234307 -60.841841 75.262326
7577 8 1 58.590862 -61.675705 74.840972
7578 8 1 58.829382 -62.083287 73.959504
7579 8 1 57.913252 -62.483803 73.942366
7580 8 1 58.095630 -63.225463 73.296859
7581 8 1 58.045475 -64.108533 72.830306
7582 8 1 57.055420 -64.200021 72.723437
7583 8 1 57.028255 -63.270373 72.355991
7584 8 1 56.035690 -63.157741 72.402131
7585 8 1 55.915713 -63.543856 73.316746
7586 8 1 55.407029 -62.991948 73.977532
7587 8 1 54.935214 -62.999585 74.859197
7588 8 1 54.445551 -62.283405 74.361889
7589 8 1 54.222117 -61.814836 73.507184
7590 8 1 54.249380 -60.866899 73.824474
7591 8 1 54.525724 -61.079849 74.761643
7592 8 1 54.730821 -60.102253 74.714311
7593 8 1 54.201690 -59.818408 75.513968
7594 8 1 54.116467 -59.778504 76.509530
7595 8 1 55.114885 -59.824018 76.542540
7596 8 1 55.643932 -59.878350 75.695688
7597 8 1 55.620050 -59.055621 76.263621
7598 8 1 55.272991 -58.162683 75.976893
7599 8 1 55.997340 -57.474525 75.934980
7600 8 1 56.100194 -57.183050 76.886013
7601 8 1 56.525452 -56.339472 77.213934
7602 8 1 55.855056 -56.929037 77.664470
7603 8 1 55.036434 -56.747892 78.209488
7604 8 1 55.004769 -56.334615 77.299434
7605 8 1 55.174251 -55.369500 77.499004
7606 8 1 55.585842 -55.370731 76.587636
7607 8 1 56.059519 -55.844657 75.845326
7608 8 1 55.202493 -55.612697 75.385217
7609 8 1 55.730529 -56.460922 75.426369
7610 8 1 55.684362 -57.060161 74.627132
7611 8 1 54.776609 -57.373161 74.347819
7612 8 1 54.372694 -56.843632 73.601862
7613 8 1 55.182954 -56.696528 73.034553
7614 8 1 55.771485 -55.908471 72.854006
7615 8 1 55.480913 -54.953301 72.910734
7616 8 1 55.515813 -55.167205 73.886965
7617 8 1 54.702192 -55.434633 74.403204
7618 8 1 55.108248 -56.250932 73.992383
7619 8 1 54.411257 -56.680483 74.566570
7620 8 1 54.046433 -56.763335 75.493953
7621 8 1 53.158328 -56.437552 75.169707
7622 8 1 52.217037 -56.104871 75.112301
7623 8 1 52.439313 -55.590651 74.283947
7624 8 1 53.237227 -55.643750 74.884375
7625 8 1 53.922725 -55.480663 75.593949
7626 8 1 53.846796 -54.780266 76.303653
7627 8 1 53.115077 -54.673071 75.630529
7628 8 1 53.179860 -54.230298 74.736238
7629 8 1 53.405877 -54.655229 73.859682
7630 8 1 54.341886 -54.461403 73.565881
7631 8 1 54.355476 -55.456372 73.466626
7632 8 1 53.637996 -55.092027 72.872930
7633 8 1 53.126443 -55.233796 72.025455
7634 8 1 53.289910 -54.352815 72.469471
7635 8 1 52.759427 -53.959542 73.220420
7636 8 1 52.249084 -53.115711 73.386247
7637 8 1 53.120048 -53.443965 73.751858
7638 8 1 53.380068 -53.415967 72.786661
7639 8 1 53.569320 -52.712057 73.471273
7640 8 1 53.999958 -53.592105 73.271108
7641 8 1 54.268893 -53.496276 74.229487
7642 8 1 53.848289 -53.007785 74.993993
7643 8 1 54.734666 -53.351502 75.304147
7644 8 1 54.695576 -52.441952 75.717899
7645 8 1 55.516297 -52.439777 76.289224
7646 8 1 55.921157 -53.259996 76.693364
7647 8 1 54.928670 -53.172162 76.778534
7648 8 1 53.998770 -52.895494 76.536169
7649 8 1 53.899359 -53.331409 77.430650
7650 8 1 53.170164 -53.643492 78.039649
7651 8 1 52.928315 -52.673267 78.026462
7652 8 1 52.112772 -52.195232 78.352608
7653 8 1 51.550350 -52.891471 78.798628
7654 8 1 52.529930 -53.075074 78.716688
7655 8 1 52.322790 -52.619910 79.582667
7656 8 1 52.630832 -53.548034 79.791704
7657 8 1 53.394726 -54.132789 79.518706
7658 8 1 53.382124 -53.149216 79.338637
7659 8 1 53.592480 -53.207588 80.314518
7660 8 1 53.498536 -52.378881 79.762776
7661 8 1 53.766309 -51.936559 80.618726
7662 8 1 52.795425 -51.711403 80.700512
7663 8 1 52.288446 -52.573234 80.685715
7664 8 1 51.380379 -52.371602 80.318621
7665 8 1 50.707115 -52.969314 80.753886
7666 8 1 51.250790 -52.996961 81.592726
7667 8 1 51.710850 -53.798929 81.211686
7668 8 1 52.016637 -54.750999 81.219274
7669 8 1 51.555280 -55.444324 80.665694
7670 8 1 50.749398 -55.991077 80.438506
7671 8 1 49.899207 -56.479166 80.635850
7672 8 1 49.617113 -55.765196 79.995015
7673 8 1 49.267797 -56.632402 79.640147
7674 8 1 48.954704 -57.198735 78.877756
7675 8 1 48.798704 -56.842974 77.956291
7676 8 1 48.881922 -55.965786 77.483410
7677 8 1 49.656172 -56.593704 77.562516
7678 8 1 49.653546 -57.309080 76.863781
7679 8 1 49.247611 -58.152941 77.214659
7680 8 1 49.918473 -58.412304 77.909407
7681 8 1 50.014689 -58.215731 78.885164
7682 8 1 50.121202 -58.954375 79.550791
7683 8 1 50.693721 -58.257640 79.982975
7684 8 1 50.731151 -57.417191 80.523570
7685 8 1 51.235403 -57.194616 81.357951
7686 8 1 51.168733 -56.313494 81.826115
7687 8 1 51.575199 -56.792784 82.603975
7688 8 1 51.294008 -57.614349 82.108029
7689 8 1 50.514339 -58.231419 82.214518
7690 8 1 50.777949 -58.946267 81.566828
7691 8 1 51.701371 -59.064036 81.932099
7692 8 1 51.058822 -59.715649 81.528947
7693 8 1 50.172830 -60.148678 81.363099
7694 8 1 51.033873 -60.655487 81.321266
7695 8 1 50.507830 -61.304088 81.871353
7696 8 1 50.841191 -61.436932 82.804746
7697 8 1 51.196768 -62.209655 83.330545
7698 8 1 51.116255 -62.208181 84.327297
7699 8 1 50.864473 -62.965211 84.930216
7700 8 1 51.156125 -63.886987 85.185693
7701 8 1 50.281260 -63.536519 84.851352
7702 8 1 49.566109 -64.206842 85.049404
7703 8 1 48.679178 -63.750290 85.119509
7704 8 1 48.093613 -63.709827 85.929124
7705 8 1 48.640713 -62.946835 85.584849
7706 8 1 47.865150 -62.315803 85.602204
7707 8 1 47.557205 -62.517574 86.531967
7708 8 1 47.583837 -62.322215 87.512337
7709 8 1 47.202354 -61.762571 88.248047
7710 8 1 46.538434 -62.476073 88.471932
7711 8 1 45.951708 -62.497829 89.281425
7712 8 1 45.870294 -62.811802 90.227360
7713 8 1 46.805414 -62.501539 90.056220
7714 8 1 46.511277 -63.442828 89.890511
7715 8 1 47.501344 -63.491084 89.758463
7716 8 1 47.846466 -64.300261 90.233987
7717 8 1 47.225773 -64.180103 91.008779
7718 8 1 48.183049 -64.457771 91.089544
7719 8 1 48.512866 -64.513840 92.031922
7720 8 1 49.182048 -65.234990 91.852651
7721 8 1 49.930569 -65.780877 91.476187
7722 8 1 50.306976 -66.188067 90.644013
7723 8 1 50.711968 -65.609831 89.935759
7724 8 1 51.011153 -66.534245 90.172291
7725 8 1 51.134108 -67.517577 90.038347
7726 8 1 50.957586 -67.911975 89.136521
7727 8 1 51.732070 -67.668808 88.552532
7728 8 1 51.090838 -68.233709 88.033199
7729 8 1 50.621844 -68.381914 87.162521
7730 8 1 49.727331 -68.152152 86.779041
7731 8 1 49.682727 -67.696023 87.667836
7732 8 1 50.393513 -66.998128 87.579943
7733 8 1 49.940976 -66.514045 88.328858
7734 8 1 50.593973 -65.891408 88.760041
7735 8 1 50.911632 -65.268646 88.045016
7736 8 1 51.097788 -64.879601 87.142802
7737 8 1 50.700085 -64.351121 87.892830
7738 8 1 49.867822 -63.930548 87.531642
7739 8 1 49.628454 -64.138658 86.583278
7740 8 1 49.388651 -65.083673 86.360922
7741 8 1 50.297915 -65.237296 85.974090
7742 8 1 51.114098 -65.607630 85.530585
7743 8 1 51.722082 -65.412665 86.300224
7744 8 1 52.096153 -65.548566 85.382836
7745 8 1 52.509643 -66.128491 86.084771
7746 8 1 52.749853 -66.957252 85.579345
7747 8 1 53.287667 -67.049336 86.417364
7748 8 1 52.794940 -67.115263 87.285047
7749 8 1 52.181285 -67.687892 86.741426
7750 8 1 51.293802 -67.325953 86.456166
7751 8 1 51.644266 -66.914568 85.614775
7752 8 1 51.401857 -66.180441 86.249042
7753 8 1 51.496349 -66.299720 87.237396
7754 8 1 52.285178 -65.699787 87.370927
7755 8 1 52.122270 -65.019366 88.085412
7756 8 1 51.809491 -64.095836 87.863466
7757 8 1 52.766027 -64.162247 88.147417
7758 8 1 53.716130 -63.916402 87.955418
7759 8 1 54.707408 -64.041116 87.998035
7760 8 1 54.335843 -63.124516 87.850441
7761 8 1 54.320652 -63.477651 86.914992
7762 8 1 53.580318 -64.044202 86.553154
7763 8 1 53.065195 -64.633353 87.175689
7764 8 1 52.083500 -64.532264 87.014270
7765 8 1 52.202676 -63.541559 86.948687
7766 8 1 51.871666 -63.162926 87.813019
7767 8 1 51.519136 -62.747265 88.651439
7768 8 1 51.578339 -61.790044 88.368203
7769 8 1 52.350822 -61.599001 88.973821
7770 8 1 52.810240 -62.462526 89.181810
7771 8 1 53.355852 -62.602992 88.355628
7772 8 1 52.872905 -61.909189 87.821399
7773 8 1 52.235914 -61.344208 87.296957
7774 8 1 52.000766 -62.238844 87.676867
7775 8 1 51.373386 -61.592991 87.241819
7776 8 1 50.707206 -61.247619 87.902821
7777 8 1 50.370235 -60.369388 88.242175
7778 8 1 49.718250 -60.787854 87.609877
7779 8 1 49.163800 -60.987378 86.801931
7780 8 1 48.700191 -60.205032 86.385996
7781 8 1 47.769521 -60.561799 86.467044
7782 8 1 48.205545 -60.832278 87.325370
7783 8 1 48.108174 -59.907990 86.956302
7784 8 1 47.346346 -59.298010 87.174348
7785 8 1 46.905446 -59.985215 87.751719
7786 8 1 46.749061 -60.334941 88.675426
7787 8 1 45.927681 -60.904828 88.699203
7788 8 1 45.219196 -61.597237 88.562751
7789 8 1 44.953869 -62.008812 89.434650
7790 8 1 45.025832 -62.388214 88.512221
7791 8 1 44.853823 -62.873216 89.369650
7792 8 1 44.178277 -62.356597 89.895713
7793 8 1 44.308200 -61.958846 90.803961
7794 8 1 43.679586 -61.183677 90.866861
7795 8 1 42.688150 -61.293322 90.795914
7796 8 1 42.790099 -60.755704 89.958912
7797 8 1 43.453658 -60.185128 90.442785
7798 8 1 43.976605 -59.433922 90.040024
7799 8 1 43.328078 -58.978025 89.430458
7800 8 1 43.370104 -57.981718 89.505330
7801 8 1 43.275731 -57.318382 90.247677
7802 8 1 44.237631 -57.239734 89.985830
7803 8 1 43.975600 -56.743484 90.813523
7804 8 1 44.232412 -57.206862 91.661656
7805 8 1 44.891667 -56.677233 91.127919
7806 8 1 44.056658 -56.293478 91.522245
7807 8 1 44.629978 -55.844012 90.837201
7808 8 1 44.187480 -55.032250 90.456100
7809 8 1 43.840873 -54.760698 91.353944
7810 8 1 43.100118 -54.550541 91.992000
7811 8 1 42.418686 -54.921873 92.622684
7812 8 1 41.667083 -55.401734 93.075262
7813 8 1 40.755139 -55.811354 93.099130
7814 8 1 41.271765 -55.726656 93.951141
7815 8 1 40.692672 -56.404170 94.404601
7816 8 1 40.510044 -55.854145 95.219537
7817 8 1 40.804463 -54.964110 95.567611
7818 8 1 41.099893 -54.338738 94.845372
7819 8 1 41.877106 -54.869275 95.183707
7820 8 1 41.753501 -54.120787 95.835234
7821 8 1 41.891274 -54.819443 96.537301
7822 8 1 41.109912 -54.709879 97.151687
7823 8 1 40.234967 -54.243616 97.021038
7824 8 1 39.328439 -54.108538 96.621086
7825 8 1 39.098028 -53.447119 95.907338
7826 8 1 38.239389 -53.680832 95.451139
7827 8 1 38.578562 -53.995252 94.564515
7828 8 1 38.742812 -53.014326 94.460566
7829 8 1 39.585609 -53.013073 93.922336
7830 8 1 39.925196 -53.845617 94.360001
7831 8 1 40.231051 -54.564373 94.984374
7832 8 1 39.364507 -54.065473 94.998527
7833 8 1 39.296896 -54.473559 94.088091
7834 8 1 39.840127 -54.676356 93.273368
7835 8 1 40.087685 -53.725762 93.460680
7836 8 1 41.062976 -53.548818 93.328400
7837 8 1 41.397174 -52.905917 94.017595
7838 8 1 41.374180 -53.440485 94.862408
7839 8 1 41.170894 -52.475280 94.697929
7840 8 1 40.400743 -53.081797 94.895425
7841 8 1 40.523870 -52.132895 95.185986
7842 8 1 40.097916 -51.333241 95.609207
7843 8 1 39.106760 -51.201389 95.594188
7844 8 1 38.705822 -52.054045 95.929189
7845 8 1 39.560333 -52.518674 96.161418
7846 8 1 39.759122 -52.662123 95.191931
7847 8 1 40.045445 -52.217970 94.342962
7848 8 1 39.133811 -51.809987 94.392687
7849 8 1 39.552432 -51.341850 93.614482
7850 8 1 39.784784 -51.002665 92.702909
7851 8 1 39.725061 -50.202945 92.105513
7852 8 1 39.174011 -50.996830 91.848433
7853 8 1 38.281724 -51.434977 91.957301
7854 8 1 37.765503 -52.261145 91.731553
7855 8 1 37.492875 -52.096145 92.679418
7856 8 1 37.654093 -53.012942 93.044784
7857 8 1 37.178844 -53.426676 92.268277
7858 8 1 36.469160 -52.968808 91.732829
7859 8 1 35.988152 -53.767091 92.095287
7860 8 1 36.264280 -54.719958 91.969593
7861 8 1 35.335139 -54.662912 92.334892
7862 8 1 34.616515 -54.099405 91.927413
7863 8 1 33.981741 -54.444598 91.236108
7864 8 1 33.501073 -53.576458 91.359768
7865 8 1 33.445093 -52.938971 90.591343
7866 8 1 33.076200 -52.081130 90.949151
7867 8 1 32.229329 -52.410151 91.366950
7868 8 1 31.405858 -52.654645 91.878924
7869 8 1 31.705115 -53.117515 92.713309
7870 8 1 30.803218 -52.685565 92.712386
7871 8 1 31.011606 -53.629647 92.967893
7872 8 1 30.794859 -53.013006 93.724712
7873 8 1 31.632973 -53.112805 94.261000
7874 8 1 31.190804 -53.837814 93.732938
7875 8 1 30.524717 -54.563840 93.903857
7876 8 1 31.274712 -55.160908 93.619222
7877 8 1 31.533930 -54.831253 92.711404
7878 8 1 30.772660 -54.832515 92.062971
7879 8 1 30.392253 -53.966027 91.739724
7880 8 1 30.505205 -53.293089 91.008700
7881 8 1 30.732609 -53.581599 90.078619
7882 8 1 30.375134 -54.398437 90.531373
7883 8 1 31.062339 -55.083529 90.773031
7884 8 1 31.357799 -54.506458 90.011655
7885 8 1 31.666559 -55.453998 89.928977
7886 8 1 30.780462 -55.407161 89.467850
7887 8 1 30.986291 -56.167176 88.851398
7888 8 1 31.130115 -55.199435 88.644532
7889 8 1 31.386507 -54.963188 87.707275
7890 8 1 30.707342 -54.363993 87.283366
7891 8 1 30.648786 -55.361015 87.333555
7892 8 1 30.657883 -56.358856 87.398598
7893 8 1 29.716082 -56.688618 87.333268
7894 8 1 29.771021 -56.041157 88.093383
7895 8 1 29.502830 -55.078742 88.050582
7896 8 1 28.995787 -55.011032 88.909839
7897 8 1 28.608404 -54.479401 88.156644
7898 8 1 29.455738 -54.145440 87.743732
7899 8 1 28.878754 -53.602099 87.133921
7900 8 1 28.683907 -52.629521 87.006925
7901 8 1 28.022524 -53.230116 87.456213
7902 8 1 28.108939 -54.173557 87.136133
7903 8 1 27.491797 -53.494082 86.739335
7904 8 1 27.677448 -52.522062 86.883250
7905 8 1 26.797311 -52.832636 86.524219
7906 8 1 27.517658 -52.475620 85.929544
7907 8 1 28.447427 -52.811957 86.079237
7908 8 1 28.549833 -51.824066 85.962686
7909 8 1 28.977417 -51.070085 86.461369
7910 8 1 29.595084 -50.477137 86.977993
7911 8 1 29.187329 -49.783333 87.571602
7912 8 1 28.248063 -49.528667 87.341548
7913 8 1 28.461084 -49.053490 86.487834
7914 8 1 29.266876 -49.644774 86.454906
7915 8 1 29.362474 -50.454401 85.875800
7916 8 1 29.558051 -49.709472 85.237968
7917 8 1 28.694228 -49.249980 85.444551
7918 8 1 28.204217 -48.498806 85.886849
7919 8 1 29.044497 -48.072397 86.221667
7920 8 1 28.195854 -47.720284 86.616410
7921 8 1 27.480948 -48.154032 87.164836
7922 8 1 26.595229 -48.616704 87.126926
7923 8 1 26.661812 -47.904738 87.825976
7924 8 1 25.927897 -48.582545 87.781850
7925 8 1 25.390281 -47.843739 88.188216
7926 8 1 24.422901 -48.066874 88.068276
7927 8 1 23.676476 -47.411004 88.180904
7928 8 1 24.566100 -47.001133 88.382333
7929 8 1 24.930900 -46.516703 89.177474
7930 8 1 25.582396 -46.690517 88.439002
7931 8 1 26.233043 -45.942135 88.310231
7932 8 1 27.211612 -45.832975 88.484834
7933 8 1 27.832146 -45.384569 89.128162
7934 8 1 28.030996 -46.008915 89.883576
7935 8 1 27.905018 -46.998315 89.955807
7936 8 1 27.314474 -47.764518 90.209165
7937 8 1 26.646887 -47.438867 90.878701
7938 8 1 25.982119 -46.695668 90.954464
7939 8 1 26.020355 -45.971516 90.265884
7940 8 1 25.129010 -45.775934 90.674848
7941 8 1 24.545903 -44.963566 90.668141
7942 8 1 25.493372 -44.931467 90.349910
7943 8 1 24.817004 -44.696940 89.651682
7944 8 1 25.288050 -45.448804 89.190362
7945 8 1 26.039394 -46.105724 89.127604
7946 8 1 26.297443 -46.673699 89.909150
7947 8 1 26.115473 -47.647611 89.773571
7948 8 1 25.502156 -47.387121 89.027925
7949 8 1 26.209053 -48.076721 88.870610
7950 8 1 27.015346 -47.496789 88.987108
7951 8 1 27.982027 -47.609476 89.216955
7952 8 1 28.954541 -47.671682 88.992574
7953 8 1 28.533821 -48.570702 89.114060
7954 8 1 28.164088 -49.481616 89.297176
7955 8 1 28.289406 -48.750767 89.968113
7956 8 1 27.452507 -48.764860 90.515289
7957 8 1 27.459546 -47.899496 91.016383
7958 8 1 28.281926 -48.086420 90.479027
7959 8 1 28.954659 -47.759839 89.815118
7960 8 1 29.918066 -48.022275 89.869643
7961 8 1 30.587251 -47.868701 90.596697
7962 8 1 30.693855 -47.200234 89.860635
7963 8 1 29.763723 -47.029955 89.535273
7964 8 1 29.082290 -46.529105 90.068938
7965 8 1 30.035549 -46.422499 90.351663
7966 8 1 31.030426 -46.453841 90.255555
7967 8 1 30.638580 -46.184332 89.375884
7968 8 1 30.909733 -46.897784 88.729771
7969 8 1 31.687127 -46.371719 88.384932
7970 8 1 31.921659 -45.763925 87.626261
7971 8 1 31.378341 -46.146012 86.878722
7972 8 1 30.485371 -45.974108 87.294718
7973 8 1 30.463343 -45.456108 86.439622
7974 8 1 30.974795 -44.641254 86.166804
7975 8 1 31.650365 -43.904070 86.153969
7976 8 1 30.685142 -43.801624 85.913451
7977 8 1 31.055666 -44.077902 86.800233
7978 8 1 30.326709 -43.421793 86.995539
7979 8 1 29.540172 -43.206506 86.416738
7980 8 1 29.867726 -42.978127 85.499922
7981 8 1 30.131337 -42.259173 84.856794
7982 8 1 29.184231 -42.264971 85.177662
7983 8 1 29.440381 -42.446914 86.127022
7984 8 1 28.515016 -42.652439 86.445549
7985 8 1 27.852986 -42.123253 85.914815
7986 8 1 28.765881 -41.831469 86.200270
7987 8 1 29.295652 -41.361850 85.494013
7988 8 1 29.132511 -41.088845 84.545934
7989 8 1 29.409635 -40.422450 85.238119
7990 8 1 29.896660 -40.547409 86.102522
7991 8 1 30.245080 -41.078769 86.874701
7992 8 1 30.088942 -41.425147 87.799711
7993 8 1 29.557350 -40.655676 87.445698
7994 8 1 30.315089 -40.525049 88.085047
7995 8 1 29.370145 -40.198694 88.108972
7996 8 1 28.432332 -40.472276 87.895289
7997 8 1 29.103377 -40.827159 88.546255
7998 8 1 29.367737 -40.337871 89.377346
7999 8 1 28.690615 -41.067447 89.281298
8000 8 1 27.763802 -40.967501 89.643275
8001 9 1 4.251770 -32.561221 89.994940
8002 9 1 3.667547 -32.770296 90.779142
8003 9 1 2.866445 -32.211778 90.563981
8004 9 1 3.695403 -31.909989 91.034887
8005 9 1 3.193870 -31.231823 90.497714
8006 9 1 3.183812 -30.676306 91.329158
8007 9 1 2.330437 -30.155644 91.354888
8008 9 1 2.402894 -29.262536 91.798859
8009 9 1 2.912895 -29.407808 92.646676
8010 9 1 2.916683 -28.463032 92.974370
8011 9 1 2.403503 -28.516247 92.117741
8012 9 1 1.526351 -28.982518 92.002869
8013 9 1 1.563065 -28.027330 92.296585
8014 9 1 1.883255 -28.298738 91.388942
8015 9 1 1.486653 -27.668595 90.721390
8016 9 1 1.579180 -27.686857 89.725847
8017 9 1 0.965332 -27.993746 88.998517
8018 9 1 0.006837 -27.852198 88.751026
8019 9 1 -0.525466 -27.445402 89.493435
8020 9 1 -0.791112 -26.609024 89.013953
8021 9 1 -1.387648 -26.637868 88.211886
8022 9 1 -2.284986 -26.275996 87.959233
8023 9 1 -2.618136 -25.436359 87.530257
8024 9 1 -2.366171 -25.190643 86.594234
8025 9 1 -2.950795 -25.564405 85.874154
8026 9 1 -3.271378 -26.493098 86.060584
8027 9 1 -3.901952 -25.875176 85.590957
8028 9 1 -3.489814 -24.969819 85.693286
8029 9 1 -3.293940 -24.041198 85.378172
8030 9 1 -4.109618 -23.552509 85.068575
8031 9 1 -4.740501 -23.052667 84.475157
8032 9 1 -5.246613 -22.304807 84.904758
8033 9 1 -4.300169 -22.223645 85.217259
8034 9 1 -4.789486 -23.058002 85.471068
8035 9 1 -4.881983 -22.321379 86.141018
8036 9 1 -5.167996 -23.019929 86.796933
8037 9 1 -4.554273 -22.314154 87.150805
8038 9 1 -3.685430 -22.033961 87.558976
8039 9 1 -3.953530 -21.111735 87.837580
8040 9 1 -3.415791 -20.333198 88.161181
8041 9 1 -2.988305 -21.009889 88.760635
8042 9 1 -2.622081 -21.202897 87.850346
8043 9 1 -1.936830 -20.506842 87.636009
8044 9 1 -2.789642 -19.987830 87.693792
8045 9 1 -2.357614 -19.452040 88.419244
8046 9 1 -1.558704 -18.989710 88.034544
8047 9 1 -1.907428 -18.125493 87.671886
8048 9 1 -1.216932 -17.555049 88.116641
8049 9 1 -0.919423 -18.509742 88.123681
8050 9 1 -0.005060 -18.616172 88.514336
8051 9 1 0.556659 -18.268594 87.763562
8052 9 1 0.254488 -17.699572 86.998770
8053 9 1 -0.381667 -17.950961 87.728229
8054 9 1 -0.779383 -18.618688 87.098973
8055 9 1 -0.580085 -19.397467 86.504176
8056 9 1 -1.120376 -19.448452 85.664244
8057 9 1 -1.181591 -20.225383 85.037641
8058 9 1 -0.716156 -20.105088 84.160772
8059 9 1 -1.093897 -19.725319 83.316327
8060 9 1 -1.985138 -19.873089 82.887544
8061 9 1 -1.784926 -20.615575 82.248302
8062 9 1 -1.839658 -21.385301 82.884326
8063 9 1 -1.565716 -22.286099 83.221253
8064 9 1 -2.091334 -22.457388 84.054551
8065 9 1 -2.418248 -22.292723 83.123953
8066 9 1 -2.300429 -21.561670 83.796024
8067 9 1 -2.735079 -20.885904 84.391357
8068 9 1 -1.754587 -20.782626 84.558593
8069 9 1 -0.755700 -20.818266 84.589489
8070 9 1 -0.680613 -21.298252 83.715431
8071 9 1 -0.482468 -22.274752 83.800205
8072 9 1 -0.255042 -21.932775 84.711978
8073 9 1 -1.089908 -22.483073 84.725051
8074 9 1 -1.894129 -23.045058 84.918447
8075 9 1 -2.439798 -23.808386 84.572651
8076 9 1 -3.024391 -24.619673 84.564575
8077 9 1 -2.624021 -25.428979 84.994376
8078 9 1 -2.100530 -24.583374 84.889926
8079 9 1 -1.343263 -24.903254 84.320520
8080 9 1 -1.410513 -24.343079 83.494880
8081 9 1 -0.414016 -24.266728 83.460774
8082 9 1 -0.812896 -23.874297 84.289564
8083 9 1 -0.166005 -23.117395 84.382460
8084 9 1 -0.527768 -22.767679 85.246651
8085 9 1 -0.664528 -23.757694 85.212500
8086 9 1 -0.224261 -24.593505 84.884498
8087 9 1 0.508209 -24.962987 85.456312
8088 9 1 0.704970 -25.941710 85.398121
8089 9 1 1.428849 -25.253920 85.452386
8090 9 1 1.338973 -25.261673 84.456463
8091 9 1 1.201344 -26.248051 84.366372
8092 9 1 0.476523 -26.697985 84.888094
8093 9 1 0.403699 -27.642819 84.568743
8094 9 1 -0.414512 -28.215184 84.514621
8095 9 1 0.315262 -28.301367 83.836386
8096 9 1 1.314660 -28.316700 83.867520
8097 9 1 1.978262 -29.029312 84.095151
8098 9 1 2.323713 -28.439123 84.824768
8099 9 1 3.173687 -27.936047 84.668375
8100 9 1 2.368511 -27.756596 84.103141
8101 9 1 2.490182 -28.477930 83.421325
8102 9 1 2.028718 -29.319912 83.141831
8103 9 1 2.965341 -29.303632 83.491790
8104 9 1 2.937936 -30.237572 83.848168
8105 9 1 2.665176 -30.767649 83.045285
8106 9 1 3.587438 -30.405030 82.911344
8107 9 1 2.781716 -30.075978 82.418865
8108 9 1 2.787609 -29.629759 81.523961
8109 9 1 1.820669 -29.667827 81.776109
8110 9 1 1.520638 -30.023625 80.891016
8111 9 1 2.011409 -29.784721 80.053121
8112 9 1 2.369705 -30.187552 80.895351
8113 9 1 2.069122 -29.235733 80.834605
8114 9 1 1.868812 -28.428782 80.278993
8115 9 1 1.573993 -27.513156 80.552328
8116 9 1 2.378000 -26.920377 80.505576
8117 9 1 1.821315 -26.120095 80.282752
8118 9 1 1.692183 -25.263974 80.783134
8119 9 1 1.301987 -25.930492 81.418352
8120 9 1 0.784491 -26.214854 82.225406
8121 9 1 0.485610 -26.823487 82.960413
8122 9 1 0.404624 -27.240018 83.865921
8123 9 1 -0.531912 -26.921761 84.012935
8124 9 1 -0.128420 -26.113470 83.584147
8125 9 1 -1.096331 -26.233442 83.804950
8126 9 1 -1.550191 -26.470253 82.945920
8127 9 1 -0.746156 -26.830238 82.472697
8128 9 1 -0.893284 -25.843033 82.534178
8129 9 1 -0.254040 -25.629932 81.795291
8130 9 1 -0.297691 -26.619974 81.661464
8131 9 1 0.511033 -26.741848 81.086041
8132 9 1 0.273378 -25.863642 80.670981
8133 9 1 -0.674377 -26.119188 80.480045
8134 9 1 -1.421249 -26.558919 80.978863
8135 9 1 -0.900778 -27.311995 81.381340
8136 9 1 -1.312179 -27.795180 82.154179
8137 9 1 -1.904466 -28.233238 81.477939
8138 9 1 -2.896711 -28.156853 81.576005
8139 9 1 -3.075084 -27.448281 80.893284
8140 9 1 -2.151747 -27.318565 80.531868
8141 9 1 -2.726274 -26.736557 79.956381
8142 9 1 -2.396641 -25.930084 80.447242
8143 9 1 -2.562031 -26.503016 81.249985
8144 9 1 -2.828704 -26.044332 82.097626
8145 9 1 -3.795766 -26.017805 81.844471
8146 9 1 -4.039672 -26.978613 81.976219
8147 9 1 -3.920215 -27.938821 81.723768
8148 9 1 -4.105806 -28.517523 82.517909
8149 9 1 -4.623961 -28.346328 81.679931
8150 9 1 -5.273990 -27.692586 82.067339
8151 9 1 -5.466964 -28.673559 82.088625
8152 9 1 -6.370484 -29.095592 82.014188
8153 9 1 -6.530477 -29.403151 82.952170
8154 9 1 -6.032191 -28.586246 83.242649
8155 9 1 -6.580248 -28.131860 83.944907
8156 9 1 -6.838617 -28.747909 84.689037
8157 9 1 -6.446914 -29.033625 83.814432
8158 9 1 -7.417531 -28.854127 83.654169
8159 9 1 -8.410959 -28.912786 83.555887
8160 9 1 -8.160900 -28.089676 83.046024
8161 9 1 -8.685660 -28.356126 82.237549
8162 9 1 -9.568425 -27.888191 82.195573
8163 9 1 -10.347957 -27.339441 82.497572
8164 9 1 -9.622338 -26.752699 82.138113
8165 9 1 -9.879428 -26.511751 81.202245
8166 9 1 -9.695465 -27.328499 80.655364
8167 9 1 -8.824735 -26.966760 80.322235
8168 9 1 -8.960903 -27.508898 81.151418
8169 9 1 -9.918857 -27.547762 81.435695
8170 9 1 -10.763138 -27.020042 81.528982
8171 9 1 -10.605299 -26.062706 81.771045
8172 9 1 -10.606797 -25.081070 81.580286
8173 9 1 -10.667147 -24.222557 81.071059
8174 9 1 -9.850682 -24.260284 80.494897
8175 9 1 -10.706576 -24.551865 80.067784
8176 9 1 -10.108596 -24.266427 79.318822
8177 9 1 -10.809180 -24.843311 78.898837
8178 9 1 -10.949393 -25.638443 78.308833
8179 9 1 -11.397881 -25.703365 79.200261
8180 9 1 -11.976570 -25.281202 78.502481
8181 9 1 -12.540581 -24.457652 78.442002
8182 9 1 -12.994955 -23.742914 78.973690
8183 9 1 -13.582512 -24.433433 79.395544
8184 9 1 -14.053104 -25.237995 79.757792
8185 9 1 -14.910290 -25.613119 79.404928
8186 9 1 -15.863953 -25.522508 79.118019
8187 9 1 -15.780278 -26.510138 79.250625
8188 9 1 -16.381419 -27.207620 78.860561
8189 9 1 -16.348853 -28.063355 79.376949
8190 9 1 -16.400823 -28.844345 78.754571
8191 9 1 -16.767436 -28.446929 77.913348
8192 9 1 -17.340116 -27.663128 77.673155
8193 9 1 -17.051550 -27.102952 76.896668
8194 9 1 -17.289705 -26.146235 76.729411
8195 9 1 -17.960491 -25.609989 76.217077
8196 9 1 -18.910173 -25.569770 75.906454
8197 9 1 -19.497510 -24.949291 75.386799
8198 9 1 -19.354399 -24.133145 75.946641
8199 9 1 -20.133877 -23.956413 76.547624
8200 9 1 -19.578642 -24.783692 76.633199
8201 9 1 -19.246366 -25.012090 77.548310
8202 9 1 -18.587113 -24.375066 77.947792
8203 9 1 -19.199127 -24.412005 78.737776
8204 9 1 -19.588985 -25.087378 79.363781
8205 9 1 -20.283921 -25.081814 80.082831
8206 9 1 -19.908927 -24.286277 80.558751
8207 9 1 -19.183670 -23.705695 80.928786
8208 9 1 -18.381565 -23.148812 80.713127
8209 9 1 -18.838114 -22.450070 81.263875
8210 9 1 -19.076633 -22.589822 80.302845
8211 9 1 -19.728709 -22.602167 81.060898
8212 9 1 -20.397953 -23.340637 80.978592
8213 9 1 -21.165265 -23.177663 80.358373
8214 9 1 -21.729847 -22.736165 81.055745
8215 9 1 -22.624282 -22.889142 81.475962
8216 9 1 -22.176865 -22.942508 82.368693
8217 9 1 -21.457859 -22.826638 83.053970
8218 9 1 -20.987746 -22.952428 83.927567
8219 9 1 -20.344680 -23.004513 84.691605
8220 9 1 -19.398005 -22.860012 84.403637
8221 9 1 -19.010692 -22.203840 85.051270
8222 9 1 -19.976141 -22.172744 84.792541
8223 9 1 -19.983065 -21.210997 84.518691
8224 9 1 -20.506608 -21.523182 83.725947
8225 9 1 -20.361571 -20.658616 83.244812
8226 9 1 -20.737981 -19.742562 83.383238
8227 9 1 -20.133792 -18.975532 83.167322
8228 9 1 -19.899591 -18.637888 84.078994
8229 9 1 -19.028943 -18.375877 83.662674
8230 9 1 -19.596840 -18.241902 82.850551
8231 9 1 -19.858454 -18.650195 81.975992
8232 9 1 -19.700237 -19.164313 81.132991
8233 9 1 -18.981409 -19.057860 81.819980
8234 9 1 -17.984406 -19.025489 81.890250
8235 9 1 -18.640152 -18.381325 81.496487
8236 9 1 -19.197094 -17.752332 82.038873
8237 9 1 -18.213889 -17.766341 82.220840
8238 9 1 -17.826463 -18.324769 81.487316
8239 9 1 -17.690901 -18.448410 80.504292
8240 9 1 -17.109450 -19.047489 81.054765
8241 9 1 -16.619859 -19.875256 80.780718
8242 9 1 -16.009168 -19.914485 81.571615
8243 9 1 -15.599427 -20.823583 81.496440
8244 9 1 -16.512857 -21.130291 81.763974
8245 9 1 -16.527620 -21.351702 80.788905
8246 9 1 -16.266117 -21.920866 80.009374
8247 9 1 -16.475480 -21.687109 79.059887
8248 9 1 -16.634884 -22.443190 78.425118
8249 9 1 -16.400416 -23.279938 77.930267
8250 9 1 -16.545215 -24.269246 77.947677
8251 9 1 -15.768131 -24.806491 77.619792
8252 9 1 -15.800084 -23.973770 77.067022
8253 9 1 -15.537700 -24.015784 76.102974
8254 9 1 -15.168984 -23.140471 76.415823
8255 9 1 -14.911648 -23.045310 77.377448
8256 9 1 -15.235973 -23.386879 78.259572
8257 9 1 -15.014211 -23.082696 79.186014
8258 9 1 -14.113792 -22.974792 78.764587
8259 9 1 -13.180614 -22.627406 78.672374
8260 9 1 -12.282196 -22.283476 78.945423
8261 9 1 -12.306597 -21.791139 79.815485
8262 9 1 -11.419242 -21.771308 80.276146
8263 9 1 -11.501387 -20.810397 80.540534
8264 9 1 -11.422681 -20.219569 79.737584
8265 9 1 -11.029448 -19.478169 79.193807
8266 9 1 -11.195450 -19.026776 80.070555
8267 9 1 -11.668373 -18.998139 80.951193
8268 9 1 -12.646067 -19.166005 81.077428
8269 9 1 -12.572314 -18.258194 81.490269
8270 9 1 -12.881172 -17.615684 82.191545
8271 9 1 -13.067721 -16.823770 82.772985
8272 9 1 -12.589388 -16.012209 82.437478
8273 9 1 -12.173686 -15.875598 81.538295
8274 9 1 -11.498880 -16.482603 81.118555
8275 9 1 -11.129077 -15.679153 80.651956
8276 9 1 -10.386200 -15.317440 80.088665
8277 9 1 -11.065104 -14.750152 80.554790
8278 9 1 -10.112603 -14.960825 80.774691
8279 9 1 -9.865988 -14.012892 80.573186
8280 9 1 -9.480964 -13.330433 79.951893
8281 9 1 -9.513126 -14.076070 79.286318
8282 9 1 -8.744108 -14.706693 79.181791
8283 9 1 -8.992721 -14.041341 78.477875
8284 9 1 -8.920585 -13.275300 77.839143
8285 9 1 -9.071700 -12.689031 78.635040
8286 9 1 -9.996468 -12.686053 79.015560
8287 9 1 -10.586767 -11.881021 78.956648
8288 9 1 -10.247867 -11.618688 79.860157
8289 9 1 -9.472901 -11.027431 79.636897
8290 9 1 -9.144876 -11.714139 80.285613
8291 9 1 -9.189694 -11.040225 81.023062
8292 9 1 -9.728549 -10.415006 80.458494
8293 9 1 -9.474087 -9.784262 81.191577
8294 9 1 -8.497507 -9.586029 81.107937
8295 9 1 -7.894398 -10.315393 80.785001
8296 9 1 -6.973776 -10.672232 80.943501
8297 9 1 -7.227060 -11.516294 81.416159
8298 9 1 -7.278129 -12.447050 81.778216
8299 9 1 -8.260833 -12.267904 81.731333
8300 9 1 -7.976045 -11.797858 82.566769
8301 9 1 -7.576498 -10.894325 82.721655
8302 9 1 -8.484770 -11.191807 82.427469
8303 9 1 -8.061715 -11.115691 83.330370
8304 9 1 -8.411416 -10.299881 83.790982
8305 9 1 -7.778576 -9.541508 83.634826
8306 9 1 -7.312220 -10.416588 83.764237
8307 9 1 -7.578229 -11.356685 83.977447
8308 9 1 -7.073682 -10.900583 84.710525
8309 9 1 -6.342467 -10.484431 84.170023
8310 9 1 -6.847087 -9.655449 84.411161
8311 9 1 -7.018335 -8.680888 84.266572
8312 9 1 -6.205386 -8.791568 83.694851
8313 9 1 -6.619412 -7.884708 83.773508
8314 9 1 -5.934791 -7.217486 83.480063
8315 9 1 -5.640879 -7.296603 84.432616
8316 9 1 -5.386047 -7.784475 85.267505
8317 9 1 -4.914451 -8.186080 84.482450
8318 9 1 -4.778178 -9.104366 84.854175
8319 9 1 -4.326939 -9.177264 85.743596
8320 9 1 -4.716777 -8.369995 86.186703
8321 9 1 -3.796472 -8.395671 85.796346
8322 9 1 -3.574093 -8.519026 86.763472
8323 9 1 -2.890782 -9.243796 86.851756
8324 9 1 -2.230244 -8.718343 86.315483
8325 9 1 -1.478452 -8.276721 86.805157
8326 9 1 -1.365812 -7.945939 87.742117
8327 9 1 -1.439429 -7.312521 88.512418
8328 9 1 -0.485404 -7.553960 88.690022
8329 9 1 -0.806520 -8.500129 88.649430
8330 9 1 -1.653678 -8.673427 89.151716
8331 9 1 -2.561028 -8.825665 89.543558
8332 9 1 -2.063021 -9.690970 89.486667
8333 9 1 -1.305228 -9.860939 90.116635
8334 9 1 -1.730220 -8.958231 90.049553
8335 9 1 -1.442142 -8.564591 90.922513
8336 9 1 -1.911495 -7.683026 90.973016
8337 9 1 -1.983015 -7.273618 90.063472
8338 9 1 -1.146705 -7.456149 89.546491
8339 9 1 -0.690543 -8.012826 90.240772
8340 9 1 -0.488800 -7.077515 90.531447
8341 9 1 0.428068 -6.809281 90.827087
8342 9 1 0.420353 -5.854953 91.125748
8343 9 1 -0.254662 -5.475539 91.758520
8344 9 1 -1.083208 -5.470427 92.318418
8345 9 1 -1.292404 -5.071584 93.211257
8346 9 1 -1.232594 -4.273348 92.611889
8347 9 1 -1.946720 -4.958846 92.753725
8348 9 1 -2.908304 -4.857263 93.008750
8349 9 1 -3.011114 -5.540815 93.731374
8350 9 1 -2.607263 -5.634685 94.641370
8351 9 1 -2.560842 -6.630916 94.714643
8352 9 1 -2.472984 -7.330984 95.423294
8353 9 1 -3.355930 -6.950707 95.147982
8354 9 1 -3.783738 -7.146708 94.265619
8355 9 1 -3.811191 -7.374432 93.292280
8356 9 1 -4.701908 -7.729088 93.576611
8357 9 1 -4.908629 -8.510713 92.988114
8358 9 1 -5.737647 -8.747760 92.481619
8359 9 1 -6.118741 -8.688296 91.558997
8360 9 1 -5.425310 -8.173426 91.054951
8361 9 1 -6.237674 -8.670374 90.749817
8362 9 1 -6.286004 -9.147917 89.872539
8363 9 1 -6.013780 -8.195367 89.736365
8364 9 1 -6.592137 -7.379584 89.735871
8365 9 1 -6.503030 -6.483195 89.301652
8366 9 1 -6.789054 -7.072429 88.546010
8367 9 1 -6.794576 -6.095497 88.332533
8368 9 1 -5.900014 -6.424003 88.029478
8369 9 1 -6.223861 -5.529875 87.720190
8370 9 1 -5.836654 -5.524861 88.642169
8371 9 1 -6.670627 -5.066114 88.948831
8372 9 1 -7.596838 -5.278231 89.260502
8373 9 1 -7.892116 -4.462035 88.763877
8374 9 1 -7.025794 -4.296542 89.235150
8375 9 1 -7.331662 -4.072064 88.309918
8376 9 1 -6.410253 -4.305003 87.998880
8377 9 1 -5.838128 -4.637607 87.249182
8378 9 1 -5.990839 -4.575497 86.262864
8379 9 1 -5.196615 -5.180795 86.315998
8380 9 1 -4.480305 -5.866660 86.187593
8381 9 1 -5.193333 -6.297063 86.741076
8382 9 1 -6.155014 -6.066789 86.592268
8383 9 1 -6.379945 -5.409421 85.873050
8384 9 1 -7.008551 -5.056527 86.566102
8385 9 1 -7.369108 -5.973094 86.739025
8386 9 1 -7.995373 -6.673994 86.397658
8387 9 1 -8.388945 -5.800347 86.683739
8388 9 1 -9.231359 -5.381419 87.022617
8389 9 1 -8.704724 -4.641714 86.603699
8390 9 1 -8.516115 -5.021190 87.509472
8391 9 1 -7.756158 -4.498069 87.123713
8392 9 1 -8.410179 -4.007199 87.699303
8393 9 1 -8.511670 -3.039407 87.468917
8394 9 1 -7.677016 -3.440160 87.846741
8395 9 1 -8.145481 -3.661492 88.702049
8396 9 1 -8.385489 -3.139870 89.520771
8397 9 1 -7.647702 -3.540704 90.063912
8398 9 1 -6.807278 -3.318057 89.569831
8399 9 1 -6.175781 -2.560995 89.737365
8400 9 1 -5.394202 -2.639310 90.356236
8401 9 1 -5.263453 -3.471736 89.817746
8402 9 1 -4.635427 -3.347253 89.049575
8403 9 1 -4.605777 -2.417235 88.683258
8404 9 1 -4.057908 -1.650198 88.349351
8405 9 1 -3.760979 -0.773703 88.728283
8406 9 1 -2.951181 -0.981658 88.179665
8407 9 1 -2.861024 0.014246 88.186509
8408 9 1 -2.568309 -0.647327 88.876900
8409 9 1 -1.838759 0.005586 89.080519
8410 9 1 -1.938910 0.851965 88.557440
8411 9 1 -2.308917 1.725781 88.241940
8412 9 1 -3.181853 2.190991 88.388783
8413 9 1 -2.993625 1.928624 89.335215
8414 9 1 -2.087693 1.635802 89.029370
8415 9 1 -2.576161 1.437663 89.879158
8416 9 1 -3.473512 1.072098 89.631927
8417 9 1 -3.048095 0.199080 89.393473
8418 9 1 -3.166765 -0.335844 90.229997
8419 9 1 -3.454169 -1.293290 90.203608
8420 9 1 -2.577870 -1.130699 89.750106
8421 9 1 -2.690033 -1.287928 90.731278
8422 9 1 -3.242833 -1.550818 91.522037
8423 9 1 -3.916168 -2.183338 91.904840
8424 9 1 -4.438859 -2.172610 91.052386
8425 9 1 -5.141286 -2.593762 91.626169
8426 9 1 -5.200259 -3.250308 92.378146
8427 9 1 -5.098498 -2.733717 93.228310
8428 9 1 -5.579301 -2.505815 92.381617
8429 9 1 -6.165845 -3.281755 92.613745
8430 9 1 -6.255308 -2.355879 92.980830
8431 9 1 -6.550777 -3.236378 93.351532
8432 9 1 -6.767161 -4.121484 93.763556
8433 9 1 -7.629054 -3.652505 93.570688
8434 9 1 -7.385555 -3.624284 94.540179
8435 9 1 -6.467011 -3.229812 94.514296
8436 9 1 -6.113710 -2.355354 94.846715
8437 9 1 -5.455396 -3.086949 95.023891
8438 9 1 -5.508635 -3.087413 94.025309
8439 9 1 -6.033850 -3.922428 94.189313
8440 9 1 -5.680053 -4.425364 94.977908
8441 9 1 -6.660803 -4.614971 94.931232
8442 9 1 -6.428291 -5.384480 94.336425
8443 9 1 -5.578896 -5.070883 93.911944
8444 9 1 -5.587307 -5.956438 94.376402
8445 9 1 -5.668819 -6.123942 95.358898
8446 9 1 -5.019191 -5.365441 95.307320
8447 9 1 -4.338352 -6.070892 95.504295
8448 9 1 -4.246333 -6.054598 96.499919
8449 9 1 -3.562496 -5.324968 96.502806
8450 9 1 -3.081551 -5.731801 97.279451
8451 9 1 -3.951903 -5.296629 97.509913
8452 9 1 -4.931792 -5.162638 97.362050
8453 9 1 -5.434256 -4.452336 96.869098
8454 9 1 -6.092046 -3.701868 96.804989
8455 9 1 -6.769326 -4.149150 96.220840
8456 9 1 -7.207913 -5.029272 96.402574
8457 9 1 -7.309482 -4.579872 95.515036
8458 9 1 -8.197884 -4.467787 95.069861
8459 9 1 -8.877724 -5.115925 94.726738
8460 9 1 -8.217432 -5.607667 94.159108
8461 9 1 -7.408162 -5.020471 94.175921
8462 9 1 -7.558251 -5.307165 93.229729
8463 9 1 -8.542535 -5.194768 93.365931
8464 9 1 -8.398650 -4.273769 93.727950
8465 9 1 -9.350292 -3.967271 93.707065
8466 9 1 -9.574248 -4.290117 92.787492
8467 9 1 -10.132139 -3.467862 92.899982
8468 9 1 -10.943931 -3.950366 93.228894
8469 9 1 -10.874612 -4.880121 93.590489
8470 9 1 -10.262742 -5.246782 92.889650
8471 9 1 -10.756446 -5.683922 92.137876
8472 9 1 -10.991340 -4.918187 92.736604
8473 9 1 -11.890826 -5.353913 92.769272
8474 9 1 -11.835017 -4.537464 92.194557
8475 9 1 -12.527324 -4.703827 91.492393
8476 9 1 -11.992440 -5.150753 90.775347
8477 9 1 -11.750703 -6.120251 90.815815
8478 9 1 -11.152492 -5.555497 91.384319
8479 9 1 -10.935709 -6.496707 91.643413
8480 9 1 -10.474914 -7.213051 92.167358
8481 9 1 -11.354330 -7.469234 92.568605
8482 9 1 -10.996184 -8.219589 92.012999
8483 9 1 -10.649889 -8.601871 91.156295
8484 9 1 -11.537380 -8.244792 90.864995
8485 9 1 -10.964622 -7.656623 91.435965
8486 9 1 -11.101592 -6.980395 90.712118
8487 9 1 -11.386292 -7.427616 89.864216
8488 9 1 -10.655807 -8.088072 89.690468
8489 9 1 -11.240689 -7.706721 88.974588
8490 9 1 -11.680737 -6.826045 88.799176
8491 9 1 -11.435900 -5.962221 88.358877
8492 9 1 -11.038709 -5.656864 87.493431
8493 9 1 -11.423620 -6.296903 86.828454
8494 9 1 -10.490724 -6.238463 86.473081
8495 9 1 -9.779505 -5.547845 86.341875
8496 9 1 -10.503816 -5.741614 85.680190
8497 9 1 -10.030828 -4.888531 85.900489
8498 9 1 -10.021684 -4.338807 86.735786
8499 9 1 -10.252383 -3.368157 86.803730
8500 9 1 -10.431762 -2.911775 85.932215
8501 9 1 -10.324956 -2.787858 84.945687
8502 9 1 -10.465877 -3.670770 85.393580
8503 9 1 -11.113586 -2.910642 85.341841
8504 9 1 -11.165423 -3.790092 85.815000
8505 9 1 -11.357438 -3.630464 86.783322
8506 9 1 -12.202309 -3.413593 86.294283
8507 9 1 -12.081289 -2.532436 85.837210
8508 9 1 -12.995130 -2.899094 86.011726
8509 9 1 -13.378246 -3.813759 85.882840
8510 9 1 -13.332849 -3.797390 86.881675
8511 9 1 -13.668454 -4.484448 87.526129
8512 9 1 -13.210425 -3.929288 88.220396
8513 9 1 -13.585415 -3.112535 88.658913
8514 9 1 -14.575487 -3.058646 88.788733
8515 9 1 -14.416693 -4.027360 88.979462
8516 9 1 -13.657376 -4.339791 89.550273
8517 9 1 -13.212288 -3.446209 89.608645
8518 9 1 -12.827257 -3.205614 90.499636
8519 9 1 -13.773777 -3.457442 90.297938
8520 9 1 -13.712305 -4.446001 90.435678
8521 9 1 -13.506511 -5.068760 91.190542
8522 9 1 -12.960717 -5.596436 91.841439
8523 9 1 -13.623687 -6.328907 91.996219
8524 9 1 -13.525956 -6.274056 91.002519
8525 9 1 -13.977398 -7.088038 90.636961
8526 9 1 -12.978443 -7.052928 90.666202
8527 9 1 -12.522104 -7.930478 90.519021
8528 9 1 -12.159434 -8.837862 90.731446
8529 9 1 -11.360126 -8.981633 90.147978
8530 9 1 -10.954566 -8.980904 89.233910
8531 9 1 -10.062277 -8.760881 89.628132
8532 9 1 -9.314724 -8.973414 88.998851
8533 9 1 -9.482857 -9.888374 89.365701
8534 9 1 -9.631455 -10.767557 88.912980
8535 9 1 -10.451432 -10.266152 89.189079
8536 9 1 -10.472578 -9.689276 88.372521
8537 9 1 -11.217058 -9.022481 88.406175
8538 9 1 -11.553148 -8.890351 87.473659
8539 9 1 -11.316942 -7.957367 87.202096
8540 9 1 -10.785161 -7.929780 88.048529
8541 9 1 -10.025980 -8.162588 87.440710
8542 9 1 -9.167162 -7.813040 87.815208
8543 9 1 -9.070667 -8.790959 87.629833
8544 9 1 -9.148186 -9.470180 86.900005
8545 9 1 -9.037022 -8.520307 86.607797
8546 9 1 -8.424555 -8.274247 85.856573
8547 9 1 -7.892620 -8.676133 85.111232
8548 9 1 -7.466524 -7.804879 85.354868
8549 9 1 -7.336735 -6.875461 85.700319
8550 9 1 -7.377103 -7.629694 86.355684
8551 9 1 -8.369175 -7.572079 86.467370
8552 9 1 -7.847484 -8.412785 86.612463
8553 9 1 -6.913144 -8.635221 86.890906
8554 9 1 -6.046632 -8.698008 87.386098
8555 9 1 -6.802736 -9.321143 87.586122
8556 9 1 -6.259576 -9.786073 88.285277
8557 9 1 -6.345248 -8.790322 88.319060
8558 9 1 -6.588683 -7.922348 88.751911
8559 9 1 -5.805111 -7.742272 88.157279
8560 9 1 -6.505530 -7.805183 87.446326
8561 9 1 -6.009849 -7.832919 86.578264
8562 9 1 -6.264323 -7.344353 85.743671
8563 9 1 -5.796729 -6.989758 86.553374
8564 9 1 -4.909661 -7.282219 86.910554
8565 9 1 -5.077262 -8.262283 87.017256
8566 9 1 -4.212776 -8.490613 87.465062
8567 9 1 -3.696949 -9.003729 88.151089
8568 9 1 -3.354668 -9.844229 87.731084
8569 9 1 -3.367087 -10.143005 86.776842
8570 9 1 -2.862726 -9.891133 85.950900
8571 9 1 -2.151412 -9.541371 86.560571
8572 9 1 -1.864021 -10.421910 86.183666
8573 9 1 -1.246780 -10.634013 86.941310
8574 9 1 -1.755525 -11.363768 86.484543
8575 9 1 -2.341190 -12.115313 86.180939
8576 9 1 -1.967154 -12.983838 85.855728
8577 9 1 -2.642133 -13.032680 85.119508
8578 9 1 -2.235039 -13.935570 85.257583
8579 9 1 -2.826174 -14.737467 85.170849
8580 9 1 -3.750280 -14.450912 85.423662
8581 9 1 -3.986339 -14.932059 86.267920
8582 9 1 -3.162759 -15.241961 86.742975
8583 9 1 -3.405783 -16.126449 86.344702
8584 9 1 -2.840458 -15.949986 85.538930
8585 9 1 -2.112052 -16.124677 84.876428
8586 9 1 -1.610017 -16.929826 84.560682
8587 9 1 -1.988834 -17.369369 85.375114
8588 9 1 -2.643828 -17.974917 85.827104
8589 9 1 -2.486308 -17.026680 86.102848
8590 9 1 -2.432385 -17.133329 87.095681
8591 9 1 -1.663456 -16.776541 87.626199
8592 9 1 -0.816747 -16.282322 87.429140
8593 9 1 -1.634805 -15.818947 87.769823
8594 9 1 -0.918146 -15.377014 87.230291
8595 9 1 -1.239988 -14.471345 86.954283
8596 9 1 -2.091867 -14.580681 86.442085
8597 9 1 -1.827095 -13.619915 86.524704
8598 9 1 -1.596610 -12.786035 87.026223
8599 9 1 -0.803033 -12.610111 86.443741
8600 9 1 -0.551042 -12.568354 85.476913
8601 9 1 0.057019 -12.648149 86.266783
8602 9 1 0.978264 -13.037077 86.260191
8603 9 1 0.913417 -14.026456 86.390280
8604 9 1 0.258738 -14.182007 87.130009
8605 9 1 -0.125166 -15.081180 87.340022
8606 9 1 0.067575 -15.530058 88.212582
8607 9 1 0.487589 -16.053009 87.470888
8608 9 1 0.835457 -16.664074 88.181934
8609 9 1 0.658948 -17.639976 88.310232
8610 9 1 1.028724 -17.702758 87.383235
8611 9 1 1.740733 -18.402554 87.440942
8612 9 1 2.342177 -17.688187 87.798636
8613 9 1 1.807244 -16.895391 88.090733
8614 9 1 2.239976 -16.704412 88.971795
8615 9 1 2.472166 -15.747637 89.146921
8616 9 1 1.839445 -15.656751 88.377893
8617 9 1 1.884116 -16.271208 87.590209
8618 9 1 2.493325 -15.752777 86.990130
8619 9 1 2.101256 -15.036341 87.567193
8620 9 1 1.372821 -14.435524 87.237950
8621 9 1 1.875913 -14.761348 86.437490
8622 9 1 1.480715 -15.677184 86.366331
8623 9 1 0.588179 -15.236571 86.270205
8624 9 1 1.039598 -15.259678 87.162218
8625 9 1 1.012904 -15.106856 88.150111
8626 9 1 1.571198 -14.281258 88.231941
8627 9 1 2.194540 -13.667393 88.716311
8628 9 1 2.059938 -12.942891 89.392312
8629 9 1 1.904464 -13.387258 90.274563
8630 9 1 1.475415 -12.506091 90.075912
8631 9 1 0.940229 -13.288753 90.393741
8632 9 1 1.481256 -12.752057 91.041234
8633 9 1 1.328437 -12.336507 91.937875
8634 9 1 2.279523 -12.071227 91.779566
8635 9 1 2.921796 -11.826901 92.506058
8636 9 1 3.655685 -11.887765 93.182595
8637 9 1 3.052399 -11.545642 93.903010
8638 9 1 3.775146 -10.875326 94.071273
8639 9 1 3.847986 -10.515083 95.001283
8640 9 1 3.254469 -10.217329 94.253567
8641 9 1 3.211271 -10.068627 95.241505
8642 9 1 3.496736 -9.152518 94.959986
8643 9 1 4.221910 -8.479671 94.813697
8644 9 1 5.142636 -8.089534 94.821197
8645 9 1 6.024565 -7.929596 95.264618
8646 9 1 6.204128 -6.945876 95.257424
8647 9 1 5.473194 -6.946992 95.939872
8648 9 1 4.923164 -6.260807 96.415915
8649 9 1 4.801918 -5.551787 95.721228
8650 9 1 4.081539 -5.047834 96.197763
8651 9 1 3.868585 -4.447708 96.968801
8652 9 1 3.369587 -4.948130 97.676317
8653 9 1 2.504865 -4.950357 98.178562
8654 9 1 1.552186 -4.656272 98.255485
8655 9 1 1.755217 -3.686872 98.117490
8656 9 1 1.653708 -3.201199 98.985717
8657 9 1 2.215089 -2.657656 98.361689
8658 9 1 2.400879 -2.106444 97.548272
8659 9 1 1.483738 -2.184215 97.939174
8660 9 1 1.339026 -3.143360 97.696073
8661 9 1 0.817339 -3.806066 97.158799
8662 9 1 1.368815 -4.553000 96.787364
8663 9 1 1.719518 -5.238198 96.148998
8664 9 1 2.138579 -5.429471 95.261416
8665 9 1 2.902687 -6.043018 95.062169
8666 9 1 2.617685 -6.430689 94.185536
8667 9 1 1.893718 -6.181849 93.542146
8668 9 1 2.185420 -5.225436 93.555686
8669 9 1 2.273422 -4.929096 94.506706
8670 9 1 2.752992 -4.067750 94.339087
8671 9 1 1.831500 -3.835806 94.027552
8672 9 1 1.396917 -3.442554 94.837793
8673 9 1 0.905647 -4.236832 95.195250
8674 9 1 0.372142 -5.050119 95.427495
8675 9 1 0.699712 -5.319770 94.521963
8676 9 1 1.042508 -4.387367 94.407439
8677 9 1 1.054892 -4.183919 93.428432
8678 9 1 1.894029 -3.743391 93.109395
8679 9 1 1.846766 -2.832961 93.520350
8680 9 1 1.963866 -1.852089 93.675841
8681 9 1 2.405563 -1.150454 94.234959
8682 9 1 3.009468 -1.185210 93.438660
8683 9 1 3.632944 -1.419218 92.692659
8684 9 1 4.159425 -0.697232 92.243712
8685 9 1 4.311476 -0.439894 91.289428
8686 9 1 4.774613 -0.889502 90.525651
8687 9 1 3.920974 -0.369989 90.563149
8688 9 1 3.280766 -0.861765 91.153309
8689 9 1 2.635950 -0.765600 90.395045
8690 9 1 2.394750 -0.062295 89.726327
8691 9 1 1.510149 -0.316769 90.117126
8692 9 1 1.991122 -0.917951 89.478968
8693 9 1 2.892034 -1.278425 89.720663
8694 9 1 3.201668 -2.022886 90.312190
8695 9 1 4.186825 -1.999350 90.142156
8696 9 1 4.894958 -2.689589 90.290877
8697 9 1 5.674305 -2.380598 90.835986
8698 9 1 5.264124 -3.105598 91.389273
8699 9 1 4.397323 -2.857965 90.956452
8700 9 1 4.298506 -2.390075 91.834697
8701 9 1 3.393779 -2.807026 91.921991
8702 9 1 4.174489 -2.886493 92.541811
8703 9 1 3.891933 -2.720737 93.486632
8704 9 1 4.739474 -3.250493 93.518760
8705 9 1 5.197740 -2.549054 94.064632
8706 9 1 5.987251 -2.833945 94.608239
8707 9 1 6.392105 -2.270913 95.328717
8708 9 1 6.500273 -3.242667 95.538465
8709 9 1 6.216134 -3.174247 96.494803
8710 9 1 5.668353 -3.584150 97.224129
8711 9 1 5.732866 -4.345246 96.578707
8712 9 1 6.225265 -5.173207 96.310333
8713 9 1 6.584994 -4.242139 96.249440
8714 9 1 7.172899 -4.672412 95.564434
8715 9 1 7.458991 -4.466990 96.500358
8716 9 1 8.224107 -4.695117 97.102484
8717 9 1 8.293665 -4.959508 98.064388
8718 9 1 8.512366 -4.071850 97.659130
8719 9 1 7.627765 -3.745528 97.325973
8720 9 1 7.157697 -3.368435 96.527952
8721 9 1 6.782718 -3.565758 97.433742
8722 9 1 6.234140 -4.286599 97.857357
8723 9 1 5.570542 -4.608855 98.532478
8724 9 1 6.160673 -5.181830 97.963757
8725 9 1 5.602911 -6.009075 98.031342
8726 9 1 5.509792 -6.448591 98.924737
8727 9 1 4.509915 -6.449743 98.909104
8728 9 1 3.624371 -6.013206 99.068001
8729 9 1 3.029221 -5.210504 99.029720
8730 9 1 3.036505 -5.882227 99.770487
8731 9 1 3.563150 -6.728383 99.852123
8732 9 1 3.688714 -7.139313 98.949145
8733 9 1 4.030711 -7.951743 98.476921
8734 9 1 4.552937 -8.025965 97.627349
8735 9 1 5.108343 -8.015312 96.795838
8736 9 1 5.442796 -8.683138 96.130895
8737 9 1 5.685126 -8.715088 97.100562
8738 9 1 5.950996 -8.459815 98.030158
8739 9 1 6.584755 -9.114119 97.617562
8740 9 1 6.118761 -9.971689 97.399795
8741 9 1 6.945106 -10.342245 97.823873
8742 9 1 7.004033 -10.922340 98.636288
8743 9 1 6.069367 -10.744274 98.328567
8744 9 1 5.293599 -10.314076 98.790209
8745 9 1 5.802129 -9.453165 98.805378
8746 9 1 5.880806 -8.461770 98.910004
8747 9 1 6.788211 -8.607231 99.304285
8748 9 1 6.606905 -9.590619 99.313085
8749 9 1 7.310603 -9.124066 99.848939
8750 9 1 7.842964 -9.067119 99.004339
8751 9 1 8.785026 -9.398494 99.056389
8752 9 1 9.316681 -9.116394 98.257789
8753 9 1 9.592335 -8.304860 97.742592
8754 9 1 9.174799 -7.888871 96.934745
8755 9 1 8.703276 -7.109951 97.348206
8756 9 1 7.977000 -7.698651 96.993303
8757 9 1 6.999672 -7.870168 96.869153
8758 9 1 6.017556 -7.888907 97.056494
8759 9 1 6.396413 -7.477836 97.885644
8760 9 1 6.597973 -7.616224 98.855294
8761 9 1 6.769155 -8.519869 98.462710
8762 9 1 7.751872 -8.345422 98.524635
8763 9 1 7.906334 -7.414300 98.194249
8764 9 1 8.304069 -8.215406 97.746994
8765 9 1 8.536087 -7.760301 98.606672
8766 9 1 9.430020 -8.198321 98.701654
8767 9 1 9.224469 -8.119545 99.677125
8768 9 1 10.177734 -7.843165 99.555060
8769 9 1 10.542920 -7.400776 98.735956
8770 9 1 10.670989 -8.392067 98.766631
8771 9 1 11.307343 -8.852037 98.147372
8772 9 1 11.489306 -8.953998 99.125377
8773 9 1 11.573839 -7.958631 99.171186
8774 9 1 11.396709 -7.289893 99.893277
8775 9 1 11.448907 -6.962368 98.949877
8776 9 1 11.302679 -6.637397 98.015526
8777 9 1 11.792530 -5.815122 98.305201
8778 9 1 11.749783 -5.569309 99.273575
8779 9 1 12.208127 -6.398177 98.952797
8780 9 1 12.421629 -5.751347 99.684936
8781 9 1 12.906567 -4.884497 99.800723
8782 9 1 11.984181 -4.727980 99.447584
8783 9 1 11.434217 -4.899567 98.630212
8784 9 1 12.318195 -5.111162 98.213305
8785 9 1 12.228858 -4.179683 97.860651
8786 9 1 12.371748 -3.625447 98.680654
8787 9 1 11.473581 -3.794269 99.086605
8788 9 1 10.991530 -3.320789 98.349418
8789 9 1 10.518483 -2.444848 98.444042
8790 9 1 9.768809 -1.900594 98.067509
8791 9 1 10.407155 -1.859089 97.298879
8792 9 1 10.929337 -1.476835 96.536509
8793 9 1 10.045573 -1.917812 96.379984
8794 9 1 10.077261 -2.872638 96.675456
8795 9 1 10.382382 -3.754506 96.315998
8796 9 1 11.121711 -4.208917 96.812892
8797 9 1 11.516326 -5.116781 96.954531
8798 9 1 12.037235 -4.265209 97.013512
8799 9 1 12.616032 -3.870444 96.299961
8800 9 1 12.332519 -2.913137 96.243524
8801 9 1 12.333550 -2.890771 97.243273
8802 9 1 11.414665 -2.502999 97.170588
8803 9 1 11.308942 -3.466826 97.415252
8804 9 1 11.765286 -2.896551 98.098287
8805 9 1 11.771386 -1.969154 98.472316
8806 9 1 12.042621 -2.061559 97.514249
8807 9 1 12.415367 -1.683933 96.666629
8808 9 1 11.698602 -2.152383 96.150100
8809 9 1 10.826216 -1.826051 95.786162
8810 9 1 11.167451 -0.887569 95.839180
8811 9 1 10.867516 -0.260638 95.120155
8812 9 1 9.921336 0.048994 95.025968
8813 9 1 9.108768 0.061150 94.443229
8814 9 1 8.959069 0.486511 93.550671
8815 9 1 8.071710 0.714049 93.951694
8816 9 1 8.198342 0.630538 92.963266
8817 9 1 8.672759 -0.228569 92.771265
8818 9 1 9.166678 0.001112 91.932640
8819 9 1 8.822121 -0.909296 92.161633
8820 9 1 9.523249 -0.885193 91.449005
8821 9 1 8.633538 -0.578797 91.110575
8822 9 1 8.531253 0.400313 90.934846
8823 9 1 7.994548 -0.367990 90.586051
8824 9 1 8.361295 -1.296411 90.645476
8825 9 1 9.065869 -1.969316 90.870810
8826 9 1 9.613212 -1.186733 90.574196
8827 9 1 9.216741 -1.798579 89.889758
8828 9 1 9.669054 -0.909984 89.813526
8829 9 1 9.098942 -0.174750 89.446916
8830 9 1 8.585962 0.423437 88.831267
8831 9 1 8.976947 1.217029 88.365066
8832 9 1 9.470160 2.017926 88.704633
8833 9 1 10.429244 2.244394 88.534724
8834 9 1 10.862258 1.351016 88.654619
8835 9 1 10.391225 0.507254 88.397339
8836 9 1 9.677883 1.003692 87.902673
8837 9 1 10.038544 1.092970 86.974259
8838 9 1 10.153584 0.739736 86.045824
8839 9 1 9.324773 0.246695 86.310368
8840 9 1 8.837943 -0.621771 86.216754
8841 9 1 8.857302 -1.181101 87.045473
8842 9 1 8.500978 -0.368923 87.507427
8843 9 1 7.611329 -0.048566 87.182008
8844 9 1 7.844381 0.758785 86.639909
8845 9 1 7.355733 0.131282 86.033721
8846 9 1 6.514643 0.392915 85.560312
8847 9 1 6.494335 1.270438 86.039415
8848 9 1 6.237326 1.705556 86.902329
8849 9 1 7.236092 1.703856 86.852701
8850 9 1 7.950325 1.786921 87.547662
8851 9 1 7.056558 1.857842 87.990551
8852 9 1 6.156000 1.782754 88.418754
8853 9 1 5.406751 1.584843 89.050780
8854 9 1 5.402160 1.600452 90.050648
8855 9 1 4.549520 1.468443 89.545100
8856 9 1 4.207076 2.277104 89.066770
8857 9 1 4.333969 3.185612 88.668635
8858 9 1 5.272576 3.468715 88.865788
8859 9 1 5.602714 4.126976 88.189252
8860 9 1 6.034896 4.983477 87.907073
8861 9 1 6.713158 4.284606 87.680049
8862 9 1 7.536696 4.264487 87.113145
8863 9 1 8.517668 4.449828 87.170959
8864 9 1 8.759683 3.665853 87.742634
8865 9 1 8.337006 3.154476 86.994410
8866 9 1 7.395879 2.926005 87.243573
8867 9 1 6.651678 3.593556 87.220334
8868 9 1 6.490743 4.168014 86.417777
8869 9 1 6.742791 5.071638 86.071462
8870 9 1 6.745646 4.685267 85.149123
8871 9 1 6.371671 4.499102 84.240561
8872 9 1 5.942589 3.713850 83.794165
8873 9 1 5.864864 3.031192 83.067573
8874 9 1 5.377834 3.029050 83.940956
8875 9 1 4.499848 3.384705 83.620568
8876 9 1 3.588783 3.326814 84.028747
8877 9 1 3.709105 2.334554 83.998049
8878 9 1 3.397293 1.532562 83.488557
8879 9 1 2.819662 0.730913 83.334605
8880 9 1 2.012966 0.151389 83.218869
8881 9 1 1.287303 -0.300135 82.699699
8882 9 1 0.623592 -1.046361 82.751042
8883 9 1 0.489767 -1.998824 82.477355
8884 9 1 -0.112662 -2.131998 83.264339
8885 9 1 0.311223 -2.900050 82.784322
8886 9 1 -0.563933 -3.017230 82.314885
8887 9 1 -1.050878 -3.463546 83.065676
8888 9 1 -1.124001 -3.919038 83.952907
8889 9 1 -1.980149 -4.006585 83.443647
8890 9 1 -1.374519 -4.793054 83.564802
8891 9 1 -1.408452 -4.437592 82.630728
8892 9 1 -1.349406 -5.007230 81.810956
8893 9 1 -2.003903 -4.389341 81.375242
8894 9 1 -2.535796 -3.777307 81.960481
8895 9 1 -1.540605 -3.686765 81.997861
8896 9 1 -0.953263 -3.884599 81.213074
8897 9 1 -1.642768 -3.615063 80.540814
8898 9 1 -2.211887 -3.472259 79.731054
8899 9 1 -1.579940 -3.477928 78.956063
8900 9 1 -1.743679 -2.491928 78.987576
8901 9 1 -2.340261 -1.905219 79.535172
8902 9 1 -2.550080 -2.670006 78.926013
8903 9 1 -2.747298 -3.274824 78.154455
8904 9 1 -2.768567 -2.984054 77.197899
8905 9 1 -3.661039 -3.031122 77.646539
8906 9 1 -3.885036 -2.756047 76.711574
8907 9 1 -3.261994 -2.073867 76.328887
8908 9 1 -3.749861 -2.714436 75.735879
8909 9 1 -4.735086 -2.709357 75.564691
8910 9 1 -5.563666 -3.027106 75.103725
8911 9 1 -5.537804 -3.144637 74.110992
8912 9 1 -5.141047 -3.882285 74.657307
8913 9 1 -4.299855 -3.342131 74.632186
8914 9 1 -3.419829 -3.627642 74.252662
8915 9 1 -2.909523 -3.185536 73.515010
8916 9 1 -2.082551 -2.633370 73.409042
8917 9 1 -1.267615 -3.149490 73.672665
8918 9 1 -0.646819 -2.827604 72.957821
8919 9 1 -0.479133 -2.196303 73.715013
8920 9 1 -0.250570 -1.356493 74.207434
8921 9 1 0.430091 -2.030222 73.919704
8922 9 1 0.177542 -2.172243 74.876809
8923 9 1 1.157826 -2.190705 75.073538
8924 9 1 1.439602 -2.413329 74.140243
8925 9 1 1.264632 -2.866992 73.266414
8926 9 1 1.870714 -2.488522 72.566825
8927 9 1 2.288203 -2.229622 73.437844
8928 9 1 3.011477 -2.910911 73.325060
8929 9 1 3.851246 -3.420104 73.513506
8930 9 1 3.928003 -3.153078 72.552878
8931 9 1 4.655796 -2.965512 71.893230
8932 9 1 5.483651 -3.492871 71.702052
8933 9 1 5.227598 -2.937538 70.910824
8934 9 1 5.226611 -3.236038 69.956415
8935 9 1 5.683090 -3.022489 69.092688
8936 9 1 5.585229 -3.942006 68.712015
8937 9 1 6.165600 -4.700213 69.009155
8938 9 1 5.407661 -5.351289 68.968811
8939 9 1 4.482159 -5.629948 69.225317
8940 9 1 3.542285 -5.496826 68.910808
8941 9 1 3.321264 -4.685691 69.452295
8942 9 1 3.565421 -3.720909 69.550194
8943 9 1 4.385092 -4.248031 69.325956
8944 9 1 4.514595 -3.775555 68.454179
8945 9 1 4.827211 -4.457019 67.792454
8946 9 1 5.068325 -3.798477 67.079582
8947 9 1 5.863237 -4.303110 66.742742
8948 9 1 5.626418 -5.012909 67.406144
8949 9 1 4.925062 -5.197957 68.094517
8950 9 1 3.954845 -5.141195 67.859023
8951 9 1 3.022477 -4.891274 68.120229
8952 9 1 2.525487 -5.754132 68.028159
8953 9 1 2.303586 -6.343383 68.805039
8954 9 1 1.721537 -5.540381 68.933124
8955 9 1 1.559595 -6.138661 68.148372
8956 9 1 1.124939 -6.758016 68.802186
8957 9 1 0.321463 -6.777400 69.397209
8958 9 1 -0.215288 -7.071698 68.606458
8959 9 1 0.287080 -6.415236 68.043711
8960 9 1 0.098398 -7.207295 67.463158
8961 9 1 -0.462607 -6.457682 67.111940
8962 9 1 -0.180005 -5.535484 67.375923
8963 9 1 -1.132335 -5.449687 67.668680
8964 9 1 -0.599521 -4.770451 68.173406
8965 9 1 -1.373644 -5.351252 68.425207
8966 9 1 -1.218491 -6.332116 68.307597
8967 9 1 -0.853644 -7.055390 67.721285
8968 9 1 -0.886798 -8.029285 67.496719
8969 9 1 -0.028802 -8.169454 67.990879
8970 9 1 -0.823482 -8.131501 68.596720
8971 9 1 -1.686937 -8.373567 69.039269
8972 9 1 -1.684369 -8.612591 68.068258
8973 9 1 -2.009688 -8.456937 67.135553
8974 9 1 -2.614579 -8.715498 67.888716
8975 9 1 -3.179075 -9.537239 67.810702
8976 9 1 -2.778193 -10.298606 67.301178
8977 9 1 -3.457770 -10.956305 66.976206
8978 9 1 -2.993399 -10.753426 66.114116
8979 9 1 -2.204892 -10.192416 65.862075
8980 9 1 -2.900846 -9.521127 65.607090
8981 9 1 -2.800047 -9.635060 64.618728
8982 9 1 -2.121391 -10.279278 64.266011
8983 9 1 -1.781497 -11.030803 64.831415
8984 9 1 -1.273464 -11.547392 64.142185
8985 9 1 -0.729143 -11.127093 64.868176
8986 9 1 -0.092071 -10.369971 65.012768
8987 9 1 -0.785045 -9.720562 64.699631
8988 9 1 -1.324176 -10.492365 64.362498
8989 9 1 -1.559036 -10.631316 63.400452
8990 9 1 -0.866529 -9.921952 63.531739
8991 9 1 -0.192931 -10.657182 63.456220
8992 9 1 0.753713 -10.677759 63.777842
8993 9 1 1.095371 -11.520866 64.193101
8994 9 1 1.936571 -12.037827 64.351640
8995 9 1 2.902828 -11.901308 64.570065
8996 9 1 3.832307 -11.543223 64.481503
8997 9 1 4.360713 -12.200916 65.018370
8998 9 1 3.413733 -12.464610 65.201930
8999 9 1 2.426956 -12.401598 65.351263
9000 9 1 1.859814 -13.224059 65.307575
9001 10 1 -13.957400 -52.314457 -8.604096
9002 10 1 -14.282308 -53.205133 -8.286087
9003 10 1 -14.257710 -53.858796 -9.042473
9004 10 1 -15.002722 -54.273911 -9.564619
9005 10 1 -14.738400 -54.960145 -10.242275
9006 10 1 -15.509310 -55.229179 -9.664938
9007 10 1 -16.326871 -55.486356 -9.149715
9008 10 1 -17.227463 -55.052204 -9.128593
9009 10 1 -17.006001 -54.520468 -8.311151
9010 10 1 -17.751020 -54.771279 -7.693057
9011 10 1 -17.077017 -55.499988 -7.814316
9012 10 1 -16.211216 -55.047405 -7.600876
9013 10 1 -15.857860 -55.982525 -7.574602
9014 10 1 -16.309031 -56.180540 -8.444795
9015 10 1 -15.850654 -57.065382 -8.528131
9016 10 1 -16.820364 -57.304591 -8.478729
9017 10 1 -17.466321 -56.582316 -8.231626
9018 10 1 -17.745077 -55.623352 -8.283428
9019 10 1 -18.461159 -56.290616 -8.488335
9020 10 1 -18.722741 -57.243619 -8.335493
9021 10 1 -18.766535 -57.969612 -9.021799
9022 10 1 -19.245895 -57.751245 -9.871817
9023 10 1 -20.067643 -58.242080 -10.161320
9024 10 1 -20.787058 -57.930948 -9.540322
9025 10 1 -21.774135 -57.818007 -9.426633
9026 10 1 -21.523331 -57.324412 -8.593890
9027 10 1 -22.271260 -57.966695 -8.761444
9028 10 1 -23.076359 -57.376887 -8.824220
9029 10 1 -22.863480 -56.609176 -8.219817
9030 10 1 -23.428912 -55.784486 -8.206697
9031 10 1 -23.587082 -55.396923 -9.114870
9032 10 1 -23.517110 -54.578917 -8.543932
9033 10 1 -23.269976 -53.610076 -8.527425
9034 10 1 -23.027827 -52.716215 -8.904751
9035 10 1 -22.854157 -52.719404 -7.919952
9036 10 1 -23.027877 -51.837310 -8.357823
9037 10 1 -23.359143 -51.784359 -7.415773
9038 10 1 -24.103089 -52.366825 -7.743305
9039 10 1 -23.832315 -52.854728 -8.573144
9040 10 1 -24.056648 -53.017341 -9.533993
9041 10 1 -23.400249 -52.772578 -10.247598
9042 10 1 -22.702180 -53.061403 -10.902792
9043 10 1 -21.841855 -52.646970 -10.605998
9044 10 1 -21.309343 -53.377243 -11.033937
9045 10 1 -21.385076 -53.196523 -12.014551
9046 10 1 -20.461135 -52.842038 -12.158330
9047 10 1 -19.570934 -52.393569 -12.078210
9048 10 1 -19.173049 -51.766424 -11.408601
9049 10 1 -18.520481 -51.095829 -11.055817
9050 10 1 -17.921974 -51.847274 -10.778113
9051 10 1 -17.504885 -52.190490 -9.936544
9052 10 1 -18.075599 -52.628430 -9.241926
9053 10 1 -17.563793 -53.446799 -8.980532
9054 10 1 -18.395444 -53.874633 -8.626533
9055 10 1 -19.023932 -53.620872 -9.361795
9056 10 1 -18.632282 -52.912350 -9.948827
9057 10 1 -18.347203 -51.992121 -9.680671
9058 10 1 -17.638005 -51.305346 -9.521363
9059 10 1 -18.304270 -50.575023 -9.672091
9060 10 1 -19.255624 -50.473234 -9.962892
9061 10 1 -18.878597 -50.480692 -9.036719
9062 10 1 -19.671313 -51.070316 -8.881981
9063 10 1 -18.985971 -51.011093 -8.156171
9064 10 1 -18.149292 -51.277387 -8.634768
9065 10 1 -17.475880 -51.587723 -7.963793
9066 10 1 -17.104977 -50.957256 -7.281927
9067 10 1 -17.488343 -50.033709 -7.272295
9068 10 1 -18.043138 -49.601310 -6.561498
9069 10 1 -18.806702 -49.261980 -7.110883
9070 10 1 -18.339208 -48.501266 -6.660590
9071 10 1 -17.563688 -48.547954 -7.290185
9072 10 1 -17.248885 -48.281185 -6.379288
9073 10 1 -17.161110 -47.393058 -6.830426
9074 10 1 -18.059208 -46.954253 -6.800922
9075 10 1 -18.014867 -45.975995 -7.003516
9076 10 1 -18.804501 -45.364111 -6.957951
9077 10 1 -18.270373 -44.632548 -6.534251
9078 10 1 -18.478789 -44.672117 -5.557011
9079 10 1 -18.632281 -44.019706 -4.814853
9080 10 1 -18.804113 -44.422886 -3.916009
9081 10 1 -19.691849 -44.705251 -3.552423
9082 10 1 -20.689463 -44.723681 -3.618946
9083 10 1 -20.907180 -44.246444 -4.470325
9084 10 1 -21.864297 -44.069018 -4.241311
9085 10 1 -21.581966 -44.993091 -3.983669
9086 10 1 -21.941828 -45.668815 -3.340321
9087 10 1 -21.395503 -45.107694 -2.718491
9088 10 1 -22.362537 -45.183134 -2.475274
9089 10 1 -22.250700 -46.118715 -2.140343
9090 10 1 -23.064047 -46.697124 -2.202863
9091 10 1 -22.822213 -47.660726 -2.316826
9092 10 1 -22.329483 -47.341180 -3.126213
9093 10 1 -22.196561 -46.950233 -4.036978
9094 10 1 -21.546057 -46.191180 -4.010834
9095 10 1 -20.726434 -45.947139 -4.529159
9096 10 1 -19.751140 -46.109295 -4.379131
9097 10 1 -20.470144 -46.447872 -3.772172
9098 10 1 -20.672828 -47.418713 -3.644159
9099 10 1 -21.054903 -47.837635 -4.467884
9100 10 1 -20.793399 -48.188289 -5.367138
9101 10 1 -21.171284 -47.775781 -6.196017
9102 10 1 -21.045299 -47.029077 -5.542901
9103 10 1 -21.348671 -46.172416 -5.960151
9104 10 1 -22.320350 -45.944275 -5.898563
9105 10 1 -22.466562 -45.878092 -6.885600
9106 10 1 -21.757586 -46.549220 -7.102257
9107 10 1 -22.593080 -46.599880 -7.649417
9108 10 1 -23.276445 -46.597356 -8.379489
9109 10 1 -23.550136 -46.899623 -7.466402
9110 10 1 -23.297467 -47.782283 -7.862722
9111 10 1 -24.272046 -47.954474 -7.719384
9112 10 1 -23.561366 -48.541939 -7.332321
9113 10 1 -23.563099 -47.865482 -6.595841
9114 10 1 -24.414154 -48.247491 -6.235600
9115 10 1 -24.846604 -47.355167 -6.106204
9116 10 1 -25.737380 -47.458498 -5.663664
9117 10 1 -25.175824 -47.914319 -4.973099
9118 10 1 -25.428122 -48.834314 -5.273023
9119 10 1 -25.969627 -48.503705 -6.045985
9120 10 1 -26.209386 -47.826383 -6.741507
9121 10 1 -26.308329 -47.295314 -7.583038
9122 10 1 -27.016415 -47.533635 -6.918345
9123 10 1 -27.819928 -48.127187 -6.872931
9124 10 1 -28.244386 -47.745086 -7.693805
9125 10 1 -28.793226 -48.477519 -8.096689
9126 10 1 -29.337373 -47.851094 -8.654806
9127 10 1 -29.597293 -47.590930 -7.724883
9128 10 1 -30.192748 -48.394318 -7.723520
9129 10 1 -30.418404 -47.701494 -7.038630
9130 10 1 -30.132675 -48.079335 -6.157951
9131 10 1 -30.963525 -47.848765 -5.651468
9132 10 1 -31.249613 -48.543637 -6.311246
9133 10 1 -31.695288 -48.158818 -7.119509
9134 10 1 -31.792905 -47.625434 -6.279287
9135 10 1 -31.152045 -46.957939 -5.900144
9136 10 1 -31.127793 -46.866863 -6.895693
9137 10 1 -31.224931 -46.447936 -7.798503
9138 10 1 -30.689916 -47.258313 -8.037351
9139 10 1 -31.032103 -47.393674 -8.967182
9140 10 1 -30.078561 -47.094625 -8.930723
9141 10 1 -30.786824 -46.567206 -9.399971
9142 10 1 -31.768457 -46.500512 -9.578711
9143 10 1 -31.563152 -46.162293 -10.497111
9144 10 1 -31.233904 -46.018324 -11.430315
9145 10 1 -30.680326 -45.336337 -11.908274
9146 10 1 -29.922276 -45.174310 -11.276524
9147 10 1 -29.641920 -45.207512 -12.235846
9148 10 1 -29.576873 -44.226604 -12.419113
9149 10 1 -29.407153 -43.856904 -13.332633
9150 10 1 -29.080479 -42.998766 -13.728719
9151 10 1 -28.882739 -42.379702 -14.488757
9152 10 1 -29.835291 -42.665577 -14.384261
9153 10 1 -29.286429 -43.353035 -14.859814
9154 10 1 -28.747578 -44.103598 -15.242300
9155 10 1 -28.209830 -44.442971 -16.014086
9156 10 1 -28.672561 -44.674672 -16.869769
9157 10 1 -28.733710 -43.811453 -17.370881
9158 10 1 -28.951356 -42.864440 -17.607093
9159 10 1 -28.341698 -42.084497 -17.465649
9160 10 1 -29.102815 -41.974238 -16.826474
9161 10 1 -29.379320 -42.529780 -16.042307
9162 10 1 -28.606475 -42.625691 -16.669612
9163 10 1 -28.413907 -42.111528 -15.833816
9164 10 1 -28.975974 -41.525001 -15.250665
9165 10 1 -29.280679 -40.608024 -15.508167
9166 10 1 -29.470794 -41.336034 -16.166847
9167 10 1 -29.330950 -40.386371 -16.447175
9168 10 1 -29.036540 -40.605080 -17.377492
9169 10 1 -28.679033 -39.675195 -17.464117
9170 10 1 -28.039920 -40.013100 -18.155026
9171 10 1 -27.819678 -40.087386 -17.182414
9172 10 1 -27.510156 -39.394755 -17.833918
9173 10 1 -26.877101 -40.164955 -17.911592
9174 10 1 -27.448073 -40.326959 -18.716418
9175 10 1 -26.628941 -40.663498 -19.180923
9176 10 1 -26.335840 -41.447960 -19.727467
9177 10 1 -25.485514 -41.436227 -19.201341
9178 10 1 -25.216702 -40.517470 -19.490522
9179 10 1 -25.491819 -40.902131 -20.371628
9180 10 1 -26.400916 -41.088449 -20.744224
9181 10 1 -26.185755 -40.112280 -20.772505
9182 10 1 -25.784212 -39.250899 -21.083610
9183 10 1 -26.100794 -38.354996 -20.771947
9184 10 1 -26.216425 -37.980291 -19.852042
9185 10 1 -25.805772 -37.523813 -19.062744
9186 10 1 -24.924778 -37.537076 -19.535684
9187 10 1 -25.161239 -37.021541 -20.359280
9188 10 1 -25.368492 -36.769088 -21.304433
9189 10 1 -25.950314 -37.060449 -22.063769
9190 10 1 -26.871929 -37.422179 -22.204404
9191 10 1 -27.339860 -37.354854 -23.085601
9192 10 1 -26.813935 -38.164704 -23.345496
9193 10 1 -27.358472 -38.238218 -24.181005
9194 10 1 -26.824127 -38.339453 -25.020188
9195 10 1 -27.316186 -37.593309 -25.468682
9196 10 1 -27.287232 -37.464298 -26.459902
9197 10 1 -27.690849 -36.571826 -26.258440
9198 10 1 -26.780021 -36.741605 -26.634694
9199 10 1 -26.692368 -36.382018 -25.705709
9200 10 1 -25.903758 -36.834396 -25.289237
9201 10 1 -26.464537 -37.584278 -25.640242
9202 10 1 -26.219272 -38.450772 -26.075021
9203 10 1 -26.814687 -39.230400 -25.880956
9204 10 1 -26.581847 -39.984389 -25.266719
9205 10 1 -27.204207 -39.254067 -24.985117
9206 10 1 -28.158270 -39.547315 -24.923723
9207 10 1 -28.571853 -38.824999 -25.477988
9208 10 1 -29.521967 -38.539373 -25.603289
9209 10 1 -29.209185 -39.111516 -26.361458
9210 10 1 -29.046808 -39.535434 -25.470432
9211 10 1 -28.308466 -40.180307 -25.667892
9212 10 1 -28.367902 -40.167716 -26.666045
9213 10 1 -27.541645 -40.605711 -26.311844
9214 10 1 -27.110258 -41.428293 -26.682337
9215 10 1 -27.426920 -41.169979 -27.595026
9216 10 1 -26.721150 -41.871393 -27.495492
9217 10 1 -27.054609 -42.800615 -27.336270
9218 10 1 -28.014482 -43.080947 -27.343788
9219 10 1 -28.169329 -43.927334 -27.853348
9220 10 1 -27.350205 -44.405553 -28.170118
9221 10 1 -27.387114 -43.533588 -27.681943
9222 10 1 -26.658629 -43.978358 -27.160895
9223 10 1 -26.042194 -43.833520 -26.386925
9224 10 1 -25.318622 -44.221034 -25.815719
9225 10 1 -25.154286 -43.399850 -26.362208
9226 10 1 -24.665048 -44.271831 -26.345009
9227 10 1 -23.916192 -43.844950 -25.838070
9228 10 1 -23.289189 -43.508793 -26.540825
9229 10 1 -22.784268 -42.665143 -26.358318
9230 10 1 -22.025774 -42.946646 -26.946062
9231 10 1 -22.874078 -42.737043 -27.432319
9232 10 1 -23.419040 -42.823262 -28.266336
9233 10 1 -22.578070 -43.363902 -28.244505
9234 10 1 -22.949818 -43.985215 -28.934268
9235 10 1 -23.669503 -44.488877 -28.456380
9236 10 1 -24.635040 -44.497141 -28.196245
9237 10 1 -24.439342 -45.475689 -28.131853
9238 10 1 -24.095355 -44.730264 -27.560877
9239 10 1 -23.202979 -44.279507 -27.538895
9240 10 1 -22.210485 -44.401018 -27.552753
9241 10 1 -22.662744 -44.998467 -28.214959
9242 10 1 -22.413658 -45.598920 -27.455083
9243 10 1 -21.474732 -45.294466 -27.615471
9244 10 1 -21.910683 -45.714880 -28.411208
9245 10 1 -21.695790 -46.624688 -28.766272
9246 10 1 -22.454975 -46.033457 -29.038458
9247 10 1 -22.279872 -45.664750 -29.951362
9248 10 1 -22.972335 -46.362644 -30.134220
9249 10 1 -22.465647 -46.869574 -29.436876
9250 10 1 -21.533216 -46.740321 -29.774319
9251 10 1 -21.226623 -45.811758 -29.983536
9252 10 1 -21.738207 -44.953007 -30.012349
9253 10 1 -22.647696 -44.918125 -30.426609
9254 10 1 -23.534644 -44.533634 -30.170698
9255 10 1 -23.151463 -43.704350 -30.577467
9256 10 1 -22.633064 -43.675903 -29.722802
9257 10 1 -21.790946 -44.055063 -29.339298
9258 10 1 -21.500492 -44.969416 -29.057171
9259 10 1 -20.776713 -44.694792 -28.424142
9260 10 1 -19.895955 -45.162781 -28.351684
9261 10 1 -19.043878 -45.475317 -27.931819
9262 10 1 -18.718599 -44.747802 -28.535902
9263 10 1 -18.496244 -44.557475 -29.492110
9264 10 1 -18.068809 -45.460351 -29.538111
9265 10 1 -17.999916 -46.410078 -29.232706
9266 10 1 -17.549798 -46.144012 -30.085116
9267 10 1 -18.069550 -46.718350 -30.717567
9268 10 1 -17.741177 -45.792550 -30.904830
9269 10 1 -17.697725 -45.737799 -31.902384
9270 10 1 -17.060868 -45.179456 -32.434048
9271 10 1 -16.129040 -44.848554 -32.583051
9272 10 1 -15.874562 -45.114587 -33.512818
9273 10 1 -15.777081 -45.734644 -34.291295
9274 10 1 -16.119053 -46.668892 -34.392475
9275 10 1 -15.442318 -47.178080 -33.860725
9276 10 1 -16.240250 -47.778049 -33.918528
9277 10 1 -15.564350 -47.886717 -34.647465
9278 10 1 -15.337824 -48.655140 -35.245974
9279 10 1 -15.436757 -49.118843 -36.126424
9280 10 1 -16.254561 -49.255696 -35.567435
9281 10 1 -16.984010 -48.646819 -35.879158
9282 10 1 -16.939826 -47.804470 -35.342041
9283 10 1 -16.359850 -47.445761 -36.073448
9284 10 1 -16.173281 -47.695212 -37.023693
9285 10 1 -15.433409 -47.787361 -37.690100
9286 10 1 -15.880431 -46.959491 -38.028926
9287 10 1 -15.494825 -47.085674 -38.942921
9288 10 1 -14.912248 -47.730559 -38.448223
9289 10 1 -14.061327 -47.549585 -38.941358
9290 10 1 -13.129428 -47.338224 -39.236130
9291 10 1 -12.387768 -47.685037 -39.810291
9292 10 1 -11.440881 -47.594021 -40.118708
9293 10 1 -11.233656 -47.952909 -39.208622
9294 10 1 -10.594358 -48.156586 -39.950116
9295 10 1 -9.620991 -47.975466 -39.809573
9296 10 1 -9.179813 -48.763593 -40.238778
9297 10 1 -9.566454 -48.898911 -39.326529
9298 10 1 -8.724574 -49.267097 -39.721089
9299 10 1 -8.213796 -48.947902 -40.519350
9300 10 1 -8.146324 -48.191311 -41.169749
9301 10 1 -7.598033 -48.170883 -42.005786
9302 10 1 -7.800728 -49.143292 -42.121261
9303 10 1 -8.258260 -50.022826 -42.251972
9304 10 1 -8.433032 -49.763871 -43.201917
9305 10 1 -9.011076 -49.817087 -44.016186
9306 10 1 -8.420894 -50.621952 -43.953910
9307 10 1 -7.630396 -51.134770 -44.288769
9308 10 1 -8.440630 -51.549815 -43.874936
9309 10 1 -8.494014 -51.693161 -42.886704
9310 10 1 -8.369698 -52.504405 -43.458043
9311 10 1 -8.334516 -53.047168 -44.297191
9312 10 1 -7.567883 -52.474871 -44.588309
9313 10 1 -6.786807 -52.920554 -44.150945
9314 10 1 -6.039316 -52.918568 -44.815213
9315 10 1 -6.699168 -52.173730 -44.914260
9316 10 1 -6.800016 -53.027790 -45.424565
9317 10 1 -6.334405 -53.700408 -44.849421
9318 10 1 -6.036973 -53.316914 -43.975084
9319 10 1 -5.143347 -53.689504 -43.724866
9320 10 1 -5.120090 -52.716797 -43.493994
9321 10 1 -5.720537 -52.015915 -43.108991
9322 10 1 -5.310799 -52.256328 -42.229039
9323 10 1 -4.547147 -52.191855 -41.586638
9324 10 1 -5.421108 -52.501467 -41.212028
9325 10 1 -5.476124 -53.477188 -41.000037
9326 10 1 -6.245733 -54.115704 -41.000632
9327 10 1 -6.988772 -54.682139 -40.644200
9328 10 1 -7.352418 -54.515682 -39.727656
9329 10 1 -7.568601 -54.103340 -38.842648
9330 10 1 -6.898777 -53.670668 -39.446081
9331 10 1 -7.620578 -53.590608 -40.133535
9332 10 1 -7.882300 -52.907783 -40.815629
9333 10 1 -8.316249 -52.306360 -41.486434
9334 10 1 -9.102190 -52.883013 -41.263347
9335 10 1 -9.301887 -53.136284 -42.209906
9336 10 1 -9.649061 -52.221835 -42.001935
9337 10 1 -9.576921 -51.654724 -42.822411
9338 10 1 -9.371670 -50.684048 -42.947552
9339 10 1 -9.992814 -50.050186 -42.486685
9340 10 1 -9.178573 -49.888048 -41.929259
9341 10 1 -9.381612 -49.275256 -42.692974
9342 10 1 -8.895251 -48.927926 -41.891217
9343 10 1 -8.378659 -48.893476 -42.746755
9344 10 1 -9.200627 -48.574084 -43.218303
9345 10 1 -8.675748 -48.285446 -44.019046
9346 10 1 -9.103548 -47.461200 -44.390000
9347 10 1 -9.952875 -47.774650 -43.965273
9348 10 1 -10.318122 -48.696069 -43.832684
9349 10 1 -10.524136 -49.485268 -43.254130
9350 10 1 -11.359516 -49.499238 -42.704634
9351 10 1 -12.228798 -49.057872 -42.482048
9352 10 1 -12.697013 -48.185654 -42.623510
9353 10 1 -12.079574 -48.370135 -41.858830
9354 10 1 -11.235253 -48.691709 -41.430213
9355 10 1 -10.489574 -49.314266 -41.192758
9356 10 1 -9.706542 -48.971258 -41.711609
9357 10 1 -10.187041 -48.363735 -42.344093
9358 10 1 -10.733683 -48.546939 -43.161173
9359 10 1 -11.729137 -48.464147 -43.114089
9360 10 1 -11.199145 -48.520667 -42.267972
9361 10 1 -11.222314 -47.553032 -42.016686
9362 10 1 -11.626170 -46.701215 -42.350315
9363 10 1 -12.380132 -46.331380 -42.893237
9364 10 1 -12.735270 -47.142337 -43.358239
9365 10 1 -12.163101 -47.412972 -44.132434
9366 10 1 -11.411812 -46.766821 -43.998071
9367 10 1 -10.995790 -45.868299 -44.138015
9368 10 1 -10.725984 -45.803228 -45.098729
9369 10 1 -9.963402 -46.067252 -45.689288
9370 10 1 -10.428991 -45.183899 -45.743268
9371 10 1 -10.487823 -45.766539 -46.553866
9372 10 1 -9.506237 -45.911517 -46.678246
9373 10 1 -10.077462 -46.467567 -47.281993
9374 10 1 -9.191808 -46.099299 -47.564828
9375 10 1 -9.564991 -46.039393 -48.490650
9376 10 1 -8.894145 -46.763467 -48.650905
9377 10 1 -8.274775 -46.141489 -48.171817
9378 10 1 -7.960589 -45.215621 -47.961926
9379 10 1 -8.024159 -45.531305 -47.015194
9380 10 1 -8.370623 -46.462208 -46.899517
9381 10 1 -7.544221 -46.949574 -46.617501
9382 10 1 -7.801680 -46.666002 -45.693758
9383 10 1 -8.285774 -47.371513 -45.176160
9384 10 1 -8.890366 -48.133498 -45.408213
9385 10 1 -9.547458 -48.781738 -45.023487
9386 10 1 -10.399635 -48.410498 -45.392235
9387 10 1 -10.323142 -49.060181 -44.635888
9388 10 1 -10.912624 -48.310552 -44.334943
9389 10 1 -11.002460 -49.228953 -43.949625
9390 10 1 -11.780047 -49.757538 -43.609101
9391 10 1 -12.606127 -49.472847 -44.095456
9392 10 1 -12.081255 -49.957885 -44.794918
9393 10 1 -12.904822 -50.229718 -44.297078
9394 10 1 -12.688814 -51.191315 -44.127751
9395 10 1 -13.405864 -50.901468 -43.493852
9396 10 1 -13.848802 -50.059658 -43.802335
9397 10 1 -14.347590 -49.825112 -44.636720
9398 10 1 -14.816207 -50.633917 -44.281429
9399 10 1 -15.015678 -49.864176 -43.675038
9400 10 1 -15.559172 -49.305217 -44.301280
9401 10 1 -14.872689 -48.940642 -43.672133
9402 10 1 -15.666023 -48.336095 -43.743859
9403 10 1 -16.415589 -48.922580 -44.050755
9404 10 1 -17.113425 -48.878896 -43.335831
9405 10 1 -16.994314 -47.978500 -42.917382
9406 10 1 -17.510795 -47.122758 -42.886499
9407 10 1 -18.069594 -46.298185 -42.974946
9408 10 1 -18.872694 -45.890074 -42.540807
9409 10 1 -18.294481 -45.177225 -42.143924
9410 10 1 -18.443341 -44.881067 -41.200456
9411 10 1 -19.390414 -44.730817 -40.916770
9412 10 1 -20.321075 -44.677092 -41.278686
9413 10 1 -19.976501 -44.217479 -42.097237
9414 10 1 -20.176149 -43.940318 -43.037089
9415 10 1 -20.544886 -43.296162 -42.366942
9416 10 1 -20.797342 -44.203975 -42.032066
9417 10 1 -21.092070 -43.497186 -41.388961
9418 10 1 -21.342199 -43.915792 -40.515918
9419 10 1 -20.880415 -44.636841 -39.999348
9420 10 1 -20.560720 -44.550056 -39.055811
9421 10 1 -19.576668 -44.713677 -38.986021
9422 10 1 -19.579704 -44.074786 -38.216730
9423 10 1 -19.045250 -43.274626 -37.944510
9424 10 1 -19.051346 -43.128755 -36.955225
9425 10 1 -19.669759 -42.377413 -36.724898
9426 10 1 -20.163991 -41.574884 -37.059087
9427 10 1 -20.212102 -41.036553 -37.900446
9428 10 1 -20.186448 -41.721675 -38.628423
9429 10 1 -19.315354 -41.945073 -39.065788
9430 10 1 -20.091103 -41.540125 -39.549762
9431 10 1 -20.082495 -40.597734 -39.884166
9432 10 1 -19.913249 -40.557804 -38.899401
9433 10 1 -20.160429 -40.016953 -38.095422
9434 10 1 -19.445913 -40.715445 -38.135114
9435 10 1 -18.491240 -41.005437 -38.202227
9436 10 1 -17.516910 -40.998910 -38.427257
9437 10 1 -16.640080 -40.622168 -38.128535
9438 10 1 -16.470373 -39.988213 -37.374015
9439 10 1 -16.698627 -40.054560 -36.402676
9440 10 1 -16.437995 -41.015196 -36.498848
9441 10 1 -17.082709 -41.186955 -35.753970
9442 10 1 -17.792301 -40.627892 -35.325101
9443 10 1 -18.146243 -41.464331 -35.743543
9444 10 1 -18.982371 -41.169114 -36.205859
9445 10 1 -18.926851 -40.984653 -37.187129
9446 10 1 -18.712137 -40.211059 -37.783326
9447 10 1 -19.321453 -39.594950 -37.284183
9448 10 1 -19.616959 -40.547674 -37.213522
9449 10 1 -18.789852 -40.211064 -36.763424
9450 10 1 -18.561407 -40.523053 -35.841212
9451 10 1 -18.163421 -41.100958 -36.553695
9452 10 1 -18.265779 -41.946608 -37.077525
9453 10 1 -17.934689 -42.621328 -36.417878
9454 10 1 -18.924089 -42.523583 -36.310480
9455 10 1 -18.331658 -43.323713 -36.216578
9456 10 1 -18.157030 -43.908997 -37.008378
9457 10 1 -17.538189 -44.488506 -36.478090
9458 10 1 -17.401575 -44.875574 -37.389964
9459 10 1 -16.411533 -44.936504 -37.516866
9460 10 1 -15.479925 -44.578293 -37.578453
9461 10 1 -14.733540 -45.087739 -37.150231
9462 10 1 -13.987732 -44.800944 -36.548967
9463 10 1 -13.271572 -44.757166 -37.245528
9464 10 1 -13.794317 -43.919550 -37.404070
9465 10 1 -14.233578 -43.957240 -38.301638
9466 10 1 -14.584962 -44.888135 -38.201823
9467 10 1 -14.712110 -45.122285 -39.165674
9468 10 1 -14.411417 -45.825205 -38.521091
9469 10 1 -13.529007 -45.844453 -38.991177
9470 10 1 -13.384576 -44.933018 -38.605916
9471 10 1 -12.422215 -45.154559 -38.448499
9472 10 1 -11.531017 -45.539248 -38.688875
9473 10 1 -11.407842 -44.711106 -39.235692
9474 10 1 -10.755853 -44.096506 -38.791645
9475 10 1 -11.512513 -43.582942 -39.196265
9476 10 1 -11.220378 -42.740151 -38.744202
9477 10 1 -11.678633 -42.288202 -37.978863
9478 10 1 -12.654183 -42.068475 -37.983476
9479 10 1 -12.210219 -41.960337 -38.872972
9480 10 1 -12.329234 -42.326657 -39.795818
9481 10 1 -11.499113 -41.947497 -39.386994
9482 10 1 -10.958539 -42.255676 -40.169812
9483 10 1 -11.503091 -43.089699 -40.081101
9484 10 1 -11.788637 -43.192004 -41.033990
9485 10 1 -12.690578 -43.505035 -40.736474
9486 10 1 -12.232496 -43.654955 -41.612651
9487 10 1 -12.164448 -44.597909 -41.938546
9488 10 1 -12.774160 -45.363105 -42.145252
9489 10 1 -12.378715 -46.211750 -41.793933
9490 10 1 -11.844648 -45.418334 -41.501933
9491 10 1 -11.297927 -44.713687 -41.954225
9492 10 1 -10.765170 -45.383656 -42.471247
9493 10 1 -11.114554 -46.025473 -43.153891
9494 10 1 -11.676803 -45.207094 -43.272767
9495 10 1 -12.335562 -45.336268 -44.013949
9496 10 1 -13.222122 -45.607431 -43.639141
9497 10 1 -13.247698 -46.015437 -44.551762
9498 10 1 -13.833575 -45.965143 -45.360600
9499 10 1 -13.405434 -45.746495 -46.237463
9500 10 1 -12.791721 -46.516840 -46.410448
9501 10 1 -13.050043 -47.470161 -46.566808
9502 10 1 -13.520431 -47.498048 -47.448826
9503 10 1 -14.447485 -47.126438 -47.399044
9504 10 1 -15.282771 -46.905669 -47.902589
9505 10 1 -15.089097 -47.755128 -48.393414
9506 10 1 -15.181742 -47.891683 -49.379705
9507 10 1 -14.679238 -48.752472 -49.298881
9508 10 1 -15.019335 -48.726065 -48.358861
9509 10 1 -14.419073 -49.277126 -47.779191
9510 10 1 -15.098129 -48.590120 -47.520531
9511 10 1 -15.826299 -48.963430 -48.095343
9512 10 1 -16.272326 -49.141492 -47.218215
9513 10 1 -16.750939 -48.267593 -47.133189
9514 10 1 -17.067304 -47.505274 -46.568580
9515 10 1 -17.886548 -47.111084 -46.152102
9516 10 1 -17.919432 -47.535429 -47.057005
9517 10 1 -18.041813 -48.449709 -46.670851
9518 10 1 -18.292844 -49.161343 -46.014679
9519 10 1 -18.924027 -48.389622 -46.092490
9520 10 1 -18.747813 -47.793917 -46.876125
9521 10 1 -18.900015 -47.208102 -47.672150
9522 10 1 -18.424782 -46.342900 -47.512214
9523 10 1 -18.407077 -45.385557 -47.800625
9524 10 1 -18.843596 -44.667382 -47.258706
9525 10 1 -19.819391 -44.563558 -47.066235
9526 10 1 -20.315245 -44.721439 -47.920169
9527 10 1 -19.504272 -45.278481 -47.741205
9528 10 1 -19.384127 -44.299417 -47.905516
9529 10 1 -19.906145 -43.621726 -48.423428
9530 10 1 -20.785948 -44.014588 -48.691021
9531 10 1 -21.205277 -43.972908 -47.784144
9532 10 1 -20.826633 -43.100198 -47.475914
9533 10 1 -19.862311 -42.866225 -47.352066
9534 10 1 -20.642075 -42.307929 -47.068741
9535 10 1 -19.889003 -42.140771 -46.432392
9536 10 1 -19.638562 -42.765374 -45.692696
9537 10 1 -18.651297 -42.777070 -45.851345
9538 10 1 -18.353648 -43.699488 -45.605273
9539 10 1 -18.205064 -43.921805 -44.641687
9540 10 1 -18.934900 -44.544410 -44.924002
9541 10 1 -19.277393 -45.462990 -45.121256
9542 10 1 -19.694167 -44.982366 -45.892812
9543 10 1 -20.537811 -45.517911 -45.854646
9544 10 1 -21.485067 -45.832825 -45.795190
9545 10 1 -21.003956 -46.642026 -45.457958
9546 10 1 -20.604875 -46.879458 -46.343599
9547 10 1 -20.345032 -47.418400 -47.144863
9548 10 1 -21.201946 -47.535190 -46.642808
9549 10 1 -21.881746 -47.633743 -45.916063
9550 10 1 -21.838296 -48.608223 -46.136293
9551 10 1 -20.952223 -49.004167 -45.895247
9552 10 1 -20.822338 -48.435175 -45.083226
9553 10 1 -20.837953 -49.435040 -45.088257
9554 10 1 -20.848538 -50.432930 -45.024195
9555 10 1 -20.336044 -49.870423 -44.375399
9556 10 1 -19.353661 -49.764759 -44.529541
9557 10 1 -18.665530 -49.588307 -45.233345
9558 10 1 -18.132612 -50.053421 -44.526474
9559 10 1 -17.731603 -49.364076 -45.129794
9560 10 1 -16.895861 -49.063201 -45.589153
9561 10 1 -16.351019 -48.248724 -45.788586
9562 10 1 -16.438207 -47.638608 -45.001085
9563 10 1 -15.556119 -47.685584 -45.469823
9564 10 1 -15.736117 -47.589754 -44.490835
9565 10 1 -14.748194 -47.742699 -44.466033
9566 10 1 -14.115810 -46.980006 -44.601648
9567 10 1 -14.992103 -47.030585 -44.122531
9568 10 1 -14.844181 -46.165155 -43.643836
9569 10 1 -15.798869 -45.867879 -43.657881
9570 10 1 -15.347289 -45.265807 -42.999409
9571 10 1 -15.165968 -44.548842 -43.672524
9572 10 1 -14.784291 -43.663951 -43.405523
9573 10 1 -15.616105 -43.867395 -42.889098
9574 10 1 -16.068109 -44.292858 -42.105087
9575 10 1 -16.197749 -45.282738 -42.047380
9576 10 1 -17.147794 -45.205810 -42.349865
9577 10 1 -16.490124 -45.216904 -43.103090
9578 10 1 -16.415672 -46.106930 -42.653300
9579 10 1 -16.401444 -46.053945 -41.654806
9580 10 1 -16.112183 -45.983641 -40.700141
9581 10 1 -16.121034 -46.902802 -40.306359
9582 10 1 -16.176376 -47.876449 -40.085117
9583 10 1 -15.583922 -47.765538 -40.883050
9584 10 1 -15.162584 -47.203343 -40.171424
9585 10 1 -14.188634 -47.124442 -39.958831
9586 10 1 -13.758552 -46.421120 -40.524841
9587 10 1 -12.906301 -46.900153 -40.735070
9588 10 1 -13.281195 -47.819856 -40.851689
9589 10 1 -13.550753 -47.773689 -41.813566
9590 10 1 -13.870886 -48.714291 -41.700501
9591 10 1 -14.000175 -48.803516 -40.712917
9592 10 1 -13.916963 -49.749615 -41.025921
9593 10 1 -14.612380 -50.344421 -41.429160
9594 10 1 -15.560567 -50.648400 -41.336757
9595 10 1 -15.111880 -51.503964 -41.078514
9596 10 1 -14.469580 -51.541746 -40.312993
9597 10 1 -13.939797 -50.975875 -39.681234
9598 10 1 -14.370169 -50.387471 -38.996719
9599 10 1 -13.457646 -49.978453 -38.999300
9600 10 1 -12.788836 -50.520834 -39.507745
9601 10 1 -12.236244 -51.137925 -40.067959
9602 10 1 -11.531306 -51.834040 -39.931993
9603 10 1 -12.099659 -51.484710 -39.187047
9604 10 1 -11.441349 -50.982400 -38.626411
9605 10 1 -10.712706 -51.218905 -37.983647
9606 10 1 -10.756799 -50.225167 -37.880978
9607 10 1 -11.643628 -50.616409 -37.635085
9608 10 1 -10.984691 -51.080476 -37.043102
9609 10 1 -10.226214 -51.731945 -37.025773
9610 10 1 -9.949249 -51.542251 -37.967742
9611 10 1 -9.399608 -50.961053 -38.567828
9612 10 1 -9.531155 -50.172030 -37.967714
9613 10 1 -8.869830 -49.543197 -38.376637
9614 10 1 -8.295486 -49.016036 -39.002920
9615 10 1 -8.318034 -48.672746 -38.063961
9616 10 1 -8.844091 -48.042247 -37.493229
9617 10 1 -8.141901 -48.112902 -36.784754
9618 10 1 -8.914324 -48.744627 -36.850225
9619 10 1 -9.293228 -47.832587 -36.693333
9620 10 1 -9.827680 -47.050661 -36.372470
9621 10 1 -10.737028 -46.793825 -36.699763
9622 10 1 -11.104426 -47.429817 -37.378389
9623 10 1 -10.611906 -48.298676 -37.428469
9624 10 1 -10.536759 -49.032249 -38.103913
9625 10 1 -10.036308 -49.165511 -37.248466
9626 10 1 -9.190888 -49.677791 -37.097356
9627 10 1 -8.514125 -49.766363 -36.366503
9628 10 1 -7.826995 -50.488281 -36.284729
9629 10 1 -7.093788 -49.944822 -36.693460
9630 10 1 -7.042954 -48.949612 -36.609950
9631 10 1 -6.936390 -47.998288 -36.899131
9632 10 1 -6.468699 -48.200562 -36.038695
9633 10 1 -6.820769 -49.048650 -35.642724
9634 10 1 -7.116073 -49.280043 -34.715765
9635 10 1 -6.264962 -48.810475 -34.480995
9636 10 1 -6.674999 -48.347918 -35.267068
9637 10 1 -6.375205 -47.402798 -35.137177
9638 10 1 -6.624854 -46.435209 -35.099131
9639 10 1 -7.620421 -46.529254 -35.100600
9640 10 1 -8.449754 -45.975744 -35.176973
9641 10 1 -8.077647 -45.066604 -34.989888
9642 10 1 -8.362305 -44.227406 -34.526511
9643 10 1 -7.888372 -44.014121 -35.380852
9644 10 1 -8.466519 -43.203225 -35.471371
9645 10 1 -8.682790 -42.963317 -34.524972
9646 10 1 -9.351117 -42.550211 -33.906359
9647 10 1 -10.199799 -42.026922 -33.829497
9648 10 1 -10.204815 -41.464792 -33.002463
9649 10 1 -10.175358 -40.584519 -32.528911
9650 10 1 -9.268423 -40.228708 -32.754451
9651 10 1 -9.050873 -39.547850 -32.055091
9652 10 1 -9.495400 -38.653065 -32.096986
9653 10 1 -8.985597 -37.792860 -32.084823
9654 10 1 -9.027547 -37.279660 -32.942066
9655 10 1 -8.346870 -37.275556 -32.209493
9656 10 1 -7.569141 -36.681997 -32.002554
9657 10 1 -7.250210 -35.838582 -31.570193
9658 10 1 -6.334844 -35.436825 -31.543795
9659 10 1 -6.364586 -36.435621 -31.582812
9660 10 1 -6.088799 -36.329190 -30.627504
9661 10 1 -5.895254 -36.768956 -29.750494
9662 10 1 -6.777870 -37.144647 -29.467927
9663 10 1 -7.032764 -37.926340 -30.037124
9664 10 1 -7.698327 -37.182527 -29.975747
9665 10 1 -8.512164 -37.456584 -30.488155
9666 10 1 -9.423116 -37.293431 -30.109279
9667 10 1 -8.889394 -38.127010 -29.966849
9668 10 1 -8.382075 -38.941427 -30.248547
9669 10 1 -7.561201 -39.306091 -29.809019
9670 10 1 -7.492686 -38.808684 -28.944211
9671 10 1 -8.316432 -38.770736 -28.378524
9672 10 1 -7.646459 -39.373637 -27.945342
9673 10 1 -7.070531 -40.014891 -28.452393
9674 10 1 -6.189604 -39.731389 -28.073454
9675 10 1 -6.411175 -40.705695 -28.113892
9676 10 1 -7.049600 -40.483581 -27.376953
9677 10 1 -6.219449 -39.963392 -27.176318
9678 10 1 -6.063590 -40.771673 -26.608524
9679 10 1 -5.089561 -40.992851 -26.560072
9680 10 1 -4.719567 -40.870048 -25.639190
9681 10 1 -5.169103 -41.673585 -25.249003
9682 10 1 -4.796872 -42.274979 -24.542059
9683 10 1 -4.628381 -41.384731 -24.118895
9684 10 1 -4.215727 -40.960151 -23.313012
9685 10 1 -3.745783 -41.554285 -22.660204
9686 10 1 -3.106346 -42.277463 -22.921229
9687 10 1 -2.919644 -41.868923 -22.027788
9688 10 1 -2.903969 -41.184589 -21.298788
9689 10 1 -2.168743 -41.329385 -21.960964
9690 10 1 -2.884602 -40.632227 -21.922008
9691 10 1 -3.087312 -41.018737 -22.821741
9692 10 1 -3.391975 -40.644941 -23.697787
9693 10 1 -2.710699 -41.245841 -24.115856
9694 10 1 -1.836567 -41.279181 -23.631312
9695 10 1 -2.555138 -41.969974 -23.711694
9696 10 1 -2.134330 -41.915196 -22.806199
9697 10 1 -1.352870 -42.403291 -23.194894
9698 10 1 -1.509244 -42.144067 -22.241820
9699 10 1 -0.782633 -41.731823 -22.791449
9700 10 1 -1.241083 -41.079953 -22.187388
9701 10 1 -1.697251 -41.164011 -21.301473
9702 10 1 -1.710162 -40.771988 -20.381608
9703 10 1 -1.613946 -40.095172 -19.651771
9704 10 1 -0.790830 -39.565215 -19.855794
9705 10 1 -0.005238 -39.897920 -20.377477
9706 10 1 0.479400 -40.662504 -20.802374
9707 10 1 0.570150 -41.274367 -20.016634
9708 10 1 0.367065 -42.224382 -19.779509
9709 10 1 0.103299 -43.117315 -19.414682
9710 10 1 -0.753698 -42.627783 -19.575666
9711 10 1 -1.535627 -42.151193 -19.977472
9712 10 1 -1.364594 -42.288938 -19.001883
9713 10 1 -1.430751 -41.452784 -18.457392
9714 10 1 -0.808034 -40.863782 -17.942319
9715 10 1 -0.368456 -40.428357 -18.727924
9716 10 1 -0.558030 -41.400212 -18.867777
9717 10 1 -0.636886 -42.103293 -18.161054
9718 10 1 -1.261485 -42.200878 -17.386229
9719 10 1 -1.441020 -42.908959 -18.069156
9720 10 1 -2.214217 -43.543038 -18.079671
9721 10 1 -1.332900 -43.756439 -18.501264
9722 10 1 -2.067340 -43.329981 -19.029215
9723 10 1 -2.762606 -43.444992 -19.738706
9724 10 1 -3.394034 -43.378668 -20.511300
9725 10 1 -4.200123 -43.195602 -21.074067
9726 10 1 -4.544739 -42.991881 -20.157695
9727 10 1 -5.393574 -42.835921 -19.652567
9728 10 1 -6.053572 -43.183470 -20.318609
9729 10 1 -6.008914 -42.193125 -20.187377
9730 10 1 -6.085128 -42.424131 -19.217414
9731 10 1 -5.762634 -42.148941 -18.311727
9732 10 1 -6.057314 -41.196903 -18.229351
9733 10 1 -6.543324 -40.323741 -18.266533
9734 10 1 -5.754657 -39.761895 -18.516200
9735 10 1 -4.832492 -39.747467 -18.129674
9736 10 1 -4.574098 -40.706170 -18.248505
9737 10 1 -4.011992 -40.608331 -19.069762
9738 10 1 -4.732203 -41.197092 -19.436716
9739 10 1 -5.636660 -40.791518 -19.304549
9740 10 1 -6.408809 -41.301028 -19.684267
9741 10 1 -6.686434 -41.407549 -20.639033
9742 10 1 -7.021033 -40.501918 -20.899561
9743 10 1 -7.226475 -39.580940 -20.568511
9744 10 1 -7.664916 -38.911092 -19.969284
9745 10 1 -7.391268 -38.128806 -20.528879
9746 10 1 -6.752928 -37.991152 -19.771533
9747 10 1 -6.253544 -37.890301 -20.632024
9748 10 1 -5.681682 -37.452356 -19.938355
9749 10 1 -6.015489 -36.538965 -20.171357
9750 10 1 -5.851442 -35.652910 -19.737773
9751 10 1 -6.526457 -35.794046 -19.013594
9752 10 1 -7.448716 -35.536290 -18.725496
9753 10 1 -7.954788 -34.935695 -19.344507
9754 10 1 -8.903487 -34.818505 -19.638170
9755 10 1 -8.721620 -35.524883 -18.954097
9756 10 1 -8.319356 -35.554922 -18.039067
9757 10 1 -9.290967 -35.747313 -17.901380
9758 10 1 -9.212671 -35.661602 -16.908141
9759 10 1 -8.610951 -36.350595 -17.312150
9760 10 1 -9.313581 -37.005681 -17.034348
9761 10 1 -10.238114 -36.648656 -16.901031
9762 10 1 -10.565898 -36.538722 -17.839366
9763 10 1 -11.548945 -36.362975 -17.891639
9764 10 1 -11.844665 -35.985123 -18.769008
9765 10 1 -12.112059 -36.826975 -18.300195
9766 10 1 -12.727309 -36.235972 -18.821907
9767 10 1 -13.131164 -36.950634 -19.393009
9768 10 1 -12.991785 -37.501364 -18.570045
9769 10 1 -13.160432 -37.923405 -17.679293
9770 10 1 -12.239642 -38.304630 -17.596744
9771 10 1 -12.708403 -38.248732 -18.478299
9772 10 1 -12.337037 -38.679516 -19.300803
9773 10 1 -12.040579 -39.632627 -19.361561
9774 10 1 -12.260746 -40.110972 -18.511436
9775 10 1 -13.016629 -40.756726 -18.619335
9776 10 1 -12.543385 -40.510628 -19.465193
9777 10 1 -12.997222 -39.631191 -19.321590
9778 10 1 -13.713605 -40.023146 -19.898796
9779 10 1 -14.411892 -40.550591 -20.382736
9780 10 1 -13.505645 -40.786246 -20.733710
9781 10 1 -14.151301 -41.187369 -21.383501
9782 10 1 -14.868571 -41.379881 -22.053175
9783 10 1 -14.241207 -41.311257 -22.828871
9784 10 1 -13.523872 -41.942336 -23.124118
9785 10 1 -13.325230 -41.569467 -24.030490
9786 10 1 -13.286056 -42.540167 -23.793412
9787 10 1 -14.099131 -42.539970 -23.211254
9788 10 1 -14.097325 -41.614747 -23.590673
9789 10 1 -13.824396 -40.830959 -24.148514
9790 10 1 -14.375284 -40.235874 -23.563369
9791 10 1 -14.189301 -39.925493 -24.495610
9792 10 1 -14.959290 -40.413185 -24.084182
9793 10 1 -15.848496 -40.484378 -24.536116
9794 10 1 -16.677052 -40.244821 -24.030045
9795 10 1 -16.166890 -39.729440 -23.341484
9796 10 1 -16.160959 -40.319854 -22.534406
9797 10 1 -15.282111 -40.551062 -22.117071
9798 10 1 -15.445699 -41.139942 -21.325579
9799 10 1 -15.210085 -42.099296 -21.170254
9800 10 1 -15.032925 -43.028765 -21.493830
9801 10 1 -15.869305 -43.130993 -20.955297
9802 10 1 -16.545990 -43.193395 -20.221674
9803 10 1 -17.060134 -43.076362 -21.071355
9804 10 1 -16.564377 -43.572057 -21.784455
9805 10 1 -15.715560 -44.074469 -21.619859
9806 10 1 -15.178158 -44.797618 -21.185977
9807 10 1 -15.226938 -45.779853 -21.004769
9808 10 1 -15.188605 -45.806058 -22.003691
9809 10 1 -14.991650 -46.593436 -22.587853
9810 10 1 -15.609983 -45.843563 -22.823131
9811 10 1 -16.472074 -45.523269 -23.215828
9812 10 1 -16.584692 -46.356002 -22.673728
9813 10 1 -17.156057 -45.972149 -21.948332
9814 10 1 -17.699954 -45.664857 -22.729195
9815 10 1 -17.454103 -44.706714 -22.875888
9816 10 1 -17.814649 -44.649637 -21.944894
9817 10 1 -18.302196 -44.924619 -21.116231
9818 10 1 -18.938474 -45.439465 -20.541701
9819 10 1 -18.840951 -45.463337 -21.536648
9820 10 1 -19.148068 -44.571753 -21.869449
9821 10 1 -20.049398 -44.253334 -21.575827
9822 10 1 -19.678616 -45.052530 -21.102745
9823 10 1 -20.171367 -44.730031 -20.294543
9824 10 1 -19.861190 -45.368768 -19.590408
9825 10 1 -20.781476 -45.037909 -19.799232
9826 10 1 -20.384686 -45.494985 -20.595247
9827 10 1 -21.212660 -46.052334 -20.657053
9828 10 1 -21.992961 -45.449398 -20.823180
9829 10 1 -22.447748 -46.123751 -21.404917
9830 10 1 -22.827489 -47.026288 -21.607952
9831 10 1 -22.413880 -46.650412 -20.778709
9832 10 1 -22.683002 -47.109369 -19.931991
9833 10 1 -23.552104 -47.141700 -20.425567
9834 10 1 -23.863528 -48.091904 -20.436803
9835 10 1 -24.023537 -47.982167 -21.417800
9836 10 1 -23.108841 -47.654447 -21.181302
9837 10 1 -23.509185 -47.607006 -22.096439
9838 10 1 -24.342162 -47.933774 -22.542950
9839 10 1 -24.228933 -48.876192 -22.857637
9840 10 1 -24.532819 -49.513162 -22.149173
9841 10 1 -24.243680 -50.195591 -21.477838
9842 10 1 -24.605418 -50.766428 -20.740756
9843 10 1 -23.734290 -50.275534 -20.753397
9844 10 1 -22.967255 -50.900524 -20.898463
9845 10 1 -22.603479 -50.199929 -21.512331
9846 10 1 -21.638150 -50.002124 -21.682661
9847 10 1 -21.341263 -49.347839 -22.378197
9848 10 1 -21.180965 -48.368962 -22.251292
9849 10 1 -20.370045 -47.911957 -21.885840
9850 10 1 -20.414379 -48.908937 -21.949608
9851 10 1 -20.320236 -48.597347 -22.895150
9852 10 1 -19.639683 -48.792554 -22.188933
9853 10 1 -18.650407 -48.667690 -22.113151
9854 10 1 -17.979635 -47.971979 -21.856147
9855 10 1 -17.942387 -47.746292 -20.882660
9856 10 1 -18.356106 -48.149093 -20.066211
9857 10 1 -18.463767 -48.557920 -20.972451
9858 10 1 -19.436050 -48.403331 -20.797046
9859 10 1 -19.062193 -48.865133 -19.992702
9860 10 1 -19.122757 -49.560299 -19.276409
9861 10 1 -19.067621 -50.461658 -19.705957
9862 10 1 -19.136226 -50.855437 -18.789316
9863 10 1 -19.540259 -51.252291 -19.613491
9864 10 1 -20.056471 -50.444354 -19.897677
9865 10 1 -19.302465 -50.461445 -20.554322
9866 10 1 -18.654673 -51.051165 -21.036605
9867 10 1 -18.981194 -51.871072 -20.566354
9868 10 1 -19.860175 -52.251343 -20.278626
9869 10 1 -20.642121 -52.869072 -20.362120
9870 10 1 -21.556785 -53.022284 -19.988066
9871 10 1 -22.111198 -53.853393 -20.031477
9872 10 1 -22.458971 -53.227485 -19.333414
9873 10 1 -22.373458 -52.926381 -18.383664
9874 10 1 -22.932187 -52.294600 -17.846379
9875 10 1 -23.396514 -51.408995 -17.856556
9876 10 1 -22.500424 -51.049448 -17.596271
9877 10 1 -23.188866 -50.534471 -18.107002
9878 10 1 -22.201006 -50.424280 -17.997498
9879 10 1 -22.502814 -51.007490 -18.751672
9880 10 1 -22.750413 -50.945008 -19.718518
9881 10 1 -22.334292 -51.846105 -19.840444
9882 10 1 -21.389636 -52.160165 -19.935272
9883 10 1 -21.722577 -51.571830 -19.198379
9884 10 1 -21.283650 -52.432372 -18.939902
9885 10 1 -21.158485 -53.424411 -18.953759
9886 10 1 -21.178352 -54.173069 -19.616418
9887 10 1 -21.102463 -55.163144 -19.498128
9888 10 1 -21.781643 -54.686846 -18.939689
9889 10 1 -22.447348 -55.064091 -18.295853
9890 10 1 -22.585126 -54.101326 -18.063259
9891 10 1 -22.847003 -53.943304 -17.111183
9892 10 1 -23.175570 -53.157450 -16.587278
9893 10 1 -22.331920 -53.515592 -16.187291
9894 10 1 -21.684613 -52.952560 -16.701088
9895 10 1 -21.085768 -52.855373 -17.496034
9896 10 1 -21.247703 -51.902072 -17.241095
9897 10 1 -20.915988 -50.960122 -17.293019
9898 10 1 -20.372199 -50.261277 -17.757678
9899 10 1 -19.895894 -49.973761 -16.926734
9900 10 1 -19.053695 -49.530701 -17.233976
9901 10 1 -18.222843 -49.279974 -16.737165
9902 10 1 -18.356977 -49.582012 -15.793353
9903 10 1 -18.047724 -48.806976 -15.242280
9904 10 1 -17.361340 -48.224233 -14.807208
9905 10 1 -17.093279 -47.692503 -15.610580
9906 10 1 -18.042106 -47.987624 -15.498191
9907 10 1 -18.096742 -48.547806 -16.324757
9908 10 1 -17.884582 -47.574922 -16.232647
9909 10 1 -16.956224 -47.882413 -16.441454
9910 10 1 -17.463814 -47.700765 -17.283687
9911 10 1 -18.427075 -47.451939 -17.384746
9912 10 1 -17.957535 -47.766876 -18.209577
9913 10 1 -18.619220 -48.419415 -17.840300
9914 10 1 -19.369084 -48.658297 -18.457260
9915 10 1 -19.598826 -49.543786 -18.053370
9916 10 1 -18.621670 -49.334298 -18.089156
9917 10 1 -17.777146 -48.914210 -17.757035
9918 10 1 -17.037186 -49.544830 -17.991081
9919 10 1 -16.205463 -49.043191 -17.753184
9920 10 1 -16.108143 -48.773972 -16.795035
9921 10 1 -15.425932 -49.348978 -17.246651
9922 10 1 -15.220117 -48.375316 -17.148549
9923 10 1 -15.333620 -48.174289 -18.121537
9924 10 1 -14.830007 -47.841751 -18.918902
9925 10 1 -15.306444 -48.715839 -18.824154
9926 10 1 -15.216784 -49.645713 -19.180937
9927 10 1 -14.921608 -49.967855 -18.281439
9928 10 1 -15.816859 -49.658091 -18.601708
9929 10 1 -15.398488 -50.487474 -18.971964
9930 10 1 -15.381014 -51.384576 -18.530486
9931 10 1 -16.335766 -51.525242 -18.792520
9932 10 1 -16.712157 -52.275724 -19.335758
9933 10 1 -16.348618 -52.395527 -18.411914
9934 10 1 -16.268066 -53.086083 -19.130694
9935 10 1 -16.278448 -54.011236 -19.510146
9936 10 1 -15.400314 -53.566004 -19.685215
9937 10 1 -15.291767 -54.559101 -19.729664
9938 10 1 -15.237605 -54.686719 -20.720007
9939 10 1 -14.557409 -54.061503 -21.102679
9940 10 1 -15.032493 -53.468106 -21.752429
9941 10 1 -14.378725 -54.179322 -22.010805
9942 10 1 -13.846041 -54.810201 -22.574934
9943 10 1 -14.375348 -55.650151 -22.455276
9944 10 1 -15.181920 -55.074418 -22.321216
9945 10 1 -15.431544 -54.447387 -23.059132
9946 10 1 -14.510555 -54.820149 -23.172386
9947 10 1 -14.119262 -53.951778 -23.477052
9948 10 1 -14.914288 -53.468896 -23.844146
9949 10 1 -15.218923 -53.363671 -24.790785
9950 10 1 -15.099404 -52.822092 -25.622895
9951 10 1 -15.471576 -53.539629 -26.211648
9952 10 1 -15.951505 -53.821853 -27.042321
9953 10 1 -15.812298 -53.348173 -27.911946
9954 10 1 -15.262620 -54.159044 -28.112802
9955 10 1 -14.518758 -53.581182 -28.448576
9956 10 1 -14.246882 -52.652443 -28.196529
9957 10 1 -13.639030 -52.019558 -27.716976
9958 10 1 -13.318555 -52.641067 -28.431834
9959 10 1 -13.325781 -52.952093 -29.382208
9960 10 1 -13.905321 -52.897880 -30.195346
9961 10 1 -14.778892 -53.212548 -30.566639
9962 10 1 -15.511787 -52.532680 -30.541287
9963 10 1 -16.143499 -52.988025 -31.168663
9964 10 1 -16.760580 -53.770638 -31.086638
9965 10 1 -16.141410 -54.091955 -30.370129
9966 10 1 -16.354636 -54.797886 -31.045552
9967 10 1 -15.843103 -55.280615 -30.334703
9968 10 1 -15.439109 -56.194821 -30.302812
9969 10 1 -16.406589 -56.250698 -30.056114
9970 10 1 -17.062851 -56.853994 -30.509275
9971 10 1 -17.034621 -56.175325 -31.243177
9972 10 1 -17.502850 -56.135992 -32.125908
9973 10 1 -16.776109 -56.496481 -32.710627
9974 10 1 -16.969940 -56.848614 -33.626286
9975 10 1 -16.112539 -56.607392 -34.080902
9976 10 1 -15.722734 -55.734197 -33.788357
9977 10 1 -14.788285 -55.998657 -33.549892
9978 10 1 -13.992007 -55.656543 -33.050993
9979 10 1 -13.461412 -56.171981 -32.378094
9980 10 1 -12.474397 -56.324925 -32.329000
9981 10 1 -12.791748 -57.224409 -32.629363
9982 10 1 -13.238017 -57.628022 -31.830651
9983 10 1 -13.331352 -58.082870 -30.944987
9984 10 1 -14.176940 -58.597894 -31.085450
9985 10 1 -13.426742 -59.204835 -31.347796
9986 10 1 -14.011543 -59.393066 -32.136832
9987 10 1 -14.284860 -58.588782 -32.664492
9988 10 1 -14.887211 -59.119999 -33.260296
9989 10 1 -14.432174 -59.227689 -34.144232
9990 10 1 -13.551773 -58.753499 -34.138056
9991 10 1 -13.488705 -59.716354 -33.875503
9992 10 1 -12.727275 -59.161661 -34.210975
9993 10 1 -12.270489 -58.367023 -34.610845
9994 10 1 -11.756758 -59.140939 -34.240529
9995 10 1 -11.819120 -59.841592 -34.951301
9996 10 1 -11.476531 -59.513618 -35.831679
9997 10 1 -11.854048 -58.676085 -35.436687
9998 10 1 -11.819859 -58.923755 -36.404928
9999 10 1 -10.980035 -58.805017 -36.934643
10000 10 1 -10.462092 -59.550843 -36.515742
10001 11 1 27.529700 33.744016 48.301851
10002 11 1 28.354415 33.429042 48.771571
10003 11 1 28.718367 33.851274 47.941355
10004 11 1 29.324805 33.334569 48.545713
10005 11 1 29.572912 33.641674 47.626948
10006 11 1 29.635817 32.732933 47.214356
10007 11 1 29.030881 33.475496 46.926860
10008 11 1 29.210985 32.925970 46.111026
10009 11 1 30.205225 32.949660 46.215550
10010 11 1 31.018933 33.476508 45.969969
10011 11 1 30.892860 32.558238 45.594621
10012 11 1 31.083205 31.578444 45.656031
10013 11 1 31.096190 31.586737 44.656149
10014 11 1 31.407760 31.159087 43.807598
10015 11 1 31.430651 31.894212 43.130053
10016 11 1 32.219653 32.499882 43.026908
10017 11 1 32.074657 33.486856 43.096607
10018 11 1 32.336249 33.702619 44.037360
10019 11 1 32.897979 33.388057 43.272173
10020 11 1 33.091361 32.864214 44.101747
10021 11 1 33.988612 33.063657 44.495654
10022 11 1 33.685908 32.401733 45.181385
10023 11 1 33.455784 32.561763 46.141298
10024 11 1 33.920131 31.725609 46.433238
10025 11 1 34.196799 30.797461 46.184249
10026 11 1 34.431733 30.119117 46.880421
10027 11 1 33.878513 29.288323 46.819362
10028 11 1 33.121652 29.029245 47.419396
10029 11 1 32.213514 28.610688 47.429083
10030 11 1 31.376790 28.687359 46.886852
10031 11 1 31.082907 27.839829 46.444894
10032 11 1 31.560606 27.304439 47.141429
10033 11 1 32.029296 27.018002 46.305796
10034 11 1 32.693739 27.628310 45.874473
10035 11 1 32.417879 27.281818 44.977899
10036 11 1 32.230842 28.233545 44.734521
10037 11 1 33.091228 27.727047 44.791055
10038 11 1 33.751033 27.138525 44.323830
10039 11 1 33.926773 27.907694 44.938236
10040 11 1 33.645044 27.319303 45.696144
10041 11 1 33.133920 27.004879 46.496075
10042 11 1 33.532830 26.264706 47.037383
10043 11 1 34.513660 26.101726 46.930566
10044 11 1 33.969509 25.762579 47.697950
10045 11 1 33.707634 25.085803 47.009913
10046 11 1 34.606506 24.727669 47.262436
10047 11 1 35.270327 25.026891 46.577011
10048 11 1 36.125606 25.065972 46.060319
10049 11 1 36.211255 25.990987 46.430469
10050 11 1 35.430960 26.564907 46.678977
10051 11 1 36.158143 26.842380 46.051113
10052 11 1 36.870192 26.185180 45.803981
10053 11 1 37.561437 26.398454 45.113551
10054 11 1 36.954924 26.438627 44.319493
10055 11 1 36.618259 26.097448 43.441852
10056 11 1 37.100211 25.222044 43.404555
10057 11 1 36.197709 24.874700 43.149913
10058 11 1 35.485559 24.276489 43.517318
10059 11 1 34.642588 24.806925 43.427669
10060 11 1 34.268554 24.800772 42.500274
10061 11 1 35.139254 24.392027 42.773787
10062 11 1 35.379285 23.422451 42.725762
10063 11 1 34.434139 23.622436 42.984035
10064 11 1 33.761933 22.923118 43.227126
10065 11 1 34.667676 22.851503 43.644858
10066 11 1 34.864578 22.757274 42.668974
10067 11 1 35.644876 22.487305 42.104835
10068 11 1 35.112844 22.460929 41.258522
10069 11 1 35.649238 22.023459 40.536787
10070 11 1 36.131915 22.157990 39.671383
10071 11 1 35.283629 22.218726 39.145339
10072 11 1 35.733097 23.028776 39.521900
10073 11 1 35.429415 23.183718 40.461991
10074 11 1 34.678115 23.703697 40.868401
10075 11 1 34.741039 22.750655 40.572171
10076 11 1 34.574108 22.663053 39.590102
10077 11 1 34.012261 21.996599 39.100033
10078 11 1 34.519142 21.136781 39.038509
10079 11 1 34.437052 20.508045 38.265235
10080 11 1 35.086853 20.181751 38.951741
10081 11 1 36.039196 20.382036 38.721681
10082 11 1 35.852535 19.494917 38.299568
10083 11 1 36.081632 18.771109 37.648711
10084 11 1 35.191731 18.980863 37.243642
10085 11 1 34.803482 19.147148 38.150071
10086 11 1 34.070896 18.528044 37.867179
10087 11 1 33.332910 19.122434 37.547685
10088 11 1 33.389162 18.564670 36.719594
10089 11 1 33.165392 18.131935 35.846286
10090 11 1 32.698676 17.799248 36.665734
10091 11 1 33.411674 17.285081 36.189010
10092 11 1 33.391411 16.832763 37.080637
10093 11 1 33.773932 17.319812 37.865787
10094 11 1 33.903313 17.197757 38.849842
10095 11 1 33.139354 16.766419 38.369932
10096 11 1 33.417726 16.058972 39.019568
10097 11 1 32.714110 16.460880 39.605567
10098 11 1 31.742779 16.690020 39.542239
10099 11 1 32.310419 16.526067 38.735452
10100 11 1 32.419742 15.640708 39.187324
10101 11 1 32.526871 15.380555 38.227718
10102 11 1 31.971446 14.626504 38.578305
10103 11 1 31.232052 13.955278 38.525843
10104 11 1 30.910095 14.362806 37.671288
10105 11 1 30.174527 13.940033 37.141948
10106 11 1 29.719717 13.467673 36.386948
10107 11 1 29.325151 13.464962 37.305811
10108 11 1 29.370818 14.444523 37.501706
10109 11 1 30.157209 14.907051 37.911165
10110 11 1 29.985938 15.828476 37.562391
10111 11 1 29.594866 16.663124 37.174545
10112 11 1 29.934038 16.640149 38.114989
10113 11 1 30.502631 17.393329 38.445778
10114 11 1 30.592214 16.680248 39.141112
10115 11 1 30.798350 16.756610 40.116652
10116 11 1 30.931247 17.215233 40.995289
10117 11 1 30.467167 17.507317 41.831540
10118 11 1 30.240329 16.538027 41.736555
10119 11 1 29.642363 17.304754 41.970149
10120 11 1 29.832561 16.918879 41.067418
10121 11 1 29.635030 17.050715 40.096026
10122 11 1 29.343671 16.792474 39.174928
10123 11 1 28.841403 17.538670 38.737985
10124 11 1 28.510026 18.382920 39.159210
10125 11 1 29.082281 19.084020 38.733789
10126 11 1 28.958678 19.924609 38.206406
10127 11 1 29.141292 20.341532 37.315998
10128 11 1 29.508880 20.618158 36.428103
10129 11 1 29.227930 19.785933 35.950119
10130 11 1 29.011695 20.067294 35.015198
10131 11 1 28.753846 19.660172 34.138976
10132 11 1 29.437891 20.377053 34.004203
10133 11 1 30.076812 20.469868 33.240551
10134 11 1 30.635749 21.236195 33.557304
10135 11 1 29.668822 21.465873 33.668207
10136 11 1 29.482955 21.089227 34.575727
10137 11 1 28.717631 21.434797 35.118737
10138 11 1 29.390111 20.741454 35.377667
10139 11 1 30.209790 20.874827 35.934748
10140 11 1 30.187311 21.835533 36.211403
10141 11 1 30.951750 22.430300 36.460169
10142 11 1 30.807640 22.627153 35.490385
10143 11 1 30.251344 23.255988 36.033616
10144 11 1 29.750184 23.566947 35.226062
10145 11 1 29.291902 22.889574 34.650612
10146 11 1 28.424331 22.392266 34.648014
10147 11 1 27.492860 22.755827 34.634467
10148 11 1 27.218438 23.401118 33.921520
10149 11 1 26.287639 23.741810 33.789076
10150 11 1 25.860134 24.323819 34.480817
10151 11 1 25.981322 25.309042 34.359785
10152 11 1 25.968963 26.105701 34.964088
10153 11 1 26.189516 26.529234 34.085466
10154 11 1 25.599364 26.972918 34.759903
10155 11 1 26.155292 27.793515 34.627373
10156 11 1 25.568510 28.222181 33.940399
10157 11 1 24.699602 28.047793 33.477163
10158 11 1 24.875933 28.912719 33.007259
10159 11 1 24.659536 29.827237 33.349063
10160 11 1 24.262162 30.518464 33.952635
10161 11 1 24.250289 29.723420 34.559070
10162 11 1 23.523677 29.879279 33.889934
10163 11 1 22.782600 30.263878 33.339581
10164 11 1 21.966757 29.709259 33.175883
10165 11 1 21.228215 29.088943 32.911755
10166 11 1 21.997121 28.502930 32.656077
10167 11 1 21.949191 29.028594 31.806736
10168 11 1 21.671317 28.345143 31.131695
10169 11 1 21.473093 29.266545 30.797440
10170 11 1 22.032807 28.825455 30.095899
10171 11 1 22.266720 29.179380 29.190349
10172 11 1 22.003826 29.052573 28.233893
10173 11 1 21.323093 28.326065 28.140145
10174 11 1 21.990335 28.119788 27.424436
10175 11 1 21.491391 28.018258 26.563770
10176 11 1 20.764573 27.970648 25.878592
10177 11 1 20.430140 27.269574 26.508394
10178 11 1 20.282027 26.809237 25.633093
10179 11 1 20.139392 25.997730 26.199760
10180 11 1 20.668068 26.423514 26.934069
10181 11 1 20.900475 25.464104 26.774324
10182 11 1 20.472158 24.599356 26.512112
10183 11 1 19.952424 24.181389 27.257216
10184 11 1 20.014952 23.601555 28.069548
10185 11 1 20.611199 23.291810 28.810188
10186 11 1 20.760431 22.890821 27.906342
10187 11 1 20.951105 22.230123 28.632374
10188 11 1 21.697939 22.433279 27.999154
10189 11 1 22.182905 23.143449 28.509512
10190 11 1 22.325343 22.541642 29.295349
10191 11 1 23.294773 22.737623 29.442987
10192 11 1 23.774036 23.591105 29.647625
10193 11 1 24.656500 23.970010 29.368900
10194 11 1 25.155243 24.126853 28.516459
10195 11 1 26.063410 24.166035 28.933228
10196 11 1 25.790378 23.344479 29.433727
10197 11 1 25.209970 22.536699 29.536768
10198 11 1 24.278472 22.600572 29.178675
10199 11 1 23.923594 21.885606 28.576275
10200 11 1 24.852139 22.187407 28.360125
10201 11 1 24.730676 23.136202 28.651733
10202 11 1 24.499169 23.419215 27.720976
10203 11 1 23.559457 23.722192 27.562398
10204 11 1 22.869565 23.368595 26.930719
10205 11 1 22.485833 24.015783 27.589427
10206 11 1 22.189341 24.970036 27.628073
10207 11 1 22.820362 24.792032 28.383140
10208 11 1 21.830223 24.885993 28.487048
10209 11 1 21.805200 25.594401 29.192407
10210 11 1 20.925704 25.723182 28.734256
10211 11 1 20.420028 26.443106 28.258861
10212 11 1 20.458169 27.267463 27.694076
10213 11 1 20.818755 28.184529 27.523877
10214 11 1 20.673375 28.983477 26.940314
10215 11 1 20.278153 28.831213 26.034435
10216 11 1 20.107707 29.064848 25.077167
10217 11 1 20.369741 28.463594 24.322295
10218 11 1 19.895242 27.851897 23.689305
10219 11 1 19.939134 27.528310 24.634485
10220 11 1 19.389392 26.721634 24.417557
10221 11 1 18.687368 26.330724 25.012832
10222 11 1 18.159789 25.490900 25.140720
10223 11 1 17.926605 24.692444 24.585659
10224 11 1 17.234272 24.755560 23.866847
10225 11 1 16.692709 25.255771 24.542494
10226 11 1 16.462018 24.748191 25.372641
10227 11 1 15.920061 24.014636 25.782737
10228 11 1 16.556719 23.268766 25.978555
10229 11 1 15.561613 23.315277 26.065742
10230 11 1 14.732515 22.911637 25.678868
10231 11 1 14.267479 23.653671 26.161702
10232 11 1 14.047890 24.179585 25.340000
10233 11 1 13.366360 23.448227 25.314870
10234 11 1 12.999180 24.358558 25.123884
10235 11 1 12.711157 23.701600 25.820625
10236 11 1 11.890569 24.076717 26.251813
10237 11 1 12.112605 24.796927 26.909078
10238 11 1 12.342389 25.602122 27.455760
10239 11 1 12.306632 26.598951 27.384678
10240 11 1 13.219039 26.552603 26.978026
10241 11 1 13.512036 25.734253 26.483601
10242 11 1 13.972396 25.231487 25.751962
10243 11 1 14.044637 24.757431 26.629488
10244 11 1 13.461153 24.030311 26.991210
10245 11 1 12.626822 23.495782 27.126008
10246 11 1 12.734825 23.394356 28.114971
10247 11 1 13.414621 23.282412 27.390164
10248 11 1 13.188793 22.328964 27.190316
10249 11 1 13.806254 21.933907 27.870515
10250 11 1 12.846590 21.655583 27.910266
10251 11 1 12.259959 22.268550 28.439544
10252 11 1 11.763017 22.321640 27.573386
10253 11 1 10.864150 22.731466 27.728568
10254 11 1 10.628428 23.699926 27.809321
10255 11 1 10.885593 23.611247 28.771611
10256 11 1 11.130912 22.653828 28.619404
10257 11 1 11.226933 21.877446 27.996499
10258 11 1 10.697419 21.649971 28.813732
10259 11 1 10.465745 22.148510 29.649068
10260 11 1 9.618877 22.479698 29.232982
10261 11 1 9.683280 22.286926 28.253854
10262 11 1 9.238328 23.075402 28.678500
10263 11 1 8.483276 22.670365 29.194097
10264 11 1 8.281120 21.691153 29.177468
10265 11 1 9.252283 21.789071 28.960087
10266 11 1 9.389243 20.886544 28.551814
10267 11 1 10.206834 20.754307 27.991405
10268 11 1 10.434148 20.106744 28.718722
10269 11 1 11.057850 19.341330 28.877267
10270 11 1 11.476844 19.004110 29.720313
10271 11 1 10.776520 18.828158 30.412113
10272 11 1 11.199661 19.408738 31.107727
10273 11 1 12.189726 19.274624 31.065485
10274 11 1 12.854223 19.544852 31.762206
10275 11 1 12.440845 20.159088 31.090021
10276 11 1 13.152056 19.912318 30.431778
10277 11 1 12.907417 19.064930 29.960519
10278 11 1 12.605668 18.903042 29.020976
10279 11 1 12.711862 19.822453 28.642284
10280 11 1 13.400650 19.188868 28.289947
10281 11 1 13.571969 20.174084 28.289677
10282 11 1 14.027116 20.049052 27.408083
10283 11 1 14.615026 19.298463 27.106458
10284 11 1 15.320301 18.702779 26.722079
10285 11 1 16.058178 19.125764 26.196131
10286 11 1 15.762662 18.865856 25.276828
10287 11 1 15.505709 17.949214 24.970651
10288 11 1 16.463301 18.204967 25.103347
10289 11 1 17.045895 18.056046 24.304343
10290 11 1 16.794035 17.767268 23.380669
10291 11 1 16.204068 16.996153 23.141253
10292 11 1 15.651439 16.459712 23.779087
10293 11 1 15.138423 16.013254 23.045950
10294 11 1 14.493462 16.722458 22.761251
10295 11 1 14.968104 17.600657 22.820257
10296 11 1 14.964917 17.110225 21.948784
10297 11 1 15.040031 17.310797 20.971989
10298 11 1 15.017771 18.308578 21.034743
10299 11 1 15.954628 18.652001 20.968722
10300 11 1 16.614254 19.210422 21.471774
10301 11 1 16.368952 19.720790 20.647546
10302 11 1 15.860866 19.953821 19.818362
10303 11 1 16.572762 20.310735 19.213535
10304 11 1 17.095201 19.731169 19.838963
10305 11 1 16.863291 19.605604 18.874364
10306 11 1 16.810909 18.644138 19.144249
10307 11 1 16.054234 18.183130 19.607838
10308 11 1 15.177427 18.169896 19.127177
10309 11 1 14.423561 18.077440 18.476686
10310 11 1 14.869958 17.183030 18.504259
10311 11 1 14.732697 17.135649 19.493660
10312 11 1 13.804041 17.168079 19.863183
10313 11 1 13.010035 17.541211 19.383258
10314 11 1 12.190552 17.175989 18.941603
10315 11 1 12.182405 17.845984 18.199282
10316 11 1 11.296932 18.303526 18.118088
10317 11 1 10.962206 18.419749 19.053209
10318 11 1 11.134685 17.450841 19.230603
10319 11 1 10.820129 16.628231 18.756929
10320 11 1 9.999772 16.933260 19.240634
10321 11 1 9.391959 16.139517 19.217519
10322 11 1 9.781658 15.825927 18.351611
10323 11 1 9.389771 14.908802 18.278771
10324 11 1 9.129325 14.279975 19.011400
10325 11 1 8.874695 13.341460 18.778259
10326 11 1 9.628837 13.333008 19.434916
10327 11 1 9.677515 13.314512 20.433560
10328 11 1 10.237119 13.871809 21.046963
10329 11 1 10.110399 14.778122 20.643802
10330 11 1 10.516350 14.477493 21.506835
10331 11 1 11.122828 14.060259 20.830005
10332 11 1 11.307735 13.713263 21.749463
10333 11 1 11.219686 14.055372 22.684989
10334 11 1 11.139146 13.303657 23.339540
10335 11 1 10.729490 13.200402 22.433162
10336 11 1 11.252478 12.510709 21.932356
10337 11 1 10.453981 11.996771 22.245838
10338 11 1 10.676508 11.875157 21.278527
10339 11 1 10.256773 11.253433 21.939801
10340 11 1 9.672789 10.478886 21.696820
10341 11 1 9.035530 10.574900 20.932175
10342 11 1 8.127790 10.994389 20.926105
10343 11 1 8.065690 11.912705 20.535158
10344 11 1 8.607858 11.994702 21.371417
10345 11 1 7.655542 12.171179 21.620316
10346 11 1 8.410700 12.822978 21.550358
10347 11 1 8.676315 13.763100 21.336771
10348 11 1 8.053885 14.517266 21.127452
10349 11 1 7.530054 14.751863 20.308572
10350 11 1 6.729818 15.004706 20.852349
10351 11 1 5.901780 15.097424 20.299397
10352 11 1 5.032386 15.532487 20.533653
10353 11 1 5.416663 15.809108 19.652851
10354 11 1 4.558718 15.319082 19.807138
10355 11 1 4.711507 15.167143 18.830629
10356 11 1 3.903073 14.698420 18.474633
10357 11 1 3.416702 13.899336 18.828057
10358 11 1 3.191538 12.927047 18.765162
10359 11 1 3.847868 13.366691 18.152019
10360 11 1 2.978054 13.460637 17.667666
10361 11 1 3.162372 13.452555 16.684833
10362 11 1 2.259542 13.816263 16.914213
10363 11 1 2.925628 14.562131 16.910966
10364 11 1 2.714555 14.533071 17.888004
10365 11 1 1.847342 14.738259 18.341700
10366 11 1 1.857043 15.575430 18.888554
10367 11 1 1.850829 14.747122 19.448793
10368 11 1 0.976969 15.082036 19.096371
10369 11 1 0.783594 14.154294 19.415589
10370 11 1 1.746287 13.895489 19.494594
10371 11 1 2.604392 13.778455 19.994553
10372 11 1 1.915317 13.526140 20.673901
10373 11 1 1.263928 13.086089 21.292000
10374 11 1 1.218310 13.708300 22.073519
10375 11 1 2.125949 13.404598 22.363274
10376 11 1 2.478364 13.056676 23.232039
10377 11 1 1.741018 12.393518 23.360657
10378 11 1 1.095287 12.232974 24.107153
10379 11 1 0.457400 11.467698 24.193482
10380 11 1 0.094670 12.371334 23.965738
10381 11 1 -0.572636 12.868708 23.411371
10382 11 1 -0.015777 12.116518 23.059069
10383 11 1 -0.400980 11.973661 22.147361
10384 11 1 -0.893855 12.013430 23.016552
10385 11 1 -0.574267 11.097094 22.775323
10386 11 1 -0.873049 10.240384 23.195771
10387 11 1 -1.800072 9.883020 23.309436
10388 11 1 -1.407033 9.831046 24.227487
10389 11 1 -1.870429 10.462309 24.849396
10390 11 1 -2.870048 10.439629 24.833698
10391 11 1 -3.850176 10.404042 24.638550
10392 11 1 -4.434427 10.068397 25.377464
10393 11 1 -4.443393 10.329299 26.342788
10394 11 1 -5.058632 11.115307 26.403387
10395 11 1 -4.529159 11.959779 26.322607
10396 11 1 -4.071788 11.473850 27.067378
10397 11 1 -3.798838 11.225220 27.996723
10398 11 1 -2.972366 10.997336 28.511517
10399 11 1 -2.092456 11.255432 28.112589
10400 11 1 -1.870166 10.457572 28.672951
10401 11 1 -1.133805 9.783268 28.617386
10402 11 1 -1.663567 9.049494 29.042742
10403 11 1 -2.321310 9.441444 29.685975
10404 11 1 -2.734413 9.919235 28.910693
10405 11 1 -2.606381 10.735228 29.474399
10406 11 1 -2.062682 10.165049 30.090261
10407 11 1 -1.431689 9.513799 29.668692
10408 11 1 -0.980259 8.918009 30.332955
10409 11 1 -0.369848 8.365950 30.900959
10410 11 1 0.598612 8.158642 31.039194
10411 11 1 -0.135412 8.274459 31.708369
10412 11 1 -0.657254 7.441548 31.524140
10413 11 1 -1.455488 7.942418 31.189548
10414 11 1 -2.431465 7.724658 31.196543
10415 11 1 -2.152558 6.910660 31.706069
10416 11 1 -2.207023 5.940606 31.942773
10417 11 1 -1.341273 5.986537 31.444408
10418 11 1 -2.237578 6.259265 31.094755
10419 11 1 -2.579154 6.923123 30.429459
10420 11 1 -2.634062 7.850964 30.060547
10421 11 1 -3.315935 8.556235 30.254564
10422 11 1 -3.827232 9.048390 29.550037
10423 11 1 -4.427195 8.587967 28.895777
10424 11 1 -4.252336 9.567759 28.992893
10425 11 1 -4.372114 10.546190 29.161199
10426 11 1 -4.948820 10.276803 28.389940
10427 11 1 -5.916334 10.030509 28.332885
10428 11 1 -6.119878 9.119278 28.690976
10429 11 1 -5.137486 9.287267 28.609215
10430 11 1 -5.247406 8.498224 28.004791
10431 11 1 -4.943569 7.564454 27.815693
10432 11 1 -5.933149 7.421999 27.794788
10433 11 1 -5.569417 7.714186 26.910296
10434 11 1 -6.273688 7.109687 26.538028
10435 11 1 -5.586137 6.827321 25.869041
10436 11 1 -4.833220 6.603307 25.250225
10437 11 1 -5.031633 5.684422 24.909224
10438 11 1 -4.214747 5.151290 24.689069
10439 11 1 -4.004800 6.077820 24.376876
10440 11 1 -3.125652 6.060542 23.900641
10441 11 1 -2.937884 6.619494 24.708301
10442 11 1 -2.835496 6.236537 25.626375
10443 11 1 -2.682860 6.786656 26.447394
10444 11 1 -2.089459 7.320104 27.050145
10445 11 1 -1.428245 7.361272 27.799212
10446 11 1 -0.813299 8.005674 28.253730
10447 11 1 -0.695502 8.993259 28.149806
10448 11 1 -0.155836 8.538571 28.858340
10449 11 1 0.092530 9.395043 28.405824
10450 11 1 -0.294071 9.307863 29.323941
10451 11 1 0.140631 9.214966 30.219711
10452 11 1 0.049909 10.103414 30.669633
10453 11 1 -0.184683 11.066791 30.799524
10454 11 1 -0.817901 11.498592 31.441850
10455 11 1 -1.615952 10.896006 31.439832
10456 11 1 -2.381599 11.481903 31.174298
10457 11 1 -2.810311 10.592105 31.017886
10458 11 1 -2.903063 10.181391 31.924920
10459 11 1 -3.732132 10.668126 32.200118
10460 11 1 -3.687456 11.661266 32.092065
10461 11 1 -3.909308 12.601419 32.350706
10462 11 1 -3.201252 12.632737 33.056168
10463 11 1 -3.748773 12.920556 33.841905
10464 11 1 -4.366101 12.611498 34.565362
10465 11 1 -4.162255 12.332001 35.503620
10466 11 1 -3.357355 11.907154 35.089324
10467 11 1 -2.611347 12.254172 34.520949
10468 11 1 -2.390417 12.310637 35.494603
10469 11 1 -1.573441 12.409029 34.926386
10470 11 1 -1.782761 11.602413 34.373614
10471 11 1 -1.473442 10.721862 34.014517
10472 11 1 -2.160440 10.870441 33.303210
10473 11 1 -1.213940 11.171532 33.187096
10474 11 1 -0.225985 11.066079 33.073854
10475 11 1 0.424693 11.571714 33.640379
10476 11 1 0.249036 12.459842 34.065083
10477 11 1 0.617481 13.290404 34.482713
10478 11 1 0.020684 13.924691 34.974152
10479 11 1 0.605682 14.313498 34.262389
10480 11 1 1.421761 13.847167 33.920993
10481 11 1 2.392410 13.650885 33.782022
10482 11 1 2.901352 12.855154 34.110334
10483 11 1 3.462032 12.825332 33.282839
10484 11 1 3.207180 12.091587 33.912655
10485 11 1 2.639724 11.552837 34.535345
10486 11 1 2.752598 11.348655 35.507749
10487 11 1 1.926181 10.887025 35.830135
10488 11 1 2.568083 10.780634 36.589504
10489 11 1 2.145358 10.025589 36.088294
10490 11 1 3.061830 9.744103 35.803963
10491 11 1 2.864269 9.639306 36.778636
10492 11 1 3.228311 8.712790 36.873722
10493 11 1 4.124105 8.713025 36.429254
10494 11 1 4.119835 9.059247 35.491111
10495 11 1 3.443370 9.386500 34.831338
10496 11 1 2.477665 9.508468 35.060549
10497 11 1 2.230782 8.588601 34.755764
10498 11 1 2.284089 7.874258 34.058002
10499 11 1 3.019689 7.724378 33.397374
10500 11 1 2.980762 8.262504 34.239340
10501 11 1 3.891748 8.432894 33.863746
10502 11 1 4.730105 8.341485 34.401149
10503 11 1 5.171809 9.224426 34.242044
10504 11 1 5.805221 9.604413 34.916136
10505 11 1 6.707970 9.886391 35.240991
10506 11 1 7.026499 10.195484 36.137094
10507 11 1 6.068397 9.983118 35.944896
10508 11 1 5.778321 10.923804 36.120867
10509 11 1 6.641446 11.331945 35.823484
10510 11 1 5.868619 11.960211 35.733927
10511 11 1 5.681470 12.144789 36.698762
10512 11 1 6.667828 12.308985 36.710506
10513 11 1 7.482241 12.160994 36.149409
10514 11 1 7.385787 11.868802 37.100892
10515 11 1 7.130377 11.050044 37.615090
10516 11 1 6.442068 10.949305 38.333479
10517 11 1 6.128572 10.016620 38.511861
10518 11 1 6.030653 9.720912 39.462107
10519 11 1 6.782397 10.329629 39.208444
10520 11 1 7.780595 10.361760 39.157775
10521 11 1 8.616743 9.827696 39.032746
10522 11 1 8.855571 8.938923 39.423954
10523 11 1 9.396089 8.208477 39.841434
10524 11 1 9.448658 7.324874 40.306710
10525 11 1 9.292500 7.973000 41.052061
10526 11 1 8.496457 7.499673 40.674863
10527 11 1 8.717011 6.829383 39.966297
10528 11 1 9.352827 7.099439 39.243243
10529 11 1 10.249203 7.086933 39.686362
10530 11 1 10.411906 7.003206 40.669478
10531 11 1 10.946863 6.181313 40.865213
10532 11 1 10.990253 6.332889 39.877721
10533 11 1 10.285025 5.666562 40.119921
10534 11 1 10.444238 4.731166 39.804191
10535 11 1 9.801040 4.336666 40.460442
10536 11 1 10.606446 4.472885 41.037302
10537 11 1 9.899241 4.283790 41.718554
10538 11 1 9.068838 3.728372 41.674501
10539 11 1 9.125535 3.689394 42.672132
10540 11 1 9.991710 3.190090 42.693007
10541 11 1 10.225014 3.450610 41.756151
10542 11 1 9.425388 2.959156 41.411083
10543 11 1 9.356406 2.008018 41.712044
10544 11 1 9.680387 2.212948 40.788443
10545 11 1 10.084681 1.691141 40.037268
10546 11 1 10.746016 1.541803 40.772343
10547 11 1 11.198562 0.658240 40.892833
10548 11 1 11.649264 -0.193304 41.160677
10549 11 1 11.790495 -1.176533 41.045289
10550 11 1 10.848745 -0.901119 41.238300
10551 11 1 11.177621 -1.813550 40.994766
10552 11 1 10.679413 -1.566707 40.163588
10553 11 1 11.528959 -1.630345 39.639925
10554 11 1 11.852005 -2.512455 39.982740
10555 11 1 11.451528 -2.780082 40.859093
10556 11 1 12.082913 -3.331302 41.404538
10557 11 1 12.399066 -4.241361 41.136510
10558 11 1 12.913799 -3.527587 41.611459
10559 11 1 13.474456 -2.866183 41.113254
10560 11 1 13.009832 -2.419947 40.348403
10561 11 1 13.370899 -1.654294 39.816044
10562 11 1 12.463859 -1.258872 39.671401
10563 11 1 12.264347 -0.333857 39.348072
10564 11 1 12.570325 -0.280973 38.397504
10565 11 1 12.984148 -0.772822 37.631451
10566 11 1 13.959282 -0.651394 37.446061
10567 11 1 13.814712 0.240880 37.018338
10568 11 1 13.060884 -0.328056 36.689622
10569 11 1 13.520975 0.430716 36.228557
10570 11 1 14.383813 0.921406 36.107177
10571 11 1 14.198876 1.849804 36.429475
10572 11 1 13.207103 1.976957 36.444245
10573 11 1 13.771059 1.561539 37.157955
10574 11 1 13.925801 1.237998 38.091430
10575 11 1 14.886194 1.088408 38.326525
10576 11 1 14.836187 0.242576 37.795426
10577 11 1 15.676127 -0.080776 38.231253
10578 11 1 15.992474 -0.045558 37.283263
10579 11 1 15.961269 0.704793 37.943567
10580 11 1 15.925807 1.699713 38.037773
10581 11 1 15.983235 2.597762 38.473904
10582 11 1 15.908119 2.343700 39.438170
10583 11 1 15.523132 2.274454 40.358491
10584 11 1 16.436244 2.681386 40.383625
10585 11 1 16.346689 1.810568 39.900245
10586 11 1 16.894947 2.515874 39.450850
10587 11 1 17.391223 2.445587 40.316165
10588 11 1 17.540691 3.421602 40.157876
10589 11 1 16.762393 3.940873 40.510879
10590 11 1 15.826084 3.889257 40.858242
10591 11 1 15.027098 4.146281 40.314589
10592 11 1 14.134749 3.926753 40.708951
10593 11 1 13.351675 4.231830 41.250913
10594 11 1 13.359271 4.564304 42.193995
10595 11 1 13.508726 4.156046 43.094544
10596 11 1 13.409537 3.185056 43.312121
10597 11 1 13.923909 2.973874 42.480963
10598 11 1 12.983603 3.296310 42.589867
10599 11 1 13.345070 2.433131 42.942377
10600 11 1 14.060217 2.024216 42.375497
10601 11 1 13.074860 2.038156 42.205565
10602 11 1 12.251030 1.577535 41.875213
10603 11 1 11.546896 2.145076 42.301937
10604 11 1 10.790473 1.736312 41.791314
10605 11 1 9.921025 1.358915 42.110111
10606 11 1 9.426914 1.127368 42.948109
10607 11 1 9.221740 0.156987 42.820577
10608 11 1 8.972741 0.388294 43.761053
10609 11 1 9.127871 -0.528303 43.392563
10610 11 1 8.316901 -0.689017 42.829981
10611 11 1 8.163570 0.296300 42.905084
10612 11 1 7.403960 0.491971 43.525331
10613 11 1 6.650915 1.142161 43.626205
10614 11 1 6.696358 1.849077 42.920369
10615 11 1 6.370616 2.199282 43.798577
10616 11 1 7.280238 2.403537 43.436820
10617 11 1 7.845779 1.590872 43.296324
10618 11 1 7.882643 1.880029 42.339753
10619 11 1 7.711979 2.789263 42.719446
10620 11 1 8.440848 2.851533 43.401261
10621 11 1 8.587095 2.788612 42.414016
10622 11 1 9.461623 2.393699 42.695518
10623 11 1 9.568416 3.102625 43.392669
10624 11 1 10.020638 3.987277 43.279153
10625 11 1 9.166470 4.404274 43.589817
10626 11 1 9.170407 5.403382 43.547778
10627 11 1 8.622972 5.997785 44.136845
10628 11 1 7.881192 6.058741 43.468977
10629 11 1 7.468029 5.755168 44.327545
10630 11 1 7.966409 5.243691 43.627539
10631 11 1 7.114142 5.081847 43.130098
10632 11 1 7.907072 4.575472 42.791208
10633 11 1 8.702281 5.181577 42.807954
10634 11 1 7.877094 5.719653 42.636079
10635 11 1 7.028485 6.247442 42.599994
10636 11 1 6.326299 6.470163 43.276255
10637 11 1 5.657239 5.873604 43.719513
10638 11 1 6.001981 5.671582 44.636213
10639 11 1 6.522833 5.008154 44.099021
10640 11 1 5.627033 4.629032 44.330987
10641 11 1 4.850078 4.475425 43.720458
10642 11 1 4.301345 4.645880 42.902022
10643 11 1 3.386467 4.692134 43.303095
10644 11 1 2.402807 4.564814 43.175808
10645 11 1 2.004500 3.839449 43.737233
10646 11 1 1.653462 4.117833 44.631254
10647 11 1 1.324373 4.780343 45.304144
10648 11 1 1.877903 5.597762 45.463616
10649 11 1 2.673122 6.172872 45.655642
10650 11 1 3.064686 6.020655 44.748169
10651 11 1 3.332837 5.061966 44.653241
10652 11 1 3.889878 4.234732 44.579833
10653 11 1 3.287611 3.495734 44.881756
10654 11 1 2.965853 3.745938 45.794921
10655 11 1 2.002022 3.954523 45.960823
10656 11 1 1.783381 3.479798 46.813368
10657 11 1 0.972255 2.939920 46.588412
10658 11 1 1.093195 2.878884 47.579193
10659 11 1 1.906520 3.340110 47.933838
10660 11 1 1.708359 3.442644 48.908629
10661 11 1 1.554634 3.372319 49.894237
10662 11 1 2.344518 3.402407 50.506756
10663 11 1 2.656805 3.586338 49.574744
10664 11 1 2.646348 4.524944 49.919576
10665 11 1 2.091781 4.634585 49.094692
10666 11 1 1.822447 5.473653 48.622015
10667 11 1 0.989103 5.588036 48.081224
10668 11 1 0.547511 5.228294 48.903162
10669 11 1 -0.022760 4.445134 48.655268
10670 11 1 0.343854 4.732706 49.540083
10671 11 1 0.879021 4.924803 50.362697
10672 11 1 0.463797 4.700934 51.244441
10673 11 1 0.792850 3.759568 51.318976
10674 11 1 1.315963 4.314004 51.966243
10675 11 1 1.630146 5.103037 52.494178
10676 11 1 1.144543 5.757039 51.914117
10677 11 1 1.492744 4.943867 51.447740
10678 11 1 2.368834 4.462168 51.468536
10679 11 1 2.968350 4.123471 50.743371
10680 11 1 3.838950 4.309947 50.288087
10681 11 1 4.059979 4.006263 51.214868
10682 11 1 4.711277 3.725749 50.509799
10683 11 1 4.739173 2.761373 50.772860
10684 11 1 4.831597 3.074495 49.827655
10685 11 1 5.354884 3.659361 49.207895
10686 11 1 5.508484 2.969879 48.500065
10687 11 1 5.898043 3.329605 47.652220
10688 11 1 6.615590 3.916826 48.026785
10689 11 1 6.395721 3.381870 48.842554
10690 11 1 5.894201 2.548528 49.074973
10691 11 1 6.584273 3.052168 49.594730
10692 11 1 6.581636 2.052181 49.590293
10693 11 1 6.743693 1.807268 50.546198
10694 11 1 6.825581 0.903322 50.965930
10695 11 1 6.081258 0.657259 50.345095
10696 11 1 5.448512 0.648990 51.119410
10697 11 1 4.836817 1.314162 51.547634
10698 11 1 4.461263 2.223366 51.727379
10699 11 1 3.883439 3.038397 51.684439
10700 11 1 3.009316 3.029448 52.170061
10701 11 1 2.837243 3.144828 53.148365
10702 11 1 2.941517 3.232414 54.139049
10703 11 1 3.407517 4.025332 54.531636
10704 11 1 4.252589 3.677859 54.937980
10705 11 1 4.687572 2.849916 55.291958
10706 11 1 5.625236 2.624339 55.556344
10707 11 1 5.909310 2.910275 56.471518
10708 11 1 6.131263 3.318150 55.585868
10709 11 1 5.242198 3.266231 56.040695
10710 11 1 5.521093 3.803013 55.244402
10711 11 1 5.103428 3.781610 54.336053
10712 11 1 5.281760 4.435086 53.600413
10713 11 1 5.387214 5.245608 54.176549
10714 11 1 4.603784 5.524254 53.621037
10715 11 1 4.767381 5.704964 52.651202
10716 11 1 4.328850 6.250687 53.365259
10717 11 1 4.772638 7.141524 53.267995
10718 11 1 5.631565 7.641129 53.155568
10719 11 1 5.480988 8.016309 52.240928
10720 11 1 4.568103 8.012378 52.649124
10721 11 1 5.275637 8.699450 52.814431
10722 11 1 4.613002 9.011139 52.133428
10723 11 1 4.443754 8.099726 51.758352
10724 11 1 3.561564 8.505612 51.519612
10725 11 1 3.163836 9.277618 51.023810
10726 11 1 2.388325 8.664010 50.875261
10727 11 1 1.580553 8.083485 50.772808
10728 11 1 1.281729 7.175648 51.066978
10729 11 1 1.696148 6.514959 50.441081
10730 11 1 1.275976 7.353925 50.095261
10731 11 1 0.782500 6.643435 50.596943
10732 11 1 0.475715 5.823694 51.080582
10733 11 1 -0.443247 5.429780 51.062132
10734 11 1 -0.585146 6.166458 51.723320
10735 11 1 -1.040438 6.214760 52.612351
10736 11 1 -1.737562 5.497816 52.609182
10737 11 1 -2.707686 5.356758 52.806570
10738 11 1 -3.688466 5.313887 52.616220
10739 11 1 -4.537850 5.703610 52.972117
10740 11 1 -3.783813 6.354001 52.880358
10741 11 1 -2.996219 6.937565 52.682497
10742 11 1 -2.516396 6.946054 53.559822
10743 11 1 -2.065865 6.486510 52.794419
10744 11 1 -2.024308 6.952236 51.910466
10745 11 1 -1.942178 6.082934 51.423055
10746 11 1 -1.728421 6.961721 50.996392
10747 11 1 -0.804087 6.857584 50.629293
10748 11 1 -0.595309 7.407576 49.820639
10749 11 1 0.043660 7.636880 50.554900
10750 11 1 -0.859392 8.066296 50.544964
10751 11 1 -1.236508 7.554398 51.316808
10752 11 1 -0.918608 7.751685 52.244179
10753 11 1 -1.886152 7.773474 52.495940
10754 11 1 -2.040480 7.726028 53.482820
10755 11 1 -1.173490 8.203898 53.341506
10756 11 1 -0.894028 8.352639 54.290072
10757 11 1 -0.562353 7.480711 54.650259
10758 11 1 0.071604 6.722085 54.800541
10759 11 1 -0.336264 6.927292 53.910859
10760 11 1 0.228492 7.461276 53.281645
10761 11 1 0.221683 6.462057 53.320557
10762 11 1 1.065057 6.682495 53.810585
10763 11 1 1.852657 7.193057 54.155567
10764 11 1 2.353444 7.974324 54.528173
10765 11 1 2.059539 8.549525 55.291562
10766 11 1 1.203352 8.100909 55.547857
10767 11 1 1.009071 8.804351 56.231542
10768 11 1 1.166097 9.571607 56.853363
10769 11 1 1.557034 8.973303 57.552793
10770 11 1 2.226675 9.609793 57.935494
10771 11 1 1.899882 9.535003 58.877626
10772 11 1 2.617512 8.946942 58.504543
10773 11 1 1.694264 8.758851 58.839556
10774 11 1 2.043859 8.611356 59.764775
10775 11 1 2.719333 9.321829 59.962165
10776 11 1 2.994119 8.593746 60.590167
10777 11 1 2.526768 7.710583 60.550090
10778 11 1 3.089449 6.916809 60.780987
10779 11 1 2.473443 6.799595 61.559958
10780 11 1 2.776725 6.097654 62.204396
10781 11 1 2.622106 6.215307 63.185339
10782 11 1 2.940509 5.284152 63.363018
10783 11 1 2.790037 4.298597 63.285305
10784 11 1 2.584684 3.395242 63.661842
10785 11 1 2.322926 2.924528 62.819280
10786 11 1 1.334253 2.791334 62.888456
10787 11 1 1.438729 3.071624 61.934243
10788 11 1 0.492046 3.387867 61.995737
10789 11 1 -0.465050 3.210910 62.225200
10790 11 1 -0.839164 2.527113 62.851668
10791 11 1 0.100312 2.763501 63.099672
10792 11 1 -0.266482 2.309352 63.911591
10793 11 1 -0.746101 1.530028 63.508329
10794 11 1 -1.697166 1.227839 63.443861
10795 11 1 -1.133519 1.533502 62.676481
10796 11 1 -1.369640 1.711899 61.721274
10797 11 1 -1.263327 2.048519 60.785654
10798 11 1 -2.257136 2.036126 60.896062
10799 11 1 -2.817793 2.723649 60.434569
10800 11 1 -3.777419 3.004769 60.444073
10801 11 1 -3.700866 2.458513 61.278186
10802 11 1 -4.113553 2.134261 62.129391
10803 11 1 -4.966566 1.795169 61.732671
10804 11 1 -5.418139 1.619913 60.857818
10805 11 1 -5.131690 2.448589 60.376940
10806 11 1 -6.063079 2.087271 60.421248
10807 11 1 -6.400795 1.154358 60.296263
10808 11 1 -6.983330 0.994965 61.093287
10809 11 1 -6.442347 0.184066 60.870170
10810 11 1 -6.894060 0.349316 59.993445
10811 11 1 -7.139805 0.022531 59.080855
10812 11 1 -6.558311 -0.529985 59.678007
10813 11 1 -6.563685 -1.091402 60.505523
10814 11 1 -6.217231 -0.656533 61.336701
10815 11 1 -6.382839 -0.904625 62.291177
10816 11 1 -7.354585 -0.807448 62.076083
10817 11 1 -7.504248 -0.112178 62.779077
10818 11 1 -6.839835 0.225193 63.445962
10819 11 1 -5.874130 0.077732 63.659661
10820 11 1 -6.164128 -0.734999 64.165002
10821 11 1 -7.018575 -0.683066 64.681938
10822 11 1 -6.817159 -0.051946 65.431017
10823 11 1 -7.298949 0.329960 64.642330
10824 11 1 -8.119421 0.810273 64.332291
10825 11 1 -7.450179 0.819899 63.589308
10826 11 1 -7.186524 1.739004 63.296509
10827 11 1 -6.351437 2.006033 62.815546
10828 11 1 -5.853428 2.825014 63.100599
10829 11 1 -4.906953 2.502411 63.089999
10830 11 1 -4.936346 2.967649 63.974696
10831 11 1 -4.460047 2.766104 64.830569
10832 11 1 -4.798585 1.831081 64.725094
10833 11 1 -5.025787 2.485223 65.446535
10834 11 1 -5.140648 2.864281 66.364752
10835 11 1 -4.785575 1.934110 66.271452
10836 11 1 -3.984016 1.368252 66.078297
10837 11 1 -4.012621 0.942927 65.173708
10838 11 1 -3.786946 1.729763 64.599286
10839 11 1 -2.930826 1.911862 65.082917
10840 11 1 -2.475207 1.181182 64.574470
10841 11 1 -1.647965 0.706865 64.273317
10842 11 1 -1.566759 -0.281259 64.403765
10843 11 1 -2.096084 -0.204531 65.248707
10844 11 1 -2.118005 -1.054143 65.775661
10845 11 1 -2.329531 -1.971587 65.438686
10846 11 1 -1.831308 -1.315555 64.871769
10847 11 1 -1.152197 -1.865418 65.358040
10848 11 1 -1.209291 -2.680181 64.781062
10849 11 1 -0.495746 -3.224164 65.222576
10850 11 1 -0.416965 -3.295926 64.228270
10851 11 1 -0.979835 -3.090670 63.427616
10852 11 1 -0.816609 -2.145487 63.710433
10853 11 1 -0.087599 -1.865334 64.334980
10854 11 1 -0.978903 -1.463316 64.544642
10855 11 1 -0.448447 -0.620742 64.451449
10856 11 1 -0.082623 0.185712 63.986902
10857 11 1 -0.723660 0.771010 64.483387
10858 11 1 -1.400608 0.984262 65.187848
10859 11 1 -0.813266 1.090039 65.990244
10860 11 1 -0.041897 1.724893 66.034402
10861 11 1 0.671654 2.283621 65.611710
10862 11 1 -0.040970 2.978902 65.518161
10863 11 1 -1.026035 2.910426 65.360178
10864 11 1 -0.809108 2.095876 64.822171
10865 11 1 -1.734385 2.467567 64.746624
10866 11 1 -2.684930 2.631824 64.483026
10867 11 1 -2.850825 2.609360 65.468913
10868 11 1 -2.723833 2.159210 66.352790
10869 11 1 -3.155893 1.257798 66.324860
10870 11 1 -2.156400 1.261047 66.293178
10871 11 1 -2.233912 0.285045 66.089677
10872 11 1 -2.542814 -0.432085 66.714420
10873 11 1 -1.645873 -0.452076 67.156118
10874 11 1 -1.631424 0.535891 67.310108
10875 11 1 -2.260631 0.065956 67.929188
10876 11 1 -2.872854 -0.454921 68.524059
10877 11 1 -3.617134 -0.439902 67.856360
10878 11 1 -3.832138 -1.393704 67.646517
10879 11 1 -4.537934 -2.101110 67.684318
10880 11 1 -4.602055 -1.738139 68.613909
10881 11 1 -5.539859 -1.948084 68.890399
10882 11 1 -5.516898 -2.619986 68.150114
10883 11 1 -4.565753 -2.775006 68.417118
10884 11 1 -3.848073 -2.129267 68.677803
10885 11 1 -3.308147 -2.923530 68.956416
10886 11 1 -2.776956 -2.138717 68.637190
10887 11 1 -2.568169 -3.068997 68.335547
10888 11 1 -2.721744 -3.612443 67.510271
10889 11 1 -3.656491 -3.338209 67.284345
10890 11 1 -4.301938 -3.267953 66.523778
10891 11 1 -4.494499 -2.994910 65.581245
10892 11 1 -3.740012 -3.072648 64.929550
10893 11 1 -3.439456 -2.118944 64.918853
10894 11 1 -3.476686 -1.382320 64.243577
10895 11 1 -3.742268 -2.318367 64.012751
10896 11 1 -4.096713 -2.141615 63.094531
10897 11 1 -4.609574 -2.806724 63.637304
10898 11 1 -4.532151 -2.653917 64.622522
10899 11 1 -4.451889 -1.809590 65.152305
10900 11 1 -3.774585 -2.118924 65.819817
10901 11 1 -2.863678 -2.034714 66.223745
10902 11 1 -2.746561 -2.828094 66.821100
10903 11 1 -3.428499 -2.562325 67.502517
10904 11 1 -3.519541 -3.254021 68.218944
10905 11 1 -3.321796 -4.187650 67.920223
10906 11 1 -4.139236 -4.691074 68.200144
10907 11 1 -4.242961 -5.422385 68.874255
10908 11 1 -4.276631 -5.889867 69.757617
10909 11 1 -4.311150 -5.820763 70.754629
10910 11 1 -4.425074 -5.959982 71.738316
10911 11 1 -5.006142 -6.724302 71.458718
10912 11 1 -5.639761 -5.950740 71.447346
10913 11 1 -5.873243 -6.895951 71.675517
10914 11 1 -6.049141 -7.788890 72.089909
10915 11 1 -6.733923 -7.064876 72.006975
10916 11 1 -7.428065 -7.760837 72.190835
10917 11 1 -8.166119 -7.337787 71.665187
10918 11 1 -8.188679 -6.561222 71.035554
10919 11 1 -7.863112 -5.756396 70.539306
10920 11 1 -7.793492 -6.138488 69.617808
10921 11 1 -7.138134 -6.713913 70.107083
10922 11 1 -7.641978 -7.376667 69.553099
10923 11 1 -6.734767 -7.607965 69.201715
10924 11 1 -6.751090 -8.433578 69.765716
10925 11 1 -7.695342 -8.329148 70.077936
10926 11 1 -6.921243 -7.727912 70.276145
10927 11 1 -6.605613 -6.894551 70.729894
10928 11 1 -5.798259 -7.484148 70.706307
10929 11 1 -5.756267 -6.485337 70.681549
10930 11 1 -6.548772 -5.953846 70.980636
10931 11 1 -7.218285 -5.338657 71.396924
10932 11 1 -7.531444 -4.592666 71.984655
10933 11 1 -7.903070 -3.814498 71.478345
10934 11 1 -7.277282 -3.597708 70.729085
10935 11 1 -7.415356 -4.562576 70.505555
10936 11 1 -8.148185 -3.991105 70.136258
10937 11 1 -8.340911 -3.570599 69.249673
10938 11 1 -8.260373 -4.235591 68.507179
10939 11 1 -8.728348 -4.176194 67.625436
10940 11 1 -8.939668 -5.153608 67.627821
10941 11 1 -8.692466 -4.964421 68.578137
10942 11 1 -9.430235 -4.349401 68.299844
10943 11 1 -9.897797 -3.602678 68.772909
10944 11 1 -10.203539 -3.716724 69.718169
10945 11 1 -9.671143 -4.459038 69.311322
10946 11 1 -9.055852 -4.852069 69.994656
10947 11 1 -9.026560 -5.717175 70.495389
10948 11 1 -9.157024 -6.618271 70.081861
10949 11 1 -8.194631 -6.848809 69.938152
10950 11 1 -8.685387 -7.039909 69.088070
10951 11 1 -8.550441 -7.643650 68.302395
10952 11 1 -8.900466 -6.970862 67.650598
10953 11 1 -8.496428 -7.602874 66.989301
10954 11 1 -9.159491 -7.134168 66.405639
10955 11 1 -9.513596 -6.200528 66.459731
10956 11 1 -10.260476 -6.862611 66.521496
10957 11 1 -10.148804 -7.535785 65.790492
10958 11 1 -9.278578 -7.999963 65.955551
10959 11 1 -9.236111 -8.565016 65.131591
10960 11 1 -8.519331 -9.000268 64.586814
10961 11 1 -8.849988 -8.896009 63.648840
10962 11 1 -8.601188 -9.862111 63.579962
10963 11 1 -7.627103 -10.040386 63.440765
10964 11 1 -7.064195 -10.860097 63.546641
10965 11 1 -8.026817 -11.038167 63.342555
10966 11 1 -7.181144 -11.283505 62.868587
10967 11 1 -7.151678 -12.194349 62.456889
10968 11 1 -7.747816 -11.967348 61.686766
10969 11 1 -7.092577 -11.553607 61.054721
10970 11 1 -6.455644 -11.654150 61.819056
10971 11 1 -6.018377 -11.487504 62.702814
10972 11 1 -5.920589 -11.784199 63.652766
10973 11 1 -5.239044 -11.426856 64.291360
10974 11 1 -5.156386 -11.921657 65.156426
10975 11 1 -4.704182 -12.372296 64.386728
10976 11 1 -4.104133 -11.575697 64.313439
10977 11 1 -3.291951 -11.383693 63.762535
10978 11 1 -3.965005 -10.741061 64.128626
10979 11 1 -3.776218 -9.921430 64.669518
10980 11 1 -3.006685 -10.405242 65.086347
10981 11 1 -3.707945 -10.595045 65.773521
10982 11 1 -4.482985 -10.011325 66.015562
10983 11 1 -5.054263 -9.772761 65.230241
10984 11 1 -4.702836 -8.876560 65.501023
10985 11 1 -4.042242 -9.127768 64.793555
10986 11 1 -4.682881 -9.660347 64.240435
10987 11 1 -4.239466 -9.587511 63.347082
10988 11 1 -3.246916 -9.537760 63.235864
10989 11 1 -3.211490 -9.595748 62.238175
10990 11 1 -2.331914 -9.149791 62.072444
10991 11 1 -2.525005 -9.217209 63.051306
10992 11 1 -3.047153 -8.490671 62.604647
10993 11 1 -2.717477 -7.878837 63.323655
10994 11 1 -3.051389 -6.937038 63.362617
10995 11 1 -2.602780 -6.073220 63.591895
10996 11 1 -2.954812 -5.978255 62.660737
10997 11 1 -2.671652 -5.062577 62.375512
10998 11 1 -3.039874 -4.135454 62.305827
10999 11 1 -3.290332 -3.311402 61.797683
11000 11 1 -3.408596 -2.703449 61.012567
11001 12 1 84.594777 60.601971 -78.864965
11002 12 1 83.969988 61.282000 -79.248632
11003 12 1 84.278598 60.552575 -79.859123
11004 12 1 85.175421 60.160573 -80.064168
11005 12 1 85.593830 60.375605 -79.181731
11006 12 1 84.798004 59.817407 -79.416415
11007 12 1 85.594132 59.463351 -78.925677
11008 12 1 84.993785 58.816137 -79.395462
11009 12 1 85.167278 57.831643 -79.369557
11010 12 1 85.112329 57.204794 -78.592356
11011 12 1 85.242283 57.878705 -77.865062
11012 12 1 84.320337 58.250890 -77.972270
11013 12 1 83.869322 57.795876 -78.740090
11014 12 1 82.964469 57.669924 -79.146755
11015 12 1 83.691386 57.312067 -79.732870
11016 12 1 83.641344 57.801807 -80.603301
11017 12 1 82.896672 58.234993 -81.111054
11018 12 1 83.181943 57.951160 -82.026510
11019 12 1 82.699175 57.335463 -82.649287
11020 12 1 82.071369 58.063365 -82.924999
11021 12 1 81.937493 57.088340 -82.747788
11022 12 1 82.009851 57.164919 -83.742223
11023 12 1 82.062948 57.990986 -84.303288
11024 12 1 82.972350 57.982082 -83.887467
11025 12 1 83.808124 57.812399 -83.365269
11026 12 1 83.858682 58.151248 -82.425788
11027 12 1 84.569032 57.531753 -82.091679
11028 12 1 84.820087 57.425018 -81.129609
11029 12 1 84.307475 56.620947 -80.828444
11030 12 1 84.684826 56.516417 -81.748596
11031 12 1 85.590225 56.430487 -81.332820
11032 12 1 85.996668 56.379962 -82.245098
11033 12 1 86.555277 55.595443 -81.975866
11034 12 1 86.021343 54.958108 -81.420241
11035 12 1 86.486362 54.578229 -80.620585
11036 12 1 86.291840 53.940425 -81.365815
11037 12 1 87.067042 53.356666 -81.124389
11038 12 1 87.186707 53.948081 -81.921828
11039 12 1 87.719865 54.234757 -81.125864
11040 12 1 88.623071 53.833214 -80.974262
11041 12 1 88.548179 54.702065 -80.484886
11042 12 1 88.608404 54.252191 -79.593827
11043 12 1 89.025216 53.514823 -79.062267
11044 12 1 89.232924 54.285591 -78.459959
11045 12 1 89.910342 53.556923 -78.560705
11046 12 1 90.026537 52.708881 -79.077737
11047 12 1 90.216107 52.046859 -78.352623
11048 12 1 91.020465 51.472346 -78.201154
11049 12 1 90.598855 51.467201 -79.107916
11050 12 1 90.854513 51.941145 -79.950541
11051 12 1 90.052567 51.434944 -80.267787
11052 12 1 90.539180 50.691895 -80.727228
11053 12 1 90.576340 50.217994 -81.607021
11054 12 1 91.151098 49.752043 -80.934308
11055 12 1 91.731812 49.516389 -80.155053
11056 12 1 91.667570 49.155799 -79.224544
11057 12 1 90.691388 48.985151 -79.358517
11058 12 1 90.238243 49.222835 -80.217683
11059 12 1 89.341060 48.877037 -80.492429
11060 12 1 89.774813 48.698277 -79.609308
11061 12 1 89.931961 48.211421 -80.468538
11062 12 1 90.373180 47.945375 -81.325594
11063 12 1 89.644098 47.628496 -81.932247
11064 12 1 89.825499 46.664177 -81.739420
11065 12 1 89.710769 45.790418 -82.212052
11066 12 1 90.528772 45.805251 -81.637029
11067 12 1 90.917588 45.094659 -82.223443
11068 12 1 91.233087 44.157104 -82.369906
11069 12 1 91.531278 44.886427 -81.754138
11070 12 1 92.084949 44.068089 -81.908323
11071 12 1 91.825659 44.495982 -81.042484
11072 12 1 91.636748 44.953051 -80.173346
11073 12 1 92.054242 45.691518 -79.643851
11074 12 1 92.440819 45.153853 -80.393167
11075 12 1 92.392169 45.135416 -81.391812
11076 12 1 92.037678 46.025879 -81.106484
11077 12 1 91.671346 46.492738 -81.911371
11078 12 1 92.461171 46.170181 -82.433036
11079 12 1 92.707792 45.221861 -82.233371
11080 12 1 93.707470 45.245286 -82.243107
11081 12 1 94.151948 45.199305 -83.137716
11082 12 1 95.095119 45.174780 -82.806314
11083 12 1 95.709439 45.169241 -83.595351
11084 12 1 95.034511 45.016485 -84.317250
11085 12 1 94.104513 44.706559 -84.514858
11086 12 1 93.380675 45.193407 -84.025943
11087 12 1 93.947861 45.933405 -83.664415
11088 12 1 94.318884 46.819498 -83.942230
11089 12 1 93.448826 46.670749 -84.412201
11090 12 1 93.652791 45.845664 -84.939109
11091 12 1 93.263195 45.114609 -85.499265
11092 12 1 92.820688 44.501175 -86.153396
11093 12 1 92.395545 43.613958 -85.974238
11094 12 1 91.909698 43.576976 -86.847499
11095 12 1 92.479419 43.615413 -87.668438
11096 12 1 93.138689 42.863661 -87.683664
11097 12 1 93.958385 43.435182 -87.645425
11098 12 1 93.167750 43.782182 -87.140957
11099 12 1 93.229041 44.770332 -87.000233
11100 12 1 92.494908 45.442266 -86.902496
11101 12 1 92.735656 45.933913 -86.065642
11102 12 1 93.302172 46.262872 -86.821185
11103 12 1 93.359172 45.812006 -87.711954
11104 12 1 93.253710 44.873487 -88.040681
11105 12 1 92.313641 44.857325 -87.700081
11106 12 1 91.826350 45.656964 -87.349191
11107 12 1 91.651122 46.633930 -87.470980
11108 12 1 92.327132 46.552526 -86.738598
11109 12 1 91.966193 47.010958 -85.926463
11110 12 1 91.565827 47.783033 -86.420028
11111 12 1 91.918223 47.416414 -87.281078
11112 12 1 91.379515 48.106226 -87.764764
11113 12 1 90.965112 47.380693 -87.215335
11114 12 1 90.198785 47.967376 -86.953521
11115 12 1 89.533196 47.243934 -87.136888
11116 12 1 89.895848 46.332756 -86.941345
11117 12 1 89.821825 46.260960 -85.946677
11118 12 1 90.682792 46.583368 -86.340109
11119 12 1 91.096155 47.346069 -85.842697
11120 12 1 90.962716 48.163913 -85.282943
11121 12 1 89.986565 47.947218 -85.269852
11122 12 1 90.356914 48.876043 -85.281028
11123 12 1 91.239031 48.974028 -84.820303
11124 12 1 91.599797 49.162016 -83.906789
11125 12 1 92.166089 49.687353 -83.271702
11126 12 1 91.216123 49.984189 -83.368933
11127 12 1 90.393025 49.713663 -83.868258
11128 12 1 91.113828 50.153089 -84.404306
11129 12 1 92.028690 50.093867 -84.803705
11130 12 1 92.808696 50.545463 -84.370517
11131 12 1 93.473859 50.567060 -83.624132
11132 12 1 92.737304 51.184932 -83.348957
11133 12 1 91.882757 51.414315 -82.882982
11134 12 1 92.287015 51.646442 -81.998282
11135 12 1 92.935765 51.865309 -81.269434
11136 12 1 91.963604 51.684741 -81.120111
11137 12 1 90.991047 51.903454 -81.199470
11138 12 1 91.259418 52.292144 -82.080887
11139 12 1 91.082586 52.518927 -83.038645
11140 12 1 90.475274 51.928195 -82.507412
11141 12 1 89.568017 52.170391 -82.851251
11142 12 1 89.221138 52.873952 -82.231027
11143 12 1 89.369448 53.660650 -81.631769
11144 12 1 90.278172 53.912845 -81.964363
11145 12 1 90.484769 54.775966 -82.425165
11146 12 1 91.259975 55.280617 -82.045187
11147 12 1 92.212842 55.535384 -81.880448
11148 12 1 91.957744 56.358386 -81.372913
11149 12 1 92.269542 56.178579 -80.439934
11150 12 1 91.686321 56.149383 -79.628145
11151 12 1 90.983595 56.785458 -79.946868
11152 12 1 90.821653 55.988650 -80.528994
11153 12 1 91.061315 56.654680 -81.235370
11154 12 1 91.024691 57.443597 -80.621963
11155 12 1 91.742799 57.810189 -81.213513
11156 12 1 91.829495 57.432058 -80.291829
11157 12 1 92.737300 57.075427 -80.071136
11158 12 1 92.574072 56.689648 -80.979173
11159 12 1 93.566915 56.674391 -81.097617
11160 12 1 93.615123 56.337810 -82.038037
11161 12 1 94.578523 56.078011 -82.104096
11162 12 1 95.567758 56.092245 -81.958450
11163 12 1 95.106339 55.344491 -81.481001
11164 12 1 94.274471 54.925229 -81.117390
11165 12 1 94.096531 54.056273 -80.655596
11166 12 1 94.652383 53.369942 -80.186577
11167 12 1 95.337642 54.043012 -79.908377
11168 12 1 95.469715 54.966590 -80.268324
11169 12 1 96.079482 54.182756 -80.385747
11170 12 1 96.317876 55.126946 -80.613062
11171 12 1 96.300534 55.490400 -81.544513
11172 12 1 96.500821 55.636475 -82.513300
11173 12 1 96.926778 55.478254 -83.404101
11174 12 1 96.259376 54.764003 -83.614863
11175 12 1 96.760475 54.572442 -82.770941
11176 12 1 95.827460 54.449231 -82.432854
11177 12 1 95.268358 53.839777 -81.870741
11178 12 1 95.731238 52.961429 -81.751378
11179 12 1 96.340115 53.187301 -82.511806
11180 12 1 97.048281 52.505906 -82.696745
11181 12 1 96.789792 52.371154 -81.740176
11182 12 1 97.590404 51.851250 -81.442314
11183 12 1 97.837778 52.780166 -81.166775
11184 12 1 98.392905 52.339086 -81.871958
11185 12 1 98.228108 53.308175 -82.055553
11186 12 1 97.345257 53.619509 -82.407186
11187 12 1 97.533891 54.548064 -82.087493
11188 12 1 96.607351 54.595006 -81.714237
11189 12 1 97.160592 55.104326 -81.055058
11190 12 1 97.055963 55.306620 -82.028777
11191 12 1 98.040939 55.265217 -82.196434
11192 12 1 98.454762 54.990149 -83.064241
11193 12 1 99.068975 55.618649 -83.541452
11194 12 1 98.640209 54.791203 -83.904073
11195 12 1 98.752538 53.808955 -84.054306
11196 12 1 98.192943 53.965379 -84.868177
11197 12 1 97.849648 54.883231 -84.668938
11198 12 1 98.794996 54.872545 -84.994826
11199 12 1 99.182402 53.974033 -85.201205
11200 12 1 99.607782 53.644869 -86.044237
11201 12 1 98.910521 53.958392 -86.688854
11202 12 1 98.510005 53.305458 -86.045998
11203 12 1 98.145734 52.996670 -86.924609
11204 12 1 97.217245 53.047301 -87.292500
11205 12 1 97.731480 53.678818 -86.712199
11206 12 1 97.057184 54.340593 -87.039885
11207 12 1 97.523012 53.951793 -87.834767
11208 12 1 96.879664 54.062929 -88.592232
11209 12 1 96.026476 54.446576 -88.238843
11210 12 1 95.581131 53.625393 -88.595670
11211 12 1 95.722693 53.916088 -87.649385
11212 12 1 94.922614 53.340252 -87.817571
11213 12 1 94.706885 54.095374 -87.198498
11214 12 1 93.808640 53.820966 -86.855196
11215 12 1 94.406441 54.335922 -86.240823
11216 12 1 95.358633 54.385416 -86.542285
11217 12 1 95.518382 53.500067 -86.978904
11218 12 1 95.426604 52.592505 -86.569137
11219 12 1 96.359727 52.949731 -86.528260
11220 12 1 96.288004 52.384826 -85.706227
11221 12 1 96.732862 52.015840 -84.890169
11222 12 1 96.186347 52.322689 -84.110961
11223 12 1 96.284602 52.953683 -84.880501
11224 12 1 96.461989 53.925339 -84.724241
11225 12 1 95.722205 53.904390 -84.051723
11226 12 1 96.557469 53.985362 -83.507868
11227 12 1 96.707559 53.085115 -83.916558
11228 12 1 97.539638 53.431896 -83.483676
11229 12 1 98.340352 53.827472 -83.033811
11230 12 1 99.264625 54.152198 -83.234490
11231 12 1 99.846780 54.879808 -82.871612
11232 12 1 99.822306 55.005419 -83.863390
11233 12 1 99.837868 55.247514 -84.833518
11234 12 1 99.948292 54.732150 -85.683345
11235 12 1 99.207480 54.977045 -86.308825
11236 12 1 98.993197 54.723721 -87.252176
11237 12 1 99.359924 53.932981 -87.742321
11238 12 1 99.273437 52.936729 -87.743315
11239 12 1 98.831590 52.040957 -87.791927
11240 12 1 98.358829 51.414311 -88.411452
11241 12 1 98.954117 50.632644 -88.597542
11242 12 1 98.710494 50.538767 -87.632226
11243 12 1 99.650326 50.207854 -87.547299
11244 12 1 99.159739 50.550467 -86.746086
11245 12 1 98.801757 50.956822 -85.905417
11246 12 1 99.334546 51.464144 -85.228099
11247 12 1 99.199485 51.380994 -84.240757
11248 12 1 99.536716 50.486409 -84.534000
11249 12 1 99.430922 50.536952 -85.527103
11250 12 1 99.843943 51.161793 -86.189664
11251 12 1 99.209055 51.927546 -86.087005
11252 12 1 98.460346 51.696073 -86.708177
11253 12 1 97.634662 51.829649 -86.160085
11254 12 1 97.149997 52.704008 -86.135667
11255 12 1 97.689196 52.646190 -85.295476
11256 12 1 97.165608 53.472151 -85.504388
11257 12 1 97.392222 54.309722 -86.001501
11258 12 1 98.338242 54.125048 -85.735151
11259 12 1 97.942222 54.775232 -86.383556
11260 12 1 97.411626 55.050264 -87.185320
11261 12 1 96.664460 55.670994 -86.947754
11262 12 1 96.192224 55.919089 -86.101916
11263 12 1 96.055769 56.909212 -86.134103
11264 12 1 96.294356 57.033476 -85.170966
11265 12 1 95.967492 56.880628 -84.238336
11266 12 1 95.070122 56.891107 -84.679491
11267 12 1 95.796284 57.575635 -84.743609
11268 12 1 96.267645 57.724043 -83.874245
11269 12 1 95.805490 57.552647 -83.004167
11270 12 1 95.277673 56.709424 -82.902258
11271 12 1 95.006584 57.458082 -83.507255
11272 12 1 95.116650 57.666433 -82.535414
11273 12 1 95.259232 58.585542 -82.902714
11274 12 1 95.369561 59.567384 -83.057032
11275 12 1 96.340348 59.796887 -83.127025
11276 12 1 96.102862 60.286286 -82.287925
11277 12 1 95.811263 61.138480 -82.722362
11278 12 1 95.626045 61.431710 -83.660290
11279 12 1 96.350851 61.775009 -83.062961
11280 12 1 96.576891 61.448441 -82.145214
11281 12 1 96.821981 60.660018 -81.581015
11282 12 1 96.743895 60.205921 -80.693491
11283 12 1 96.496766 59.357133 -81.160917
11284 12 1 95.895890 58.807269 -81.741086
11285 12 1 96.095649 58.124293 -81.038490
11286 12 1 96.223422 57.489149 -80.276738
11287 12 1 96.825639 58.275465 -80.138748
11288 12 1 97.722554 57.834292 -80.108604
11289 12 1 97.730886 56.840059 -80.215519
11290 12 1 96.858720 56.831781 -80.704660
11291 12 1 96.135922 56.929891 -81.388720
11292 12 1 96.743542 56.393439 -81.974397
11293 12 1 97.499756 56.001238 -81.450641
11294 12 1 98.275513 55.405156 -81.243552
11295 12 1 98.490383 55.779110 -80.341338
11296 12 1 99.263811 55.436786 -79.807837
11297 12 1 99.310382 54.535319 -79.377502
11298 12 1 99.335754 53.657698 -79.856186
11299 12 1 98.341744 53.575761 -79.928513
11300 12 1 98.063928 54.382956 -80.449334
11301 12 1 98.676871 53.683073 -80.816030
11302 12 1 98.932876 54.476596 -80.263958
11303 12 1 98.214863 54.808457 -79.652137
11304 12 1 97.545085 54.383933 -79.042895
11305 12 1 98.118186 54.236976 -78.236695
11306 12 1 97.364733 54.520259 -77.643349
11307 12 1 97.322341 55.407491 -78.102721
11308 12 1 97.544747 55.974945 -77.309921
11309 12 1 96.897853 56.674083 -77.614446
11310 12 1 96.192710 56.374257 -76.971891
11311 12 1 96.706976 57.097846 -76.511510
11312 12 1 96.966123 56.152450 -76.709169
11313 12 1 97.256144 55.670957 -75.882094
11314 12 1 97.380921 56.425444 -75.237750
11315 12 1 98.007763 57.163576 -74.988290
11316 12 1 97.311866 57.067063 -74.276664
11317 12 1 96.611574 57.052757 -73.562951
11318 12 1 96.773909 56.295262 -72.930616
11319 12 1 97.253317 55.541926 -72.480445
11320 12 1 97.749648 55.969366 -73.236058
11321 12 1 97.685048 55.375398 -74.037948
11322 12 1 97.034864 54.621803 -74.134672
11323 12 1 97.082540 54.416803 -75.112273
11324 12 1 96.894189 53.930380 -75.965453
11325 12 1 97.365956 53.075310 -76.180606
11326 12 1 97.448568 52.949389 -75.192011
11327 12 1 97.094231 53.193579 -74.289340
11328 12 1 97.697874 53.066656 -73.502253
11329 12 1 97.284784 53.966863 -73.640035
11330 12 1 97.715630 54.834280 -73.391119
11331 12 1 96.759794 54.545140 -73.338433
11332 12 1 96.100990 54.088967 -72.740200
11333 12 1 95.578396 53.522342 -72.103151
11334 12 1 95.817966 52.609610 -72.434099
11335 12 1 96.131892 52.077646 -71.647673
11336 12 1 96.981493 51.827414 -72.111959
11337 12 1 96.926363 52.450734 -71.331938
11338 12 1 97.315712 53.119196 -70.698246
11339 12 1 96.338782 53.292399 -70.823183
11340 12 1 96.603126 53.017989 -69.898617
11341 12 1 96.961037 52.217851 -69.417287
11342 12 1 96.537658 52.959292 -68.896695
11343 12 1 97.259672 52.486158 -68.391877
11344 12 1 97.142402 51.591918 -68.823828
11345 12 1 97.724990 51.106754 -69.475908
11346 12 1 97.416271 51.502325 -70.340904
11347 12 1 96.823368 51.238001 -69.580247
11348 12 1 96.304523 50.609380 -69.000907
11349 12 1 95.799808 50.219102 -68.230877
11350 12 1 95.392206 50.545912 -69.083553
11351 12 1 95.642534 50.997964 -69.939698
11352 12 1 94.895031 51.614679 -69.692914
11353 12 1 94.374174 51.073769 -70.353311
11354 12 1 93.533015 51.187448 -70.882016
11355 12 1 94.036213 51.910962 -70.409450
11356 12 1 93.135420 51.505136 -70.254930
11357 12 1 93.051412 52.492504 -70.389264
11358 12 1 92.710911 53.392581 -70.117380
11359 12 1 93.550769 52.952246 -69.799979
11360 12 1 93.659952 52.138394 -69.229256
11361 12 1 94.439083 52.357386 -69.816621
11362 12 1 94.832561 52.792015 -70.626728
11363 12 1 95.475852 53.557571 -70.636728
11364 12 1 94.713861 54.081148 -71.017827
11365 12 1 95.024863 54.907654 -70.548608
11366 12 1 94.713873 55.850621 -70.429873
11367 12 1 94.334998 55.032514 -69.997258
11368 12 1 93.433645 54.685025 -69.738774
11369 12 1 92.689215 55.130744 -69.241623
11370 12 1 93.490332 54.654501 -68.879128
11371 12 1 94.216330 54.192051 -68.370142
11372 12 1 94.181726 54.902751 -67.667498
11373 12 1 93.987123 55.260539 -66.754198
11374 12 1 94.854321 55.627898 -67.090375
11375 12 1 95.059284 56.494072 -66.634598
11376 12 1 94.212559 56.764505 -67.092771
11377 12 1 93.615112 55.977974 -66.936484
11378 12 1 93.143617 55.207741 -67.365942
11379 12 1 93.351135 54.284162 -67.688335
11380 12 1 92.790382 54.298706 -68.516191
11381 12 1 92.776923 53.530560 -69.156325
11382 12 1 91.889843 53.131040 -68.925086
11383 12 1 91.806057 52.597349 -68.083567
11384 12 1 91.326018 53.111275 -67.372622
11385 12 1 91.527882 54.059504 -67.617799
11386 12 1 90.597404 54.210115 -67.951756
11387 12 1 90.264480 53.339241 -68.313336
11388 12 1 89.946101 52.760380 -67.562634
11389 12 1 89.799006 52.605739 -66.585674
11390 12 1 89.510325 51.669441 -66.785701
11391 12 1 89.568488 50.895765 -67.416607
11392 12 1 89.096248 51.752458 -67.624131
11393 12 1 89.873584 52.108444 -68.142806
11394 12 1 90.367452 52.016055 -69.007421
11395 12 1 89.593028 52.121861 -69.631177
11396 12 1 89.089547 52.593965 -70.354796
11397 12 1 89.542356 53.483438 -70.416456
11398 12 1 90.151262 53.649526 -69.640797
11399 12 1 90.744255 53.952808 -70.386705
11400 12 1 91.490883 53.322661 -70.173488
11401 12 1 91.532466 54.284143 -69.901782
11402 12 1 91.964963 54.561046 -70.759844
11403 12 1 92.844297 54.778926 -71.183283
11404 12 1 92.258783 54.424992 -71.912601
11405 12 1 92.178220 55.341868 -71.521642
11406 12 1 92.310432 55.071557 -72.475294
11407 12 1 92.816313 54.209119 -72.492214
11408 12 1 92.820360 53.245413 -72.225280
11409 12 1 93.453054 53.729006 -72.830124
11410 12 1 94.210584 53.078199 -72.881100
11411 12 1 93.573103 53.226156 -73.637227
11412 12 1 94.521942 52.910472 -73.644170
11413 12 1 94.796832 52.164654 -73.037383
11414 12 1 93.825251 52.389547 -73.111230
11415 12 1 93.238180 51.585275 -73.203386
11416 12 1 92.722687 52.377441 -72.876677
11417 12 1 92.798672 51.572378 -72.288374
11418 12 1 92.157818 52.202563 -71.849999
11419 12 1 93.069625 52.063550 -71.463627
11420 12 1 93.874800 52.550854 -71.125652
11421 12 1 94.021331 52.556642 -72.114841
11422 12 1 94.957028 52.353338 -71.826503
11423 12 1 95.183638 51.449653 -71.463183
11424 12 1 94.228232 51.373306 -71.748439
11425 12 1 94.091035 50.541994 -71.209832
11426 12 1 94.953681 50.414374 -71.699276
11427 12 1 94.969887 49.673557 -71.027765
11428 12 1 94.993188 50.664295 -70.893989
11429 12 1 94.337920 50.210052 -70.290427
11430 12 1 94.222146 49.514212 -69.581624
11431 12 1 93.596149 50.085066 -69.050349
11432 12 1 93.270999 49.149249 -68.914243
11433 12 1 93.101474 48.998341 -67.940340
11434 12 1 92.896410 48.407605 -67.159968
11435 12 1 91.996117 48.091839 -66.860362
11436 12 1 91.663330 47.472516 -66.149242
11437 12 1 91.019142 47.015741 -66.762740
11438 12 1 90.274994 46.630675 -66.216876
11439 12 1 90.545507 46.099698 -65.413828
11440 12 1 89.651503 45.733987 -65.672696
11441 12 1 90.159005 45.123639 -66.280903
11442 12 1 90.876095 44.440512 -66.142628
11443 12 1 90.781646 43.648600 -66.745915
11444 12 1 91.086651 44.526881 -67.114147
11445 12 1 90.739636 43.757736 -67.650801
11446 12 1 90.574858 42.778503 -67.532690
11447 12 1 91.546249 43.015943 -67.537416
11448 12 1 91.818509 43.956664 -67.739700
11449 12 1 92.797443 43.878886 -67.550919
11450 12 1 93.555730 44.045939 -66.920765
11451 12 1 94.259064 43.364698 -67.123824
11452 12 1 94.404287 44.138385 -67.740524
11453 12 1 95.289432 43.675147 -67.784444
11454 12 1 95.741258 43.795140 -68.668443
11455 12 1 96.419658 43.636904 -67.950992
11456 12 1 95.918079 43.093166 -67.278112
11457 12 1 95.813796 43.077791 -66.283683
11458 12 1 96.497534 42.476220 -65.870629
11459 12 1 95.784990 41.970390 -65.384402
11460 12 1 95.454157 41.349591 -64.673657
11461 12 1 96.172648 42.043264 -64.622781
11462 12 1 96.822847 42.653978 -64.170818
11463 12 1 96.759807 43.362498 -64.873687
11464 12 1 97.201977 43.036109 -65.709124
11465 12 1 96.792522 43.945286 -65.633344
11466 12 1 96.184458 44.719637 -65.458308
11467 12 1 95.465612 44.559169 -66.134703
11468 12 1 96.341854 44.170909 -66.420106
11469 12 1 96.682514 44.891870 -67.023568
11470 12 1 96.034529 44.400305 -67.605357
11471 12 1 95.563149 43.782365 -66.976112
11472 12 1 95.500007 44.778506 -67.037073
11473 12 1 94.820464 44.121163 -66.711310
11474 12 1 94.036777 43.661645 -66.293365
11475 12 1 94.383483 42.730012 -66.184492
11476 12 1 94.751794 42.113649 -65.488471
11477 12 1 95.150602 41.315249 -65.939590
11478 12 1 94.570139 40.755671 -66.531144
11479 12 1 94.081736 40.494416 -65.698553
11480 12 1 94.392411 39.677168 -66.183926
11481 12 1 95.249342 40.181963 -66.079761
11482 12 1 95.187290 40.364903 -65.098597
11483 12 1 94.398633 39.975756 -64.622588
11484 12 1 93.561161 39.444513 -64.750736
11485 12 1 92.798292 39.839585 -65.262545
11486 12 1 92.863606 39.706107 -64.273648
11487 12 1 92.881359 40.537471 -63.718202
11488 12 1 93.397122 39.693929 -63.568454
11489 12 1 92.632241 39.220027 -63.132136
11490 12 1 92.105414 39.398742 -62.301164
11491 12 1 92.415603 38.930540 -61.473776
11492 12 1 91.605998 39.331584 -61.045170
11493 12 1 91.894049 39.327144 -60.087565
11494 12 1 91.557493 38.766501 -59.330987
11495 12 1 91.744987 38.214260 -58.518660
11496 12 1 92.054262 37.955498 -59.433751
11497 12 1 92.654576 38.755187 -59.444770
11498 12 1 93.079242 38.349382 -58.635461
11499 12 1 94.013220 37.992903 -58.660101
11500 12 1 93.241972 37.579834 -59.144406
11501 12 1 93.733844 37.309762 -59.972128
11502 12 1 93.607892 36.489258 -59.414534
11503 12 1 92.743286 36.654681 -59.888973
11504 12 1 92.054372 36.406165 -60.569882
11505 12 1 91.309262 35.764043 -60.750133
11506 12 1 90.465039 35.438057 -61.175598
11507 12 1 90.269214 35.894775 -62.043389
11508 12 1 89.778536 36.400676 -61.333953
11509 12 1 89.444023 36.110896 -60.437221
11510 12 1 90.325134 36.049604 -59.968299
11511 12 1 89.701261 35.296231 -59.760426
11512 12 1 90.334899 34.773042 -59.190534
11513 12 1 91.179303 35.308665 -59.200028
11514 12 1 91.506932 35.862096 -58.434278
11515 12 1 92.250179 35.195333 -58.379413
11516 12 1 93.135807 35.014357 -58.807095
11517 12 1 92.925767 35.732817 -58.143996
11518 12 1 92.632713 36.275121 -57.356580
11519 12 1 93.192316 36.667803 -56.626754
11520 12 1 92.879390 36.106558 -55.860542
11521 12 1 92.377888 36.890579 -56.226337
11522 12 1 91.734244 36.128353 -56.157536
11523 12 1 92.528883 35.745498 -56.628674
11524 12 1 93.490538 35.620216 -56.384697
11525 12 1 94.134602 35.739469 -55.629078
11526 12 1 94.363460 34.766304 -55.605097
11527 12 1 95.158010 34.657015 -56.202380
11528 12 1 94.345336 35.227817 -56.319628
11529 12 1 93.895185 34.346006 -56.179012
11530 12 1 92.932576 34.403943 -55.914385
11531 12 1 92.225584 34.875656 -56.441308
11532 12 1 91.382096 34.708009 -55.930992
11533 12 1 90.760222 33.993821 -56.252252
11534 12 1 91.535130 33.473711 -56.611422
11535 12 1 91.340200 34.082687 -57.380284
11536 12 1 90.528847 33.676929 -56.959491
11537 12 1 90.837737 33.137516 -56.176151
11538 12 1 90.654958 32.716074 -57.064396
11539 12 1 89.786572 33.204778 -56.980289
11540 12 1 89.054166 32.640132 -57.360758
11541 12 1 89.759165 32.248745 -57.952191
11542 12 1 89.757847 31.662279 -58.762164
11543 12 1 89.326083 31.273742 -57.948150
11544 12 1 89.323558 31.714656 -57.050603
11545 12 1 90.322373 31.738873 -57.092807
11546 12 1 91.260948 31.736497 -57.437876
11547 12 1 91.734125 30.936552 -57.068834
11548 12 1 90.973940 30.774914 -56.439555
11549 12 1 91.434774 29.969832 -56.066093
11550 12 1 91.325253 29.101050 -56.549025
11551 12 1 90.641187 28.647176 -55.978016
11552 12 1 91.234032 27.854754 -55.834479
11553 12 1 92.068465 28.367234 -56.037171
11554 12 1 91.840864 28.423434 -55.065040
11555 12 1 91.900695 27.675088 -54.404435
11556 12 1 91.494147 27.275917 -55.226250
11557 12 1 90.890330 27.029815 -54.468069
11558 12 1 91.383022 26.399501 -55.068034
11559 12 1 91.620308 25.435212 -54.950382
11560 12 1 90.661537 25.184990 -54.815670
11561 12 1 89.847796 25.275043 -55.389878
11562 12 1 89.942060 24.403939 -55.871845
11563 12 1 89.613622 23.464993 -55.769336
11564 12 1 89.139291 23.296570 -54.905251
11565 12 1 88.599402 23.455884 -54.078728
11566 12 1 88.500656 22.471402 -53.933663
11567 12 1 89.191241 22.332609 -53.223854
11568 12 1 89.710009 21.873994 -53.945348
11569 12 1 90.164552 22.715401 -54.237622
11570 12 1 90.180145 23.302661 -55.046870
11571 12 1 90.172489 24.263817 -54.770971
11572 12 1 91.061157 24.239199 -55.228859
11573 12 1 91.268564 24.860731 -55.984293
11574 12 1 91.546492 23.907751 -56.105062
11575 12 1 92.273317 23.224599 -56.175976
11576 12 1 91.428565 22.865174 -56.572470
11577 12 1 90.964846 22.501070 -57.380178
11578 12 1 90.232652 21.902591 -57.055040
11579 12 1 90.847494 21.414166 -56.435839
11580 12 1 91.766762 21.083299 -56.222595
11581 12 1 91.530126 21.207719 -55.258996
11582 12 1 91.593522 20.250134 -54.977905
11583 12 1 90.927553 19.911255 -55.642470
11584 12 1 90.636474 19.086682 -55.157338
11585 12 1 90.040104 19.325393 -54.390945
11586 12 1 89.467023 19.024779 -55.153316
11587 12 1 89.806246 18.356328 -55.815208
11588 12 1 90.565913 18.024705 -56.374611
11589 12 1 91.467834 17.829477 -56.759871
11590 12 1 90.817215 18.426360 -57.229366
11591 12 1 91.152855 19.364592 -57.313426
11592 12 1 90.408226 18.921675 -57.812778
11593 12 1 90.028715 19.520519 -57.107542
11594 12 1 90.251983 20.493721 -57.052515
11595 12 1 90.836509 19.940276 -56.459196
11596 12 1 90.047357 20.514178 -56.240391
11597 12 1 90.639713 20.910015 -55.538660
11598 12 1 90.193569 20.224856 -54.962889
11599 12 1 90.440182 21.147077 -54.665081
11600 12 1 89.518543 20.774943 -54.775070
11601 12 1 89.034759 21.580736 -55.116612
11602 12 1 89.953049 21.917697 -55.324462
11603 12 1 89.542179 21.731608 -56.216962
11604 12 1 89.315820 20.866892 -55.768601
11605 12 1 88.388135 21.228513 -55.675708
11606 12 1 87.450488 21.010636 -55.946536
11607 12 1 87.157814 20.445611 -55.175116
11608 12 1 87.754697 19.761984 -55.595098
11609 12 1 88.179880 19.331007 -56.391012
11610 12 1 88.686046 20.140840 -56.687603
11611 12 1 88.931196 19.178851 -56.807928
11612 12 1 88.124668 18.588600 -56.774507
11613 12 1 87.179892 18.331596 -56.571163
11614 12 1 87.732724 17.728190 -55.996465
11615 12 1 88.212702 17.327765 -55.215900
11616 12 1 87.491273 17.322467 -54.523432
11617 12 1 88.196973 18.019278 -54.395206
11618 12 1 88.558391 17.595069 -53.564891
11619 12 1 88.837706 16.943756 -54.270422
11620 12 1 89.381409 17.484051 -54.912658
11621 12 1 89.645699 16.545589 -55.135010
11622 12 1 89.914362 15.658267 -54.760205
11623 12 1 90.667503 16.160280 -55.185365
11624 12 1 91.146791 16.814594 -54.600424
11625 12 1 90.829000 15.941505 -54.230662
11626 12 1 91.486855 15.206529 -54.066232
11627 12 1 91.124967 14.679174 -54.834954
11628 12 1 91.221371 14.437169 -53.869480
11629 12 1 91.372643 13.866346 -54.676498
11630 12 1 92.287053 13.797070 -54.277681
11631 12 1 92.039459 13.756247 -53.309678
11632 12 1 92.026364 12.884022 -53.798607
11633 12 1 92.286917 12.140167 -53.183147
11634 12 1 92.776470 11.269335 -53.138550
11635 12 1 93.565014 10.727779 -53.429952
11636 12 1 93.260109 10.611732 -54.375238
11637 12 1 92.532594 11.297706 -54.387939
11638 12 1 92.329939 10.382353 -54.735877
11639 12 1 92.537022 9.677317 -55.414140
11640 12 1 93.001876 9.036576 -56.025173
11641 12 1 93.337902 9.577645 -55.254245
11642 12 1 93.755089 8.687637 -55.070290
11643 12 1 93.788967 9.278771 -55.876151
11644 12 1 93.905360 9.856102 -56.684323
11645 12 1 93.804791 9.487472 -57.608443
11646 12 1 93.469420 10.395056 -57.355819
11647 12 1 92.780513 10.998516 -57.757371
11648 12 1 92.575880 10.782039 -58.711972
11649 12 1 92.320786 11.742458 -58.823878
11650 12 1 92.051390 12.521269 -58.257416
11651 12 1 91.153717 12.741469 -57.875714
11652 12 1 91.214464 13.231253 -57.005990
11653 12 1 91.959257 13.056767 -56.361910
11654 12 1 91.777402 13.060893 -55.378593
11655 12 1 91.584027 12.304477 -54.753741
11656 12 1 90.761681 12.166012 -54.201858
11657 12 1 90.695802 12.975706 -54.785000
11658 12 1 89.943746 13.488950 -54.371487
11659 12 1 89.439848 14.334967 -54.197295
11660 12 1 89.249903 13.889388 -55.072156
11661 12 1 89.058660 14.831544 -54.796895
11662 12 1 88.067935 14.700393 -54.832451
11663 12 1 88.171835 14.742497 -53.838754
11664 12 1 88.583302 14.360315 -53.011329
11665 12 1 89.394616 13.806641 -52.823674
11666 12 1 90.339154 13.890531 -53.141181
11667 12 1 90.129005 13.606726 -52.205611
11668 12 1 90.611329 14.481966 -52.169322
11669 12 1 91.579369 14.242428 -52.095027
11670 12 1 91.102826 14.859366 -52.721361
11671 12 1 91.760098 15.520676 -52.359887
11672 12 1 92.657590 15.249935 -52.708036
11673 12 1 93.036636 15.668230 -51.882594
11674 12 1 93.215788 16.595230 -52.212104
11675 12 1 93.605997 15.815131 -52.701168
11676 12 1 93.669052 16.770692 -52.989137
11677 12 1 92.935018 17.427324 -53.162425
11678 12 1 93.587420 17.939004 -52.603359
11679 12 1 93.700328 17.551503 -53.518288
11680 12 1 94.514401 17.808308 -54.039186
11681 12 1 93.728950 18.416317 -54.154911
11682 12 1 92.787007 18.520646 -53.835760
11683 12 1 91.833375 18.491755 -54.135344
11684 12 1 91.543651 17.876248 -54.868291
11685 12 1 92.401533 17.362406 -54.870479
11686 12 1 93.275154 16.997551 -55.192454
11687 12 1 93.559192 17.869090 -54.792777
11688 12 1 92.939675 18.500802 -55.258758
11689 12 1 92.215558 18.896221 -55.823824
11690 12 1 91.995221 19.728548 -56.332433
11691 12 1 92.668358 19.993853 -57.022722
11692 12 1 92.669141 20.487977 -56.153331
11693 12 1 93.527729 20.930770 -55.894947
11694 12 1 93.486702 20.929824 -54.895789
11695 12 1 92.496088 21.064863 -54.916941
11696 12 1 91.901233 21.431679 -54.201683
11697 12 1 91.452266 22.251860 -54.556270
11698 12 1 90.911215 22.114639 -55.385989
11699 12 1 90.956934 22.899982 -54.768618
11700 12 1 90.672113 21.972717 -54.525602
11701 12 1 90.957315 21.830212 -53.577788
11702 12 1 90.376496 22.201275 -52.853246
11703 12 1 91.333154 22.353094 -52.604739
11704 12 1 91.684358 22.506043 -51.681017
11705 12 1 92.118768 23.324673 -52.056694
11706 12 1 91.307332 23.785661 -51.697441
11707 12 1 92.045781 24.339182 -51.312336
11708 12 1 91.948874 24.594957 -52.274203
11709 12 1 92.118095 25.576112 -52.367470
11710 12 1 91.957497 24.970182 -53.146609
11711 12 1 92.065984 25.500900 -53.987186
11712 12 1 92.274256 26.397916 -54.377040
11713 12 1 92.565651 25.916664 -55.203772
11714 12 1 92.367785 25.370299 -56.017611
11715 12 1 92.116491 24.539377 -55.521204
11716 12 1 92.485891 24.080402 -54.713190
11717 12 1 93.311477 23.571891 -54.468599
11718 12 1 93.261534 24.441020 -53.976541
11719 12 1 94.136671 24.584028 -53.514282
11720 12 1 94.076826 23.915827 -54.255852
11721 12 1 94.789139 24.615696 -54.203009
11722 12 1 95.062600 24.418566 -55.144475
11723 12 1 94.792961 25.312507 -54.786474
11724 12 1 93.890152 25.267841 -55.214188
11725 12 1 93.511780 25.040500 -56.111490
11726 12 1 93.251507 24.320235 -56.754510
11727 12 1 92.427143 24.885011 -56.792609
11728 12 1 91.766329 25.503344 -57.218037
11729 12 1 91.916238 25.225329 -58.166844
11730 12 1 92.574311 24.473028 -58.135481
11731 12 1 93.366367 24.692616 -57.565894
11732 12 1 93.945665 25.227757 -56.951047
11733 12 1 94.500767 25.719406 -56.280119
11734 12 1 94.915358 24.883997 -55.919278
11735 12 1 95.197984 24.093251 -56.462273
11736 12 1 94.632057 24.155556 -57.284371
11737 12 1 94.311318 23.233515 -57.067652
11738 12 1 93.946895 23.961796 -56.487304
11739 12 1 93.124793 23.672042 -55.997212
11740 12 1 93.695834 23.480368 -55.198981
11741 12 1 94.067083 22.809121 -54.557418
11742 12 1 94.949280 22.769112 -54.088241
11743 12 1 94.128756 23.206104 -53.719762
11744 12 1 93.780668 22.443610 -53.174383
11745 12 1 93.940341 21.629100 -52.616640
11746 12 1 94.511093 22.450036 -52.599140
11747 12 1 94.566274 22.058455 -53.517628
11748 12 1 95.349740 22.662771 -53.372771
11749 12 1 95.561650 22.012774 -52.642978
11750 12 1 95.356751 21.613192 -53.536482
11751 12 1 96.197413 21.215275 -53.169127
11752 12 1 96.857631 21.661569 -53.773225
11753 12 1 96.947032 21.230117 -54.670920
11754 12 1 97.251799 21.879210 -55.367910
11755 12 1 97.579487 22.785935 -55.102446
11756 12 1 98.115675 22.471653 -55.885855
11757 12 1 98.469164 22.181774 -54.996464
11758 12 1 97.865731 21.971325 -54.227322
11759 12 1 98.041323 21.363846 -55.002007
11760 12 1 98.606646 20.805985 -54.394387
11761 12 1 97.870101 20.136821 -54.492984
11762 12 1 97.263652 19.450744 -54.894875
11763 12 1 97.221425 18.557303 -54.447682
11764 12 1 97.496321 17.595862 -54.439718
11765 12 1 97.893692 18.273225 -53.820625
11766 12 1 97.452087 19.169866 -53.852558
11767 12 1 96.623112 19.513672 -53.411426
11768 12 1 96.789116 20.448210 -53.096652
11769 12 1 96.542961 20.370721 -52.130524
11770 12 1 95.938643 19.592014 -52.299094
11771 12 1 95.122321 20.024894 -51.916688
11772 12 1 95.798178 20.630072 -52.337376
11773 12 1 96.233668 21.482601 -52.048341
11774 12 1 96.163151 22.445625 -52.308366
11775 12 1 96.122387 22.274255 -51.324003
11776 12 1 96.345015 21.450075 -50.803269
11777 12 1 96.607431 20.610752 -50.327166
11778 12 1 96.521544 20.531119 -49.334049
11779 12 1 96.455346 19.614387 -49.728027
11780 12 1 95.963426 19.105812 -49.021369
11781 12 1 95.537003 20.008651 -48.966181
11782 12 1 95.366505 20.877434 -48.501266
11783 12 1 96.034888 21.121920 -47.798776
11784 12 1 95.858773 21.612706 -48.652071
11785 12 1 96.196714 22.451965 -48.226112
11786 12 1 95.653322 23.097893 -48.762304
11787 12 1 95.431589 23.800587 -49.438362
11788 12 1 94.745046 24.251969 -48.868351
11789 12 1 93.954516 24.434843 -48.283868
11790 12 1 93.548594 25.091271 -48.919737
11791 12 1 93.741589 25.982838 -49.329447
11792 12 1 92.850683 25.921136 -48.879470
11793 12 1 92.181315 26.544724 -48.475632
11794 12 1 92.855966 27.182209 -48.103531
11795 12 1 93.179687 27.420057 -47.187762
11796 12 1 93.673207 27.922274 -46.477680
11797 12 1 93.720226 28.907356 -46.312142
11798 12 1 92.750461 28.943035 -46.070724
11799 12 1 93.280480 29.557387 -46.655234
11800 12 1 93.504542 28.776052 -47.237739
11801 12 1 94.084084 29.543434 -46.963411
11802 12 1 94.631698 28.987233 -47.588520
11803 12 1 94.684897 28.030733 -47.875359
11804 12 1 95.535579 27.859764 -48.372460
11805 12 1 96.494935 28.126262 -48.279639
11806 12 1 95.913588 27.967155 -49.077587
11807 12 1 96.201833 28.603834 -49.792817
11808 12 1 96.469891 29.155187 -50.582852
11809 12 1 97.160466 29.835259 -50.829041
11810 12 1 96.572004 29.927156 -50.025756
11811 12 1 97.287346 29.262344 -49.810557
11812 12 1 97.786702 28.443247 -49.528202
11813 12 1 98.096495 27.493861 -49.476313
11814 12 1 97.893328 28.080506 -50.260258
11815 12 1 98.597266 28.667335 -50.660385
11816 12 1 98.962574 28.450489 -49.755107
11817 12 1 98.522102 28.637072 -48.876943
11818 12 1 99.296385 28.560302 -48.248778
11819 12 1 99.268356 28.323425 -47.277643
11820 12 1 99.391602 27.356100 -47.056077
11821 12 1 99.133379 26.396324 -47.166313
11822 12 1 98.658358 26.977586 -47.826986
11823 12 1 98.598942 27.434816 -48.714348
11824 12 1 99.063913 26.896771 -49.417419
11825 12 1 99.456045 26.753176 -48.508787
11826 12 1 99.656333 26.134540 -49.268506
11827 12 1 99.811887 25.507385 -50.031710
11828 12 1 99.260622 24.711120 -49.782572
11829 12 1 99.000022 25.550948 -50.258783
11830 12 1 98.348889 25.027948 -49.708786
11831 12 1 98.416057 24.423253 -48.915166
11832 12 1 97.869790 23.815763 -48.338496
11833 12 1 97.809050 23.324910 -47.469374
11834 12 1 98.680265 23.667529 -47.117809
11835 12 1 98.838401 24.415755 -46.473487
11836 12 1 99.562100 23.760600 -46.256619
11837 12 1 99.596543 23.337865 -47.162217
11838 12 1 99.634448 23.722548 -48.084487
11839 12 1 99.544969 24.718144 -48.056502
11840 12 1 99.582275 25.301952 -47.245468
11841 12 1 99.928061 24.741004 -46.493291
11842 12 1 99.390959 24.430969 -47.277766
11843 12 1 98.806319 25.041196 -47.812386
11844 12 1 97.977978 25.146624 -47.262170
11845 12 1 97.255835 25.320499 -46.592636
11846 12 1 96.688015 24.815314 -45.942737
11847 12 1 96.265408 25.717759 -45.859088
11848 12 1 95.266214 25.691768 -45.828485
11849 12 1 95.711879 25.308755 -45.019360
11850 12 1 95.240617 25.265062 -44.138449
11851 12 1 96.072864 25.497002 -43.634894
11852 12 1 95.246995 26.045672 -43.504889
11853 12 1 95.128823 26.832727 -42.899430
11854 12 1 94.137682 26.866048 -42.770865
11855 12 1 94.275796 25.875960 -42.796348
11856 12 1 94.300223 25.021078 -42.278101
11857 12 1 93.767556 24.463694 -41.641242
11858 12 1 93.950379 23.530633 -41.331446
11859 12 1 94.849887 23.151761 -41.113866
11860 12 1 94.633582 22.367732 -41.695684
11861 12 1 95.294818 21.638603 -41.519227
11862 12 1 95.396925 21.304019 -42.456045
11863 12 1 95.647019 21.140998 -43.410444
11864 12 1 96.067741 21.783941 -44.050458
11865 12 1 96.540973 21.195694 -43.394702
11866 12 1 97.168057 20.420979 -43.475837
11867 12 1 97.190674 19.666893 -42.819452
11868 12 1 98.053514 19.599279 -42.318517
11869 12 1 98.746476 20.195615 -42.723716
11870 12 1 99.623943 20.587408 -43.000392
11871 12 1 99.086999 20.888333 -43.788513
11872 12 1 99.242632 19.912373 -43.635934
11873 12 1 98.869542 19.399491 -44.409081
11874 12 1 99.548618 18.712035 -44.151668
11875 12 1 99.471484 17.722706 -44.275270
11876 12 1 99.467237 18.052218 -45.219412
11877 12 1 99.171978 18.331507 -46.133096
11878 12 1 99.412955 19.256362 -45.838864
11879 12 1 99.595561 19.132913 -44.863459
11880 12 1 98.660526 19.258656 -45.194968
11881 12 1 98.657129 20.258357 -45.170754
11882 12 1 98.153194 20.126913 -46.024435
11883 12 1 97.762340 21.022175 -46.238305
11884 12 1 98.459385 20.581733 -46.804113
11885 12 1 98.347053 19.913878 -47.539880
11886 12 1 99.224871 19.656871 -47.944086
11887 12 1 98.808299 19.984004 -48.792290
11888 12 1 98.752499 20.795339 -49.374203
11889 12 1 99.352753 21.594585 -49.404228
11890 12 1 99.492939 20.687362 -49.007624
11891 12 1 99.966151 19.807806 -49.057143
11892 12 1 99.430092 19.523751 -49.852098
11893 12 1 99.111666 19.702931 -50.782958
11894 12 1 98.166129 20.028394 -50.788752
11895 12 1 98.577632 20.336646 -51.646450
11896 12 1 97.709666 20.645492 -51.257543
11897 12 1 98.522989 21.029084 -50.820093
11898 12 1 99.258455 21.049837 -51.497337
11899 12 1 99.730230 20.734217 -52.320631
11900 12 1 99.496577 20.779333 -53.291903
11901 12 1 99.660198 21.597284 -53.843432
11902 12 1 99.660389 22.549523 -54.148786
11903 12 1 99.654827 22.810408 -55.114139
11904 12 1 99.540614 23.588671 -55.731604
11905 12 1 99.121643 23.805724 -54.849929
11906 12 1 98.645033 23.088997 -55.358991
11907 12 1 98.952683 22.187639 -55.663795
11908 12 1 99.449435 21.640007 -54.990492
11909 12 1 98.739237 21.376656 -55.643382
11910 12 1 98.504742 20.762704 -56.397089
11911 12 1 98.956591 21.081131 -57.230417
11912 12 1 98.331251 21.537064 -56.597112
11913 12 1 97.737234 20.773049 -56.848955
11914 12 1 96.829200 20.508902 -56.523838
11915 12 1 97.032374 21.478687 -56.658887
11916 12 1 96.304256 21.202969 -57.286442
11917 12 1 95.806399 21.594500 -56.512593
11918 12 1 95.165571 20.834033 -56.407568
11919 12 1 95.378709 21.548474 -55.741125
11920 12 1 95.695900 20.601170 -55.696364
11921 12 1 95.346964 21.116554 -54.913661
11922 12 1 95.609953 22.041659 -54.639768
11923 12 1 96.423117 22.623170 -54.664455
11924 12 1 96.698443 23.527222 -54.337524
11925 12 1 97.670166 23.754681 -54.400905
11926 12 1 97.793701 24.714108 -54.654361
11927 12 1 97.550137 24.446432 -53.722145
11928 12 1 97.531398 24.567698 -52.729702
11929 12 1 97.227054 24.620843 -51.778623
11930 12 1 97.540974 25.486547 -52.168507
11931 12 1 97.817530 25.940382 -53.015591
11932 12 1 98.059543 25.205010 -53.648565
11933 12 1 98.305789 25.940404 -54.279880
11934 12 1 98.020678 26.843584 -54.600781
11935 12 1 98.475237 27.661278 -54.247577
11936 12 1 99.097646 28.432253 -54.382498
11937 12 1 98.707045 29.195597 -54.897022
11938 12 1 99.239548 29.770472 -55.518279
11939 12 1 98.350061 29.566810 -55.927343
11940 12 1 99.236626 29.721485 -56.363323
11941 12 1 99.911093 29.056774 -56.041992
11942 12 1 98.946637 28.793540 -56.065065
11943 12 1 99.614032 28.100760 -56.338266
11944 12 1 99.792099 27.352728 -55.698938
11945 12 1 99.932157 27.446754 -54.713269
11946 12 1 99.716477 28.211591 -55.320316
11947 12 1 99.145898 27.552641 -54.830190
11948 12 1 99.445673 26.677997 -54.449226
11949 12 1 99.996642 26.160083 -53.794857
11950 12 1 99.189848 26.328461 -53.228524
11951 12 1 99.227596 27.310053 -53.041302
11952 12 1 99.250885 27.773216 -53.927269
11953 12 1 99.445784 28.502917 -53.271867
11954 12 1 99.202183 29.241433 -52.643176
11955 12 1 99.831140 28.540942 -52.305945
11956 12 1 99.688413 27.647648 -51.879734
11957 12 1 98.910275 27.075913 -51.619695
11958 12 1 98.151479 26.904275 -50.991389
11959 12 1 98.374437 26.008668 -51.376329
11960 12 1 98.292020 25.013047 -51.332223
11961 12 1 98.640944 24.434298 -52.069313
11962 12 1 98.212111 23.919249 -52.811490
11963 12 1 97.708555 23.055390 -52.798154
11964 12 1 97.564236 22.458199 -53.587164
11965 12 1 98.521860 22.228269 -53.760625
11966 12 1 98.320485 23.105136 -54.197147
11967 12 1 98.850032 23.563802 -53.483561
11968 12 1 98.842369 24.419445 -54.001071
11969 12 1 99.667613 24.084481 -53.546351
11970 12 1 99.863544 23.123839 -53.349429
11971 12 1 99.868170 22.524494 -52.548951
11972 12 1 99.749490 23.490914 -52.321034
11973 12 1 98.946784 23.088414 -52.761099
11974 12 1 98.955406 22.095410 -52.643328
11975 12 1 99.826833 21.653273 -52.430891
11976 12 1 99.684026 22.177379 -51.591296
11977 12 1 99.563183 22.527443 -50.662397
11978 12 1 98.590606 22.480000 -50.434705
11979 12 1 98.304722 22.950437 -51.269545
11980 12 1 99.024627 22.668975 -51.903987
11981 12 1 98.844976 21.832460 -51.386332
11982 12 1 98.042364 21.855632 -51.982383
11983 12 1 97.060230 21.713808 -52.106066
11984 12 1 97.238868 21.767917 -51.123640
11985 12 1 97.717389 22.382330 -50.496333
11986 12 1 97.308164 22.794291 -49.682194
11987 12 1 97.285846 23.791946 -49.617489
11988 12 1 96.614928 23.463587 -50.282357
11989 12 1 96.673163 22.633934 -50.837591
11990 12 1 96.270929 23.348515 -51.409939
11991 12 1 95.545885 23.287308 -50.723962
11992 12 1 94.742554 23.335490 -50.130381
11993 12 1 93.890235 22.913940 -49.820789
11994 12 1 93.396029 23.088499 -48.969150
11995 12 1 92.994950 22.887919 -49.862964
11996 12 1 93.515354 22.054856 -50.050539
11997 12 1 92.630849 21.663232 -49.797003
11998 12 1 91.913246 20.969843 -49.862257
11999 12 1 91.049569 20.468188 -49.813216
12000 12 1 91.275553 19.623146 -50.297816
12001 13 1 83.878808 -24.040856 9.994558
12002 13 1 84.857887 -24.166897 9.834817
12003 13 1 85.001932 -23.177551 9.855938
12004 13 1 84.531425 -22.930048 9.008964
12005 13 1 83.854179 -23.649042 9.165126
12006 13 1 83.960820 -24.624080 8.970371
12007 13 1 84.088825 -25.577411 8.696922
12008 13 1 84.591421 -26.400596 8.961050
12009 13 1 85.344687 -25.962518 8.470462
12010 13 1 84.438266 -25.909984 8.051367
12011 13 1 85.122554 -25.215172 7.830037
12012 13 1 85.018408 -25.101886 6.841948
12013 13 1 85.325053 -25.380756 5.931893
12014 13 1 86.262032 -25.421096 6.278943
12015 13 1 86.176489 -24.450019 6.501859
12016 13 1 85.865067 -24.336231 7.445294
12017 13 1 85.010229 -23.928849 7.766683
12018 13 1 84.299205 -24.531951 8.128226
12019 13 1 84.181928 -24.246264 7.177106
12020 13 1 83.440699 -24.257412 6.505947
12021 13 1 83.379728 -23.699935 5.677996
12022 13 1 83.003004 -23.153897 4.929717
12023 13 1 82.578855 -23.511169 4.097579
12024 13 1 83.448618 -23.101439 3.822563
12025 13 1 83.576235 -22.130900 4.026935
12026 13 1 83.691580 -22.525826 3.115491
12027 13 1 84.225351 -23.116443 2.510297
12028 13 1 85.006924 -23.399388 1.954343
12029 13 1 84.594577 -24.229879 2.328848
12030 13 1 84.282461 -24.840988 3.056261
12031 13 1 84.710086 -24.119252 3.600534
12032 13 1 85.515178 -23.631127 3.263546
12033 13 1 85.972726 -23.963710 4.088191
12034 13 1 85.060966 -24.262033 4.370498
12035 13 1 84.883579 -24.180649 5.351269
12036 13 1 84.245192 -23.477936 5.665366
12037 13 1 83.648563 -22.758595 5.309583
12038 13 1 83.264624 -21.837198 5.249432
12039 13 1 83.939100 -21.900723 5.984990
12040 13 1 83.089301 -22.255826 6.374532
12041 13 1 82.106106 -22.073818 6.388718
12042 13 1 82.728277 -21.442516 6.851710
12043 13 1 83.059342 -20.646808 7.358903
12044 13 1 82.346395 -20.333774 6.731435
12045 13 1 83.154297 -20.213214 6.154581
12046 13 1 82.812271 -20.942733 5.562280
12047 13 1 82.206898 -20.186353 5.810095
12048 13 1 81.676707 -19.340659 5.870909
12049 13 1 81.372431 -18.659137 6.536450
12050 13 1 80.761144 -19.436241 6.386654
12051 13 1 80.029404 -19.119482 5.783148
12052 13 1 80.884827 -19.091562 5.265971
12053 13 1 81.216038 -18.148737 5.228833
12054 13 1 80.259844 -18.276964 5.491986
12055 13 1 80.151236 -17.338940 5.162874
12056 13 1 79.945515 -18.168848 4.644288
12057 13 1 79.007700 -17.875123 4.829300
12058 13 1 79.613063 -17.290997 4.288623
12059 13 1 78.758529 -17.157924 3.786565
12060 13 1 78.369967 -16.288036 3.482732
12061 13 1 78.726382 -15.374624 3.679319
12062 13 1 79.418886 -15.280559 2.964064
12063 13 1 79.808943 -15.766964 2.182229
12064 13 1 78.880414 -16.064780 2.403902
12065 13 1 79.756957 -16.402904 2.746458
12066 13 1 79.341003 -17.297647 2.583927
12067 13 1 80.329228 -17.415075 2.485828
12068 13 1 79.957528 -17.903923 1.696609
12069 13 1 80.248721 -16.979197 1.451483
12070 13 1 80.224184 -16.833104 0.462516
12071 13 1 80.882923 -16.470335 -0.196621
12072 13 1 80.607026 -16.549637 -1.154531
12073 13 1 79.640210 -16.442282 -1.386354
12074 13 1 78.694089 -16.737426 -1.253142
12075 13 1 78.132870 -17.436020 -0.809296
12076 13 1 78.578552 -16.738819 -0.247799
12077 13 1 78.497746 -17.293605 0.580261
12078 13 1 79.054960 -17.651242 -0.169145
12079 13 1 79.345399 -18.607203 -0.126925
12080 13 1 80.106009 -19.228427 0.061630
12081 13 1 80.134630 -18.423367 0.654132
12082 13 1 79.142335 -18.314857 0.594335
12083 13 1 79.216541 -18.873043 1.420725
12084 13 1 78.653749 -19.682558 1.253544
12085 13 1 79.652963 -19.658474 1.222070
12086 13 1 80.559294 -19.241471 1.153711
12087 13 1 80.363703 -20.211096 1.006840
12088 13 1 80.751869 -20.443192 0.114956
12089 13 1 80.006788 -20.694605 -0.502819
12090 13 1 79.891343 -21.679249 -0.633771
12091 13 1 79.104362 -21.993428 -0.102781
12092 13 1 78.305014 -21.404383 -0.221393
12093 13 1 77.796221 -20.836679 0.425787
12094 13 1 78.034205 -20.299486 1.234976
12095 13 1 78.906601 -20.637026 1.588519
12096 13 1 78.582897 -21.472880 2.031874
12097 13 1 79.449543 -21.795043 1.650907
12098 13 1 79.383093 -22.114017 2.596338
12099 13 1 78.773117 -21.419369 2.977644
12100 13 1 77.991739 -21.793020 3.477476
12101 13 1 77.805914 -21.599665 2.514106
12102 13 1 77.960323 -20.938005 3.247839
12103 13 1 76.969787 -20.803952 3.218376
12104 13 1 76.175055 -20.413190 2.753933
12105 13 1 75.654951 -20.909533 3.449012
12106 13 1 74.773236 -20.934191 3.920151
12107 13 1 74.239107 -21.764261 4.080427
12108 13 1 74.522506 -21.428124 4.978590
12109 13 1 75.246982 -21.887944 4.465073
12110 13 1 76.187480 -22.114109 4.718672
12111 13 1 76.586659 -22.655910 5.458339
12112 13 1 76.958204 -21.940075 4.867125
12113 13 1 77.463124 -21.139183 5.189037
12114 13 1 78.279998 -20.737621 4.774953
12115 13 1 78.060011 -20.188054 3.968987
12116 13 1 77.807404 -19.287063 4.321697
12117 13 1 76.926680 -18.994490 3.949237
12118 13 1 77.158844 -19.752639 4.558590
12119 13 1 76.466009 -19.694054 5.277303
12120 13 1 76.179630 -19.118024 4.511681
12121 13 1 75.912796 -18.761183 3.616436
12122 13 1 75.404583 -19.616616 3.516668
12123 13 1 75.513641 -19.320438 2.567782
12124 13 1 74.686198 -18.769052 2.674134
12125 13 1 74.388553 -19.089337 3.573480
12126 13 1 74.751173 -19.968847 3.881652
12127 13 1 75.342484 -19.598311 4.597930
12128 13 1 75.469057 -20.549154 4.880555
12129 13 1 74.660654 -20.143878 5.307447
12130 13 1 74.069253 -19.539820 5.841637
12131 13 1 73.627977 -19.977637 5.058315
12132 13 1 73.867255 -19.008229 5.113025
12133 13 1 73.751254 -18.219148 4.509788
12134 13 1 73.382991 -18.343631 3.588437
12135 13 1 72.936905 -18.608433 4.443357
12136 13 1 72.641401 -19.554405 4.576830
12137 13 1 72.974832 -19.544691 3.634105
12138 13 1 72.641045 -20.421103 3.286992
12139 13 1 73.429711 -20.991491 3.057507
12140 13 1 73.190290 -21.725951 3.692523
12141 13 1 72.960850 -22.068834 4.603450
12142 13 1 73.242520 -23.026018 4.670232
12143 13 1 73.456561 -23.998855 4.758411
12144 13 1 73.858867 -24.889444 4.546279
12145 13 1 74.388529 -25.659755 4.901354
12146 13 1 74.618072 -26.072287 5.782903
12147 13 1 74.180869 -26.502823 6.572518
12148 13 1 74.319830 -25.540329 6.339506
12149 13 1 74.326461 -25.458187 7.336105
12150 13 1 75.245295 -25.110007 7.521884
12151 13 1 75.784150 -25.693150 6.913953
12152 13 1 76.099347 -26.627160 6.745801
12153 13 1 75.552067 -26.241171 6.003173
12154 13 1 75.214501 -27.033493 5.494965
12155 13 1 75.662532 -27.810730 5.053183
12156 13 1 76.140236 -28.688222 5.095681
12157 13 1 76.093804 -29.330787 4.330858
12158 13 1 76.940868 -29.195652 4.844882
12159 13 1 77.261356 -29.565254 3.972712
12160 13 1 77.843268 -29.497592 4.783144
12161 13 1 78.140280 -29.973715 3.955442
12162 13 1 78.016214 -30.008302 2.963771
12163 13 1 77.031881 -30.129290 2.835513
12164 13 1 76.397073 -30.852783 3.106765
12165 13 1 76.214089 -30.807103 2.124711
12166 13 1 77.110192 -31.106744 2.452146
12167 13 1 77.316232 -32.081313 2.364038
12168 13 1 76.762309 -32.519428 3.072010
12169 13 1 77.697717 -32.557151 3.423561
12170 13 1 76.857732 -32.174549 3.808321
12171 13 1 75.981816 -32.649878 3.890974
12172 13 1 76.487163 -32.691209 4.752899
12173 13 1 77.021998 -31.856478 4.883962
12174 13 1 76.354172 -31.895735 5.627243
12175 13 1 75.779425 -31.485249 4.919311
12176 13 1 76.201864 -30.656537 5.286438
12177 13 1 75.812279 -31.249520 5.991133
12178 13 1 75.160213 -31.558722 6.683378
12179 13 1 75.039776 -30.802387 7.326380
12180 13 1 75.775961 -30.147446 7.496920
12181 13 1 74.978899 -29.543561 7.500556
12182 13 1 74.911838 -28.784723 8.148374
12183 13 1 74.923921 -29.095010 9.098941
12184 13 1 75.720343 -28.494561 9.027010
12185 13 1 76.633386 -28.708550 8.679792
12186 13 1 76.737190 -29.540777 8.135161
12187 13 1 76.663034 -29.720037 9.116164
12188 13 1 77.606987 -29.446632 9.301100
12189 13 1 77.747898 -28.696685 8.654784
12190 13 1 78.222025 -27.867606 8.951147
12191 13 1 79.086247 -27.365412 8.920797
12192 13 1 79.199469 -28.255331 9.362639
12193 13 1 78.705525 -29.108116 9.532275
12194 13 1 78.457872 -29.274333 8.577791
12195 13 1 78.285352 -29.954051 7.864895
12196 13 1 77.706995 -30.077259 8.671321
12197 13 1 78.163503 -30.878809 8.285164
12198 13 1 78.572263 -31.071214 7.393034
12199 13 1 77.842319 -31.646877 7.024532
12200 13 1 78.444676 -32.148773 7.645229
12201 13 1 78.417819 -33.108670 7.924293
12202 13 1 78.779361 -33.178865 8.854003
12203 13 1 77.834073 -32.927874 8.645592
12204 13 1 76.956985 -32.617238 8.279229
12205 13 1 76.205759 -33.152780 8.665043
12206 13 1 76.535871 -33.378515 9.581596
12207 13 1 76.858743 -32.508285 9.209504
12208 13 1 76.837322 -32.268603 10.180119
12209 13 1 77.498792 -31.531467 10.041965
12210 13 1 76.561322 -31.337230 9.753139
12211 13 1 76.289422 -30.692291 10.467369
12212 13 1 75.320750 -30.671412 10.219906
12213 13 1 75.405113 -31.393718 9.533498
12214 13 1 74.745377 -30.835495 9.030372
12215 13 1 73.895730 -30.363719 8.794730
12216 13 1 72.979027 -30.254458 9.179070
12217 13 1 72.495013 -30.051947 10.030375
12218 13 1 72.426795 -30.926630 10.510245
12219 13 1 73.341130 -31.287369 10.326239
12220 13 1 73.351386 -31.622692 9.384191
12221 13 1 72.849285 -32.122054 8.678123
12222 13 1 72.262037 -32.771508 9.161185
12223 13 1 72.703431 -32.111496 9.769096
12224 13 1 72.554756 -31.200184 9.385163
12225 13 1 71.769587 -30.829524 9.881269
12226 13 1 71.528948 -29.870411 10.030249
12227 13 1 71.144314 -29.992352 9.115270
12228 13 1 70.890933 -30.394134 8.235288
12229 13 1 71.455247 -31.218738 8.195573
12230 13 1 72.389915 -30.966889 8.446506
12231 13 1 72.136387 -30.002336 8.519738
12232 13 1 72.409405 -29.091651 8.829759
12233 13 1 73.394010 -28.916910 8.825543
12234 13 1 73.671530 -28.836072 9.782856
12235 13 1 74.558450 -28.589533 10.173485
12236 13 1 75.525699 -28.769689 9.994675
12237 13 1 76.333025 -28.482668 10.510276
12238 13 1 77.149290 -28.955910 10.841566
12239 13 1 77.068114 -28.059522 10.405792
12240 13 1 77.417324 -27.499380 9.654598
12241 13 1 77.750009 -26.699991 10.154895
12242 13 1 78.344600 -26.549266 9.365121
12243 13 1 77.890906 -25.660603 9.298482
12244 13 1 78.880940 -25.704945 9.432149
12245 13 1 79.357631 -25.011261 9.972119
12246 13 1 78.826259 -25.135476 10.810101
12247 13 1 77.966940 -24.626365 10.761341
12248 13 1 77.175973 -24.180753 10.342054
12249 13 1 77.903546 -23.543145 10.595223
12250 13 1 78.621759 -24.193474 10.347752
12251 13 1 78.225306 -23.996087 11.244336
12252 13 1 77.335651 -24.051006 11.697656
12253 13 1 77.376990 -24.953622 11.269198
12254 13 1 76.990031 -25.868074 11.150711
12255 13 1 76.915465 -26.260432 10.233925
12256 13 1 76.813273 -25.387906 9.756165
12257 13 1 77.110915 -26.214995 9.279369
12258 13 1 76.980182 -26.574305 8.355354
12259 13 1 76.316703 -26.378574 7.633215
12260 13 1 76.886927 -25.675410 7.208473
12261 13 1 77.353026 -25.265531 7.992534
12262 13 1 77.389429 -24.504890 7.344384
12263 13 1 77.161978 -24.511436 8.318151
12264 13 1 76.955863 -24.354360 9.283989
12265 13 1 76.302500 -25.008361 8.902677
12266 13 1 75.405349 -25.438306 8.801350
12267 13 1 75.115289 -24.584083 9.232822
12268 13 1 74.357853 -23.936747 9.317953
12269 13 1 74.892633 -23.946191 8.473015
12270 13 1 75.749770 -23.823755 7.972690
12271 13 1 74.976549 -24.031813 7.373656
12272 13 1 74.837966 -23.071025 7.613824
12273 13 1 74.013049 -23.200024 7.063487
12274 13 1 74.492466 -23.509766 6.242379
12275 13 1 73.761203 -24.189949 6.191335
12276 13 1 74.042737 -24.414808 7.124167
12277 13 1 73.442933 -24.350234 7.921704
12278 13 1 72.953468 -25.053514 8.437283
12279 13 1 72.521133 -24.724727 7.597649
12280 13 1 72.057782 -25.064781 8.415982
12281 13 1 71.209721 -25.231058 8.919117
12282 13 1 70.780420 -25.093320 8.026520
12283 13 1 70.476391 -24.277348 8.518206
12284 13 1 70.206622 -23.454858 9.018941
12285 13 1 69.791692 -22.750938 8.442462
12286 13 1 70.729510 -22.761250 8.095488
12287 13 1 71.091766 -23.560548 8.574961
12288 13 1 71.047300 -24.263317 9.284988
12289 13 1 72.045785 -24.313899 9.263322
12290 13 1 72.861592 -24.267290 8.686880
12291 13 1 73.493326 -24.278662 9.461982
12292 13 1 73.334111 -24.098756 10.432696
12293 13 1 73.360426 -23.162945 10.784214
12294 13 1 72.599574 -22.537173 10.956013
12295 13 1 73.113662 -21.923805 11.555590
12296 13 1 72.474417 -22.497969 12.067159
12297 13 1 73.438493 -22.703417 12.235529
12298 13 1 73.803838 -22.631868 11.307410
12299 13 1 72.968947 -23.127463 11.546873
12300 13 1 73.452541 -23.944413 11.232658
12301 13 1 73.639027 -24.788408 10.729771
12302 13 1 74.289992 -24.038846 10.849777
12303 13 1 74.558019 -23.082036 10.737185
12304 13 1 74.407521 -23.075768 11.725776
12305 13 1 74.524086 -22.121132 11.451764
12306 13 1 74.907578 -21.242612 11.736609
12307 13 1 74.679967 -20.534329 11.068381
12308 13 1 74.753361 -20.738399 10.092180
12309 13 1 75.264862 -20.814261 9.236253
12310 13 1 75.142833 -19.885498 9.586262
12311 13 1 74.528080 -19.124274 9.379823
12312 13 1 74.633239 -18.219725 8.966626
12313 13 1 74.959146 -17.379998 9.400956
12314 13 1 75.579411 -16.675949 9.746770
12315 13 1 76.085323 -16.069078 10.359763
12316 13 1 75.642412 -15.620840 11.136238
12317 13 1 76.593999 -15.545993 10.838112
12318 13 1 76.643623 -14.630002 10.439994
12319 13 1 75.728794 -14.837073 10.093283
12320 13 1 76.414920 -15.278194 9.514800
12321 13 1 77.025279 -14.493250 9.621222
12322 13 1 77.208801 -14.203467 8.681889
12323 13 1 77.837648 -14.625567 9.334870
12324 13 1 77.550710 -14.963459 10.231249
12325 13 1 78.268188 -14.442655 10.693839
12326 13 1 77.694696 -15.117816 11.157805
12327 13 1 78.506609 -14.804097 11.650124
12328 13 1 77.989510 -13.966380 11.474516
12329 13 1 77.900840 -14.331240 12.401346
12330 13 1 76.992226 -14.621008 12.702103
12331 13 1 77.394104 -15.059736 11.898355
12332 13 1 77.139431 -14.107153 11.731839
12333 13 1 77.040753 -13.604211 10.873171
12334 13 1 76.222630 -13.325410 11.376106
12335 13 1 75.464179 -13.962409 11.513892
12336 13 1 74.466022 -14.012696 11.479936
12337 13 1 73.713353 -13.964367 10.823313
12338 13 1 74.208196 -13.287164 10.278770
12339 13 1 74.835639 -12.549035 10.526723
12340 13 1 75.710848 -12.161009 10.815591
12341 13 1 76.292792 -11.733692 10.123680
12342 13 1 76.033115 -11.724670 9.158027
12343 13 1 75.461721 -12.222127 9.810749
12344 13 1 75.051265 -11.317812 9.693534
12345 13 1 74.116765 -10.969883 9.768736
12346 13 1 73.715471 -11.703649 9.220510
12347 13 1 73.619701 -12.136473 8.324133
12348 13 1 72.650174 -11.905262 8.243137
12349 13 1 72.187172 -12.660629 7.779402
12350 13 1 72.272212 -13.027074 6.852857
12351 13 1 71.998478 -13.930977 7.181535
12352 13 1 71.045756 -14.228668 7.120703
12353 13 1 70.306127 -14.294617 6.450927
12354 13 1 70.285740 -15.227754 6.809871
12355 13 1 70.228611 -16.186114 7.089661
12356 13 1 70.529028 -16.015232 6.151286
12357 13 1 70.457017 -16.305536 5.197065
12358 13 1 70.171457 -17.250912 5.039839
12359 13 1 69.845554 -16.884936 4.168146
12360 13 1 69.710506 -15.961301 4.526839
12361 13 1 69.557357 -15.144328 3.970870
12362 13 1 70.029503 -15.256956 3.096574
12363 13 1 70.709804 -14.792918 2.529248
12364 13 1 71.635354 -15.171543 2.528792
12365 13 1 71.204839 -15.598430 3.324044
12366 13 1 72.016148 -16.137595 3.550050
12367 13 1 72.513079 -16.815762 4.091482
12368 13 1 72.252043 -15.949116 4.516671
12369 13 1 72.977404 -16.177046 5.166209
12370 13 1 73.061319 -16.210267 4.170289
12371 13 1 72.882377 -15.307690 4.561870
12372 13 1 73.635564 -15.142273 3.925202
12373 13 1 74.331419 -15.676146 4.405583
12374 13 1 73.841438 -16.093381 5.170981
12375 13 1 74.408033 -15.269599 5.189787
12376 13 1 73.487997 -15.074894 5.529820
12377 13 1 74.150957 -15.367392 6.218971
12378 13 1 73.380714 -15.005790 6.744299
12379 13 1 73.608554 -15.009829 7.717989
12380 13 1 74.185675 -14.798174 6.929235
12381 13 1 73.863525 -14.149869 6.239365
12382 13 1 74.810279 -13.978543 6.511951
12383 13 1 74.403608 -13.542417 7.314704
12384 13 1 73.755408 -12.837808 7.603429
12385 13 1 72.935001 -12.442980 7.189854
12386 13 1 72.735494 -11.666633 6.591955
12387 13 1 73.346466 -10.944398 6.916132
12388 13 1 72.663570 -10.784987 6.203222
12389 13 1 72.010583 -10.478104 6.895632
12390 13 1 72.665651 -10.699038 7.618180
12391 13 1 73.529829 -10.743557 8.119393
12392 13 1 73.145799 -10.571132 9.026471
12393 13 1 72.782816 -11.096461 9.796064
12394 13 1 72.362264 -10.210201 9.601949
12395 13 1 72.370624 -9.743558 8.717543
12396 13 1 73.177382 -9.450771 9.230785
12397 13 1 73.341997 -9.660477 8.266977
12398 13 1 74.270254 -9.435668 7.970668
12399 13 1 74.689186 -9.615825 8.860635
12400 13 1 75.426802 -10.170875 8.476132
12401 13 1 75.550598 -10.624198 9.358840
12402 13 1 75.160313 -11.205319 8.644715
12403 13 1 74.342651 -10.702629 8.925307
12404 13 1 74.320421 -10.073423 9.702228
12405 13 1 74.839836 -9.582855 10.401908
12406 13 1 75.808645 -9.358633 10.507416
12407 13 1 76.475721 -9.036206 11.179019
12408 13 1 76.222676 -9.976913 11.404936
12409 13 1 76.899412 -9.882985 12.135145
12410 13 1 76.024945 -9.527933 12.465669
12411 13 1 75.583725 -10.249134 12.999705
12412 13 1 74.889692 -10.680482 12.423288
12413 13 1 75.185462 -11.127529 13.267486
12414 13 1 75.034584 -12.103553 13.110598
12415 13 1 74.666801 -13.015828 12.930350
12416 13 1 74.932594 -13.596180 12.160581
12417 13 1 75.733875 -13.729849 12.743746
12418 13 1 75.535579 -12.749795 12.730583
12419 13 1 75.336134 -12.694433 13.708926
12420 13 1 74.827524 -13.552397 13.781136
12421 13 1 74.420754 -14.356882 13.348304
12422 13 1 74.192859 -15.143617 13.921987
12423 13 1 75.177233 -15.240558 14.068993
12424 13 1 75.662388 -14.374485 13.948401
12425 13 1 75.635585 -13.670319 14.657931
12426 13 1 76.545980 -13.428072 14.993337
12427 13 1 77.227193 -13.064726 14.357784
12428 13 1 77.837763 -13.852653 14.437633
12429 13 1 76.863925 -14.067618 14.363941
12430 13 1 76.746859 -14.227531 15.344106
12431 13 1 77.319841 -14.990073 15.644475
12432 13 1 76.444578 -14.989746 15.160829
12433 13 1 76.063003 -15.906172 15.040144
12434 13 1 76.698712 -15.372714 14.482204
12435 13 1 76.302599 -15.229294 13.575272
12436 13 1 75.950052 -15.082382 14.499462
12437 13 1 75.704099 -15.980943 14.136011
12438 13 1 75.041981 -16.730338 14.133608
12439 13 1 74.670795 -16.671958 15.060330
12440 13 1 74.037622 -17.278246 14.579177
12441 13 1 73.403462 -17.999476 14.857868
12442 13 1 73.942092 -18.826485 15.018905
12443 13 1 73.096417 -18.576471 15.490421
12444 13 1 73.028685 -18.740991 16.474467
12445 13 1 74.000430 -18.806546 16.701216
12446 13 1 74.648587 -18.227037 16.207190
12447 13 1 74.087748 -17.701880 16.847245
12448 13 1 74.370887 -17.068170 16.127353
12449 13 1 73.462395 -17.481726 16.187468
12450 13 1 72.800561 -17.672677 15.462545
12451 13 1 73.242361 -17.093949 14.777063
12452 13 1 73.055477 -16.812132 13.835971
12453 13 1 72.892453 -15.839505 14.001559
12454 13 1 73.679382 -15.637745 14.584684
12455 13 1 72.801189 -15.216397 14.811055
12456 13 1 73.423064 -14.937490 15.542822
12457 13 1 74.407464 -14.774083 15.608051
12458 13 1 74.544326 -15.106161 14.674781
12459 13 1 75.159511 -15.104960 15.463163
12460 13 1 75.612749 -14.603046 16.199817
12461 13 1 76.080166 -15.153601 16.891489
12462 13 1 75.917439 -15.634384 16.029882
12463 13 1 75.750063 -16.543945 16.410256
12464 13 1 75.740627 -15.995582 17.246443
12465 13 1 76.285466 -16.143076 18.071909
12466 13 1 77.097138 -16.040932 17.496795
12467 13 1 78.030816 -15.739760 17.303045
12468 13 1 77.252589 -15.113719 17.352403
12469 13 1 76.675404 -14.340356 17.614635
12470 13 1 75.723482 -14.640773 17.674591
12471 13 1 76.170990 -14.473316 18.553052
12472 13 1 77.105682 -14.828570 18.565070
12473 13 1 76.646946 -15.342185 17.839977
12474 13 1 76.438113 -15.331537 18.817870
12475 13 1 76.646195 -15.855907 19.643544
12476 13 1 75.745567 -15.495655 19.400465
12477 13 1 76.287522 -15.023658 20.095808
12478 13 1 76.626665 -14.385526 19.404599
12479 13 1 77.427850 -13.990446 18.955137
12480 13 1 77.004197 -13.184149 19.367936
12481 13 1 77.877027 -13.104195 19.849366
12482 13 1 77.987303 -13.757595 20.598304
12483 13 1 77.989174 -14.190885 21.499557
12484 13 1 77.220028 -13.562308 21.384207
12485 13 1 77.288204 -13.091266 22.263679
12486 13 1 77.418203 -13.849523 22.902544
12487 13 1 77.228629 -14.036807 23.866383
12488 13 1 76.415424 -13.458634 23.932817
12489 13 1 76.265816 -13.982255 23.094105
12490 13 1 76.114928 -12.994808 23.047410
12491 13 1 75.375947 -12.359752 23.272380
12492 13 1 75.882967 -11.519363 23.080869
12493 13 1 75.462779 -10.613319 23.131129
12494 13 1 74.724599 -10.118176 22.672953
12495 13 1 74.219631 -10.954468 22.886549
12496 13 1 74.025911 -11.495267 22.068009
12497 13 1 73.684093 -10.559149 21.985283
12498 13 1 74.028463 -11.088779 21.210104
12499 13 1 73.147576 -11.503991 21.437339
12500 13 1 73.213646 -11.110032 22.354089
12501 13 1 72.870533 -12.048380 22.311943
12502 13 1 73.087324 -12.698698 21.583872
12503 13 1 72.538975 -13.435226 21.187840
12504 13 1 72.787483 -13.871618 22.052598
12505 13 1 71.930492 -13.403385 22.267829
12506 13 1 71.172445 -13.241351 21.636077
12507 13 1 70.845461 -12.496183 21.054866
12508 13 1 71.505065 -12.236681 21.760261
12509 13 1 70.680460 -12.558294 22.225654
12510 13 1 69.990415 -12.873642 21.574199
12511 13 1 70.389715 -13.775060 21.406849
12512 13 1 70.956801 -14.594711 21.487995
12513 13 1 71.833838 -14.746113 21.943937
12514 13 1 71.649952 -15.442651 21.250380
12515 13 1 71.199071 -16.210781 21.705004
12516 13 1 71.701746 -17.002168 22.052890
12517 13 1 72.216613 -17.316788 22.850340
12518 13 1 71.537697 -17.867661 23.335739
12519 13 1 71.082319 -17.635810 24.195318
12520 13 1 70.110115 -17.844690 24.301091
12521 13 1 70.026746 -18.820547 24.099218
12522 13 1 69.394607 -19.528423 23.784080
12523 13 1 68.448311 -19.781514 23.582910
12524 13 1 68.104571 -20.623871 23.167847
12525 13 1 69.050561 -20.945187 23.124730
12526 13 1 68.635911 -20.149618 22.682988
12527 13 1 68.864112 -20.924726 22.093808
12528 13 1 69.025561 -19.992110 21.771067
12529 13 1 68.662081 -19.539818 20.956625
12530 13 1 68.120126 -19.986601 20.244818
12531 13 1 68.246250 -18.994611 20.251766
12532 13 1 67.547987 -18.463279 19.772064
12533 13 1 66.867543 -19.133896 20.067477
12534 13 1 66.184081 -18.405217 20.111129
12535 13 1 65.865762 -19.259768 20.521512
12536 13 1 65.604206 -20.104548 20.054676
12537 13 1 65.326274 -20.820323 19.414035
12538 13 1 65.125355 -21.489304 20.129644
12539 13 1 64.707063 -22.380217 20.306578
12540 13 1 64.773469 -21.870390 21.164289
12541 13 1 64.293050 -21.085114 20.773727
12542 13 1 63.712787 -21.075916 19.959350
12543 13 1 64.406074 -20.501164 19.524593
12544 13 1 64.599473 -20.502851 18.543474
12545 13 1 64.390704 -19.676381 18.020634
12546 13 1 64.201635 -19.966871 17.082621
12547 13 1 63.721353 -20.670333 16.558723
12548 13 1 63.194967 -21.428726 16.943116
12549 13 1 63.472565 -22.121296 16.277319
12550 13 1 62.990593 -21.969489 15.414383
12551 13 1 63.168434 -21.409416 14.605254
12552 13 1 63.120965 -22.312904 14.179278
12553 13 1 62.268518 -22.802729 13.996508
12554 13 1 62.518268 -22.586504 13.052649
12555 13 1 63.221422 -22.704994 12.351553
12556 13 1 63.937800 -23.001270 11.719870
12557 13 1 63.038833 -22.631412 11.485214
12558 13 1 63.925965 -22.185267 11.603330
12559 13 1 64.381232 -21.757522 12.384205
12560 13 1 64.224539 -22.681450 12.733209
12561 13 1 64.152773 -23.451998 13.366537
12562 13 1 63.459721 -24.156350 13.213020
12563 13 1 62.989904 -24.744555 12.554775
12564 13 1 62.585240 -24.959389 11.665903
12565 13 1 62.486899 -24.620314 10.730298
12566 13 1 61.938957 -23.821353 10.978130
12567 13 1 61.540435 -24.482377 11.613919
12568 13 1 61.159011 -23.987211 10.833325
12569 13 1 61.288401 -23.514770 11.705138
12570 13 1 60.799223 -22.743702 12.112764
12571 13 1 60.148698 -22.808606 11.356057
12572 13 1 59.495184 -22.800358 12.112926
12573 13 1 58.671039 -22.738765 11.549906
12574 13 1 58.595793 -23.676063 11.890216
12575 13 1 58.814117 -23.319706 10.981731
12576 13 1 59.621564 -23.903647 10.897816
12577 13 1 59.483440 -24.120976 9.931540
12578 13 1 60.239286 -23.593565 10.319527
12579 13 1 60.370268 -23.798156 11.289572
12580 13 1 60.534837 -23.537840 12.240967
12581 13 1 61.232673 -23.666294 12.945611
12582 13 1 62.134628 -24.026396 12.707275
12583 13 1 62.353629 -24.847080 13.235021
12584 13 1 62.108638 -25.504382 13.947717
12585 13 1 62.719987 -25.994332 13.326266
12586 13 1 62.590014 -26.913649 13.697700
12587 13 1 62.637620 -26.133022 14.320882
12588 13 1 63.025407 -26.650013 15.083995
12589 13 1 63.803368 -26.415346 14.501151
12590 13 1 64.738493 -26.706203 14.703499
12591 13 1 64.423543 -27.133816 13.856177
12592 13 1 64.895225 -27.977268 14.113287
12593 13 1 65.068571 -28.020947 13.129395
12594 13 1 64.878855 -28.755211 12.477579
12595 13 1 65.423199 -28.135630 11.912062
12596 13 1 66.393546 -27.902346 11.975349
12597 13 1 66.710549 -28.844364 12.085399
12598 13 1 66.507299 -29.753046 12.450072
12599 13 1 66.592985 -30.571381 11.881753
12600 13 1 66.904651 -30.565444 10.931580
12601 13 1 67.767134 -30.135678 10.664327
12602 13 1 68.303358 -30.300577 11.492139
12603 13 1 67.996010 -31.113098 11.987464
12604 13 1 67.180891 -31.424683 12.475825
12605 13 1 67.507213 -32.353393 12.299723
12606 13 1 66.632887 -32.529417 11.847430
12607 13 1 67.465429 -32.086041 11.515327
12608 13 1 67.820236 -33.000292 11.710922
12609 13 1 68.586335 -32.358971 11.668513
12610 13 1 68.947958 -32.018794 10.800464
12611 13 1 69.789737 -31.635317 10.420527
12612 13 1 70.406634 -31.852296 9.663984
12613 13 1 70.245224 -32.819785 9.858696
12614 13 1 69.304426 -32.527529 10.030408
12615 13 1 68.368263 -32.858804 10.148122
12616 13 1 67.451314 -32.504487 10.331599
12617 13 1 67.676768 -32.456070 9.358549
12618 13 1 66.709594 -32.396461 9.111524
12619 13 1 67.235584 -33.246728 9.092009
12620 13 1 67.134902 -33.624255 8.171501
12621 13 1 67.683986 -34.451528 8.290358
12622 13 1 67.879316 -33.798898 7.558292
12623 13 1 68.525765 -33.148238 7.159863
12624 13 1 68.558551 -32.831639 8.107856
12625 13 1 69.319906 -33.421500 8.376932
12626 13 1 68.570865 -33.592337 9.017050
12627 13 1 68.618221 -34.047734 9.906078
12628 13 1 68.881923 -33.653923 10.786631
12629 13 1 69.781134 -33.839055 10.390214
12630 13 1 70.165582 -34.278762 11.201914
12631 13 1 69.531712 -33.968693 11.910479
12632 13 1 69.276389 -33.002100 11.887940
12633 13 1 69.939046 -33.081833 12.632606
12634 13 1 69.383970 -33.286622 13.438802
12635 13 1 70.186890 -33.007401 13.965447
12636 13 1 70.462352 -33.829125 14.464335
12637 13 1 69.850643 -34.610864 14.343105
12638 13 1 70.583715 -35.107084 13.877948
12639 13 1 69.811443 -35.460305 14.405991
12640 13 1 69.701659 -35.429693 13.412507
12641 13 1 68.924774 -36.053092 13.324063
12642 13 1 68.582560 -35.817791 14.233746
12643 13 1 68.609788 -36.809591 14.108885
12644 13 1 69.572135 -37.080612 14.129745
12645 13 1 69.649398 -37.916905 14.672557
12646 13 1 70.037155 -38.393393 13.883505
12647 13 1 70.922844 -38.576964 13.457057
12648 13 1 71.690849 -37.939312 13.516790
12649 13 1 71.249889 -37.051185 13.646344
12650 13 1 71.164044 -37.866113 14.219512
12651 13 1 71.066588 -37.137820 14.897813
12652 13 1 70.426819 -36.982764 14.145049
12653 13 1 69.753745 -36.503930 14.708688
12654 13 1 70.449702 -36.158660 15.338317
12655 13 1 70.470923 -35.188664 15.096123
12656 13 1 69.937691 -34.387670 15.368286
12657 13 1 69.723946 -35.009758 16.121492
12658 13 1 69.438391 -35.000776 17.079813
12659 13 1 68.678106 -34.781529 17.691284
12660 13 1 69.107518 -35.649567 17.940514
12661 13 1 68.243767 -36.111417 18.142080
12662 13 1 68.554096 -36.871024 17.570510
12663 13 1 68.040868 -37.667887 17.889266
12664 13 1 67.049030 -37.630801 18.011261
12665 13 1 66.829867 -36.697280 18.294996
12666 13 1 66.828024 -35.699460 18.229036
12667 13 1 67.154401 -35.387700 17.336688
12668 13 1 67.809014 -34.636413 17.252730
12669 13 1 66.839237 -34.631815 17.496680
12670 13 1 66.273821 -34.334219 16.727433
12671 13 1 65.744422 -33.643816 16.234401
12672 13 1 65.219070 -33.767578 15.392565
12673 13 1 65.382567 -34.475871 16.079289
12674 13 1 64.445052 -34.311147 16.385771
12675 13 1 64.144489 -33.594608 17.015242
12676 13 1 63.208563 -33.748315 17.332126
12677 13 1 63.230363 -32.775875 17.099994
12678 13 1 62.658751 -32.654132 16.288552
12679 13 1 62.816517 -32.229114 15.397222
12680 13 1 62.450662 -31.340098 15.121903
12681 13 1 63.309589 -31.433874 14.618464
12682 13 1 64.240113 -31.113367 14.441264
12683 13 1 65.061333 -31.066894 15.009980
12684 13 1 66.010239 -30.870019 14.763369
12685 13 1 65.318905 -30.163986 14.609828
12686 13 1 64.638388 -30.065723 13.883714
12687 13 1 63.861525 -30.073124 14.513339
12688 13 1 62.910939 -30.154626 14.213767
12689 13 1 63.448033 -30.873078 13.771775
12690 13 1 63.443904 -29.953891 13.377975
12691 13 1 63.169827 -29.300262 12.672531
12692 13 1 62.996176 -28.511298 12.083141
12693 13 1 62.902139 -28.610936 13.073711
12694 13 1 63.023411 -29.017520 13.979240
12695 13 1 63.313932 -28.109657 13.676945
12696 13 1 63.628591 -27.383292 13.065894
12697 13 1 63.747321 -28.321364 12.740434
12698 13 1 64.460970 -28.598755 13.383675
12699 13 1 65.372532 -28.930557 13.626500
12700 13 1 65.711198 -28.285060 14.311072
12701 13 1 66.422373 -28.884165 13.943236
12702 13 1 66.371788 -29.882061 13.902683
12703 13 1 66.486655 -29.452421 14.798348
12704 13 1 67.332368 -29.646443 15.295464
12705 13 1 67.417448 -29.035732 16.082734
12706 13 1 67.184015 -28.758730 15.150650
12707 13 1 66.596042 -28.008451 15.452923
12708 13 1 67.182234 -27.201496 15.525046
12709 13 1 68.128661 -27.518207 15.462026
12710 13 1 68.938886 -27.016383 15.159192
12711 13 1 69.550088 -26.483931 14.573592
12712 13 1 70.314022 -26.269087 13.965112
12713 13 1 71.087609 -26.246483 14.598399
12714 13 1 71.737482 -26.414307 15.339682
12715 13 1 71.105080 -25.902527 15.921188
12716 13 1 71.924259 -25.343145 15.794550
12717 13 1 71.321657 -25.151010 16.569117
12718 13 1 71.973149 -25.844901 16.875828
12719 13 1 71.989875 -26.843579 16.827220
12720 13 1 71.123741 -26.407110 16.583688
12721 13 1 71.612969 -26.305331 17.449885
12722 13 1 70.613330 -26.288084 17.429302
12723 13 1 71.150913 -25.587442 17.898456
12724 13 1 71.013418 -26.069940 18.763494
12725 13 1 70.161248 -26.310430 18.298766
12726 13 1 70.302181 -25.515514 17.708642
12727 13 1 69.432855 -26.007135 17.657839
12728 13 1 69.559781 -25.045753 17.413636
12729 13 1 69.831596 -25.113181 16.453651
12730 13 1 69.974690 -24.566137 15.628868
12731 13 1 69.395675 -25.196893 15.112256
12732 13 1 69.422158 -24.212451 14.938554
12733 13 1 69.912776 -23.754895 14.196977
12734 13 1 69.022214 -23.303307 14.142508
12735 13 1 68.396230 -23.703923 14.811576
12736 13 1 69.021070 -23.123300 15.333546
12737 13 1 69.404399 -22.233624 15.085481
12738 13 1 69.881834 -21.588464 14.488972
12739 13 1 69.531786 -20.658202 14.379063
12740 13 1 68.695620 -20.118101 14.474543
12741 13 1 68.758490 -19.232666 14.935035
12742 13 1 69.432268 -19.029178 15.645398
12743 13 1 69.308603 -18.541085 16.509384
12744 13 1 69.298954 -17.708993 17.063939
12745 13 1 68.410214 -18.155495 17.167754
12746 13 1 68.254376 -18.892654 16.510250
12747 13 1 67.284966 -19.127414 16.581893
12748 13 1 66.873416 -20.029954 16.455217
12749 13 1 67.660135 -20.378823 15.945940
12750 13 1 67.610587 -21.325078 15.626337
12751 13 1 67.951554 -20.666391 14.955611
12752 13 1 68.941467 -20.789957 15.024925
12753 13 1 68.561525 -21.192581 15.857715
12754 13 1 68.563227 -20.928789 16.822293
12755 13 1 67.823952 -21.591997 16.939027
12756 13 1 66.995037 -22.134830 17.074054
12757 13 1 67.042165 -21.159933 16.856445
12758 13 1 66.246364 -20.555288 16.889672
12759 13 1 65.270544 -20.390196 17.032923
12760 13 1 64.553497 -20.585232 16.363741
12761 13 1 64.283156 -21.124899 17.161033
12762 13 1 64.463240 -22.051907 17.490010
12763 13 1 65.409169 -21.743337 17.389996
12764 13 1 65.444867 -21.019575 18.079121
12765 13 1 66.176292 -20.374233 18.299466
12766 13 1 66.038174 -19.384434 18.334400
12767 13 1 65.841146 -19.540916 19.302229
12768 13 1 65.940869 -18.701592 18.767821
12769 13 1 65.510800 -18.857524 17.878594
12770 13 1 65.936938 -19.717186 17.596837
12771 13 1 66.870912 -19.514621 17.891216
12772 13 1 67.627012 -19.269967 18.498223
12773 13 1 68.366488 -18.690780 18.155123
12774 13 1 67.381664 -18.572886 18.027760
12775 13 1 67.451895 -18.027575 18.863047
12776 13 1 66.543756 -18.125401 18.455967
12777 13 1 65.986452 -17.738107 17.721518
12778 13 1 66.953986 -17.814013 17.480445
12779 13 1 66.118838 -18.044192 16.980898
12780 13 1 66.480128 -18.764504 17.573030
12781 13 1 66.202974 -19.394536 16.847603
12782 13 1 66.110464 -19.884601 15.980840
12783 13 1 66.913170 -19.470904 15.551285
12784 13 1 67.017074 -20.404285 15.207769
12785 13 1 66.392072 -19.811535 14.699812
12786 13 1 67.291222 -19.614914 14.308827
12787 13 1 67.724325 -19.411329 13.430775
12788 13 1 68.040184 -20.209628 13.943562
12789 13 1 68.926172 -20.646184 13.787213
12790 13 1 69.094518 -21.075716 12.899992
12791 13 1 68.822594 -20.830699 11.969387
12792 13 1 68.864297 -21.267562 11.070827
12793 13 1 68.013790 -21.793222 11.088724
12794 13 1 67.347978 -21.175750 10.669887
12795 13 1 67.279646 -21.510128 9.729928
12796 13 1 68.004282 -21.171291 9.129851
12797 13 1 67.985492 -20.404020 8.488804
12798 13 1 67.257618 -21.085843 8.415891
12799 13 1 67.538119 -20.358007 7.790133
12800 13 1 66.822719 -19.948337 7.224119
12801 13 1 67.174005 -19.027897 7.395552
12802 13 1 66.880846 -19.223319 6.459674
12803 13 1 66.894474 -18.224368 6.415956
12804 13 1 66.951203 -17.643849 5.603689
12805 13 1 67.349217 -18.375412 5.050154
12806 13 1 68.272533 -18.749844 5.135521
12807 13 1 68.870248 -17.967243 4.961528
12808 13 1 67.928035 -17.822720 5.263766
12809 13 1 68.175216 -17.781415 4.295677
12810 13 1 68.161475 -17.127280 3.539424
12811 13 1 69.135366 -17.150617 3.313613
12812 13 1 68.985841 -17.956781 2.741126
12813 13 1 69.051421 -18.863544 2.324617
12814 13 1 69.741375 -18.154503 2.470299
12815 13 1 69.012360 -18.262074 1.794307
12816 13 1 68.081509 -17.945360 1.612076
12817 13 1 67.270671 -17.719394 2.151965
12818 13 1 67.442977 -16.760211 2.376194
12819 13 1 67.671755 -15.826062 2.102285
12820 13 1 68.346819 -16.357415 2.614097
12821 13 1 68.814792 -17.107315 2.146495
12822 13 1 68.655691 -16.528395 1.346783
12823 13 1 68.055517 -16.766246 0.583096
12824 13 1 67.104148 -16.845814 0.880696
12825 13 1 66.720645 -15.940532 0.697966
12826 13 1 66.024630 -15.653075 0.039991
12827 13 1 66.272897 -14.905495 0.656016
12828 13 1 65.700771 -14.409482 0.002837
12829 13 1 66.663593 -14.670628 -0.066281
12830 13 1 66.970154 -13.927369 0.528351
12831 13 1 67.426423 -13.805280 1.409778
12832 13 1 66.850560 -13.883195 2.223602
12833 13 1 66.924536 -13.408037 3.100388
12834 13 1 67.118259 -12.699504 2.421821
12835 13 1 67.608371 -12.148741 1.746211
12836 13 1 68.364776 -12.650018 1.326006
12837 13 1 67.487413 -12.633405 0.846468
12838 13 1 66.589081 -12.462971 0.441556
12839 13 1 66.140122 -12.567167 1.329013
12840 13 1 66.172765 -13.556322 1.185806
12841 13 1 66.018569 -13.580447 2.173552
12842 13 1 65.592955 -14.138762 2.885687
12843 13 1 65.006176 -13.750703 2.174983
12844 13 1 65.050717 -13.032194 1.480893
12845 13 1 65.531160 -13.190747 0.618319
12846 13 1 64.779314 -13.688163 0.185532
12847 13 1 65.134116 -13.784070 1.115541
12848 13 1 64.147726 -13.902422 1.229676
12849 13 1 63.924285 -14.510901 0.468212
12850 13 1 63.210225 -13.810833 0.463518
12851 13 1 62.356491 -13.349640 0.221775
12852 13 1 61.472126 -12.907664 0.071591
12853 13 1 61.340070 -12.408252 0.927832
12854 13 1 60.479738 -12.649336 1.376950
12855 13 1 61.112548 -13.240427 0.876787
12856 13 1 60.309837 -13.836580 0.860766
12857 13 1 60.570409 -13.481770 1.758659
12858 13 1 59.723472 -14.005791 1.668659
12859 13 1 59.196474 -14.120868 0.826620
12860 13 1 58.867150 -14.704574 0.084439
12861 13 1 59.587560 -14.189992 -0.380548
12862 13 1 59.645174 -14.015445 -1.363510
12863 13 1 58.845621 -13.947174 -1.960212
12864 13 1 59.128627 -13.264113 -2.633515
12865 13 1 59.964119 -12.719059 -2.703288
12866 13 1 60.637194 -13.303890 -3.155993
12867 13 1 61.133707 -12.653238 -3.730559
12868 13 1 60.435740 -12.357192 -4.382632
12869 13 1 60.458274 -13.305000 -4.064587
12870 13 1 59.699771 -13.352631 -4.714512
12871 13 1 59.780362 -13.976709 -3.937318
12872 13 1 59.217140 -14.053450 -3.114583
12873 13 1 59.634578 -14.656485 -2.434808
12874 13 1 60.027045 -15.553400 -2.231059
12875 13 1 59.171309 -15.814164 -2.677958
12876 13 1 58.632963 -15.222573 -3.278127
12877 13 1 58.545989 -14.424939 -3.874965
12878 13 1 58.183802 -14.646461 -4.780365
12879 13 1 58.741395 -14.151045 -5.446438
12880 13 1 58.623833 -14.705382 -6.270385
12881 13 1 58.427472 -15.403841 -6.958569
12882 13 1 57.893375 -15.996628 -6.355788
12883 13 1 58.723259 -16.524683 -6.535929
12884 13 1 58.217492 -16.842458 -5.733920
12885 13 1 58.398854 -17.815727 -5.593010
12886 13 1 58.377892 -18.734750 -5.986656
12887 13 1 59.138326 -18.092281 -6.081387
12888 13 1 58.575056 -18.495945 -6.802346
12889 13 1 58.061972 -17.665448 -6.585510
12890 13 1 58.088157 -16.916387 -7.247493
12891 13 1 57.139340 -17.098394 -6.989385
12892 13 1 56.565774 -16.711863 -6.267155
12893 13 1 56.267459 -17.137010 -7.121707
12894 13 1 56.503659 -17.863781 -6.476715
12895 13 1 55.866102 -17.148404 -6.190785
12896 13 1 55.914610 -17.511802 -5.260415
12897 13 1 55.110596 -17.977829 -5.629713
12898 13 1 55.813324 -18.621088 -5.325752
12899 13 1 54.941032 -18.849544 -4.893416
12900 13 1 54.003085 -19.009123 -5.201298
12901 13 1 54.327517 -19.039076 -6.146732
12902 13 1 53.367224 -19.037711 -6.425725
12903 13 1 52.579936 -19.021577 -7.042099
12904 13 1 51.749085 -19.219796 -6.522104
12905 13 1 51.877545 -18.415804 -7.102703
12906 13 1 51.314464 -18.646689 -7.896197
12907 13 1 51.469029 -17.716070 -8.227947
12908 13 1 50.655341 -17.456169 -8.747912
12909 13 1 50.311272 -16.923742 -7.974519
12910 13 1 49.621272 -17.647107 -7.999867
12911 13 1 49.662928 -17.931280 -8.957735
12912 13 1 49.356298 -17.024401 -8.668686
12913 13 1 48.655843 -16.948732 -9.378360
12914 13 1 48.515011 -17.333824 -10.290429
12915 13 1 48.476317 -16.463515 -10.781414
12916 13 1 49.249145 -15.904537 -11.081881
12917 13 1 48.918918 -14.968100 -11.200355
12918 13 1 49.573313 -14.275044 -10.897965
12919 13 1 48.668540 -14.272109 -10.472081
12920 13 1 48.576334 -13.677405 -11.270720
12921 13 1 48.319864 -13.381693 -12.190925
12922 13 1 49.286252 -13.495500 -12.421450
12923 13 1 49.044085 -14.433925 -12.667849
12924 13 1 49.046028 -14.637688 -13.646867
12925 13 1 49.390976 -15.533063 -13.365241
12926 13 1 49.479197 -15.690401 -14.348837
12927 13 1 50.374255 -15.324576 -14.603872
12928 13 1 50.345501 -16.261947 -14.951015
12929 13 1 49.466863 -16.556286 -15.326992
12930 13 1 50.204481 -16.504075 -16.000188
12931 13 1 50.555557 -15.580701 -16.155511
12932 13 1 51.444847 -15.216894 -15.878366
12933 13 1 52.423164 -15.077249 -16.031318
12934 13 1 53.221534 -14.755752 -15.522155
12935 13 1 53.217281 -14.848834 -16.517805
12936 13 1 52.937058 -14.464194 -17.397308
12937 13 1 52.855283 -15.446708 -17.564581
12938 13 1 53.696045 -14.935880 -17.385208
12939 13 1 54.028631 -14.129696 -16.895868
12940 13 1 53.659190 -13.410702 -17.484563
12941 13 1 52.742711 -13.286432 -17.864855
12942 13 1 52.239563 -12.641688 -17.289401
12943 13 1 52.880757 -12.851736 -16.551329
12944 13 1 53.250992 -12.007006 -16.164863
12945 13 1 54.129235 -11.774044 -15.747230
12946 13 1 54.262219 -12.483540 -15.055181
12947 13 1 54.458546 -13.132743 -15.790022
12948 13 1 54.618850 -12.474703 -16.525743
12949 13 1 54.703700 -13.467432 -16.611123
12950 13 1 55.484048 -13.562456 -17.229207
12951 13 1 55.304873 -14.159636 -16.447368
12952 13 1 55.172586 -14.884754 -15.771569
12953 13 1 55.665243 -14.669565 -14.928370
12954 13 1 55.402781 -13.754165 -14.623152
12955 13 1 55.326223 -12.829158 -14.250995
12956 13 1 55.322843 -12.670630 -13.263647
12957 13 1 54.532981 -12.134189 -12.966410
12958 13 1 54.174691 -13.067748 -12.956560
12959 13 1 54.993597 -13.293346 -12.428831
12960 13 1 54.988742 -14.110071 -11.851824
12961 13 1 55.094707 -15.072034 -12.103613
12962 13 1 54.162312 -14.906649 -12.424995
12963 13 1 53.560129 -14.125324 -12.260963
12964 13 1 53.839520 -14.773750 -11.552808
12965 13 1 52.875500 -14.513035 -11.604710
12966 13 1 52.957369 -15.508140 -11.660075
12967 13 1 52.405021 -15.592810 -10.830772
12968 13 1 52.995590 -15.053211 -10.230720
12969 13 1 52.348278 -15.046197 -9.468527
12970 13 1 51.422104 -14.669655 -9.488999
12971 13 1 52.027785 -14.056897 -8.981378
12972 13 1 52.816947 -13.859944 -9.563128
12973 13 1 53.613492 -14.161755 -9.039271
12974 13 1 54.032232 -13.978530 -8.149840
12975 13 1 54.234602 -14.240173 -7.206130
12976 13 1 55.059228 -13.758699 -7.503071
12977 13 1 54.934286 -12.835568 -7.866689
12978 13 1 54.839352 -12.164292 -8.601793
12979 13 1 55.723788 -11.825144 -8.281242
12980 13 1 54.938562 -11.734548 -7.668696
12981 13 1 54.390890 -11.071169 -7.158810
12982 13 1 55.273630 -10.783592 -6.787232
12983 13 1 55.904436 -10.702410 -6.015550
12984 13 1 55.425562 -9.883088 -6.330815
12985 13 1 56.023482 -9.840360 -7.131232
12986 13 1 56.489585 -9.243776 -7.784558
12987 13 1 56.577656 -8.272834 -7.562038
12988 13 1 55.657856 -8.619282 -7.377805
12989 13 1 54.933658 -8.171390 -6.853467
12990 13 1 55.533140 -8.061398 -6.060672
12991 13 1 56.264206 -8.240973 -5.402421
12992 13 1 56.725253 -8.341282 -6.284109
12993 13 1 57.052317 -9.284280 -6.222606
12994 13 1 57.396236 -8.448980 -5.793663
12995 13 1 57.800931 -8.006064 -4.993633
12996 13 1 58.790665 -7.931810 -4.871513
12997 13 1 58.513342 -7.047373 -5.246829
12998 13 1 59.042515 -7.036895 -4.398380
12999 13 1 58.480334 -6.300779 -4.021438
13000 13 1 58.144320 -5.381000 -3.818702
13001 14 1 73.612887 -6.781515 26.419743
13002 14 1 73.849528 -7.713792 26.693349
13003 14 1 74.839808 -7.597768 26.770051
13004 14 1 74.654957 -7.644682 27.751697
13005 14 1 75.589563 -7.926824 27.968276
13006 14 1 75.699161 -8.478606 27.141520
13007 14 1 75.602476 -8.381592 26.150944
13008 14 1 76.180981 -9.169690 26.361260
13009 14 1 76.813844 -8.395740 26.383286
13010 14 1 76.596902 -7.998335 25.491655
13011 14 1 76.373333 -8.972996 25.499045
13012 14 1 76.305725 -9.487778 24.644394
13013 14 1 77.301813 -9.469175 24.730776
13014 14 1 78.247581 -9.752671 24.889371
13015 14 1 78.651250 -9.335586 25.703676
13016 14 1 79.358359 -10.034603 25.810318
13017 14 1 79.510786 -11.021949 25.766584
13018 14 1 78.929795 -11.834367 25.717324
13019 14 1 78.887891 -12.391899 26.546421
13020 14 1 79.863894 -12.487515 26.350780
13021 14 1 79.452140 -13.189133 26.932321
13022 14 1 79.462492 -13.416284 25.958517
13023 14 1 80.371027 -13.812886 26.089936
13024 14 1 79.837519 -14.457144 26.637932
13025 14 1 79.930777 -13.788992 27.376089
13026 14 1 80.190081 -14.382648 28.137885
13027 14 1 80.731597 -13.565289 28.334568
13028 14 1 80.134974 -12.823859 28.027451
13029 14 1 80.477102 -11.966217 27.643526
13030 14 1 80.366961 -11.076906 28.087368
13031 14 1 81.061881 -10.655610 27.504619
13032 14 1 81.684768 -11.437592 27.527345
13033 14 1 82.531144 -10.912170 27.614408
13034 14 1 83.381151 -10.730927 27.119799
13035 14 1 84.220331 -10.197619 27.013216
13036 14 1 84.778577 -9.821226 26.273831
13037 14 1 85.600352 -9.255619 26.204739
13038 14 1 85.040835 -9.276513 25.376183
13039 14 1 85.953132 -9.034085 25.046120
13040 14 1 86.829894 -9.139799 25.515281
13041 14 1 86.370626 -8.259173 25.398787
13042 14 1 86.445254 -7.977361 24.442224
13043 14 1 87.251117 -7.458628 24.727706
13044 14 1 87.542945 -6.502803 24.692565
13045 14 1 86.631013 -6.492929 24.282343
13046 14 1 86.941605 -6.478434 23.331910
13047 14 1 87.485382 -7.255568 23.648723
13048 14 1 86.521035 -7.465061 23.810426
13049 14 1 85.726766 -7.701217 23.250633
13050 14 1 86.079183 -8.595046 22.973376
13051 14 1 85.327027 -8.644622 22.316259
13052 14 1 85.070515 -7.681568 22.234230
13053 14 1 85.681078 -7.408863 21.490694
13054 14 1 86.620070 -7.499724 21.158974
13055 14 1 87.173803 -7.184252 20.388353
13056 14 1 86.281998 -6.839751 20.095090
13057 14 1 85.946095 -7.349100 19.302794
13058 14 1 85.305480 -7.417120 18.537951
13059 14 1 84.323434 -7.290224 18.677536
13060 14 1 83.540197 -7.276755 18.055958
13061 14 1 83.026282 -7.933842 18.607436
13062 14 1 82.944571 -7.905779 19.603697
13063 14 1 82.198436 -7.382262 19.192343
13064 14 1 81.383254 -7.057068 19.671642
13065 14 1 81.278064 -7.594620 20.508286
13066 14 1 81.918175 -6.829172 20.442352
13067 14 1 82.784196 -6.617756 20.895466
13068 14 1 82.991908 -6.367596 21.841127
13069 14 1 82.111160 -6.127856 21.432706
13070 14 1 82.513317 -5.446066 20.821614
13071 14 1 82.711855 -6.195156 20.189596
13072 14 1 82.085613 -6.607503 19.527939
13073 14 1 83.018613 -6.572155 19.169803
13074 14 1 82.835033 -5.592446 19.089376
13075 14 1 82.845726 -4.623908 18.840738
13076 14 1 81.995454 -4.430888 19.330413
13077 14 1 81.350120 -4.730138 18.627567
13078 14 1 81.154707 -3.774985 18.405086
13079 14 1 80.700222 -2.884511 18.382750
13080 14 1 80.335654 -1.954868 18.436176
13081 14 1 81.209324 -2.103131 18.899554
13082 14 1 81.012574 -2.028972 19.877199
13083 14 1 81.254685 -1.325973 19.208488
13084 14 1 80.314971 -1.000807 19.314342
13085 14 1 80.147485 -0.517300 18.455175
13086 14 1 79.475859 -1.149767 18.841056
13087 14 1 78.614230 -1.392193 18.395157
13088 14 1 77.741754 -1.803685 18.131606
13089 14 1 77.943214 -0.829206 18.230621
13090 14 1 78.467007 -0.310906 17.554599
13091 14 1 78.484557 -0.125508 18.537106
13092 14 1 78.891522 0.635310 19.042611
13093 14 1 78.613053 0.516039 19.995621
13094 14 1 78.609222 1.081723 20.820235
13095 14 1 77.726767 0.816710 21.208875
13096 14 1 77.237088 0.286773 21.901248
13097 14 1 76.352393 -0.178200 21.934637
13098 14 1 76.393171 -0.208769 22.933338
13099 14 1 77.316325 -0.568640 22.798133
13100 14 1 77.780486 0.302337 22.959234
13101 14 1 78.687674 0.651978 22.725224
13102 14 1 78.525995 1.552689 22.322014
13103 14 1 77.641151 1.206620 22.633923
13104 14 1 77.792478 0.876297 23.565582
13105 14 1 78.588060 0.392243 23.929920
13106 14 1 79.160702 -0.293421 24.379303
13107 14 1 78.251216 -0.634773 24.616608
13108 14 1 77.460941 -1.217233 24.806885
13109 14 1 78.172792 -1.721650 25.295589
13110 14 1 77.310510 -2.025224 24.890234
13111 14 1 76.347430 -1.757792 24.921151
13112 14 1 76.341410 -2.656032 24.481687
13113 14 1 76.363387 -2.933984 25.442030
13114 14 1 75.450929 -2.634475 25.163256
13115 14 1 75.619814 -2.975322 26.088082
13116 14 1 75.223679 -2.096305 25.822738
13117 14 1 74.247891 -2.234323 25.653063
13118 14 1 74.750107 -2.345585 24.795508
13119 14 1 74.180037 -1.532734 24.675957
13120 14 1 75.068457 -1.677388 25.111600
13121 14 1 74.745673 -1.135126 25.887333
13122 14 1 74.978603 -0.456501 25.190761
13123 14 1 75.135230 0.318418 24.578414
13124 14 1 76.130545 0.342273 24.484718
13125 14 1 76.000594 -0.564192 24.082930
13126 14 1 75.749064 -1.489136 24.367908
13127 14 1 75.814101 -0.701693 24.980855
13128 14 1 76.076154 -0.244096 25.830522
13129 14 1 76.991066 -0.500504 25.518766
13130 14 1 76.312959 -1.103373 25.939147
13131 14 1 76.015693 -0.509560 26.686824
13132 14 1 75.685089 -0.320546 27.611472
13133 14 1 74.786244 -0.327005 27.173252
13134 14 1 74.971935 -1.090911 27.791286
13135 14 1 74.358838 -1.558637 28.427954
13136 14 1 74.767086 -1.284922 29.298824
13137 14 1 74.854360 -1.096020 30.276934
13138 14 1 75.697853 -1.575476 30.519094
13139 14 1 76.663274 -1.318401 30.562394
13140 14 1 76.922958 -0.374745 30.767523
13141 14 1 77.735076 0.186857 30.925847
13142 14 1 78.700839 0.107752 30.678773
13143 14 1 79.561375 -0.170742 30.252256
13144 14 1 80.019113 0.099539 31.099265
13145 14 1 80.730376 -0.519060 30.765436
13146 14 1 80.437589 -0.405562 29.816018
13147 14 1 81.365067 -0.717094 29.609301
13148 14 1 81.768067 0.045023 30.116025
13149 14 1 80.900450 0.416097 29.785049
13150 14 1 80.073950 0.842456 30.152629
13151 14 1 80.366828 0.967207 31.100606
13152 14 1 79.980988 0.522023 31.908652
13153 14 1 79.347188 0.862592 31.214167
13154 14 1 78.733459 1.244117 30.522954
13155 14 1 77.937910 1.570502 31.033419
13156 14 1 78.526317 2.339378 31.283633
13157 14 1 79.309131 2.146092 30.692158
13158 14 1 79.729034 2.817027 30.080989
13159 14 1 79.466631 3.649928 29.593730
13160 14 1 80.083462 3.567807 30.376531
13161 14 1 79.714956 4.249319 31.008785
13162 14 1 78.839646 4.681354 31.225988
13163 14 1 79.699901 5.179386 31.116788
13164 14 1 79.331728 5.606434 30.290908
13165 14 1 80.013021 4.914321 30.052538
13166 14 1 80.544101 5.678405 29.686300
13167 14 1 80.219288 5.266857 28.834758
13168 14 1 79.858514 4.335736 28.781306
13169 14 1 80.767273 3.963023 28.969038
13170 14 1 81.739003 3.982025 29.204367
13171 14 1 81.276046 4.807923 29.526181
13172 14 1 81.544293 4.176593 30.253825
13173 14 1 80.826236 4.626723 30.784653
13174 14 1 81.023130 5.315533 31.482343
13175 14 1 81.283652 4.350346 31.459078
13176 14 1 80.412644 4.650377 31.848084
13177 14 1 79.956710 5.395108 32.335425
13178 14 1 80.832276 5.877674 32.312772
13179 14 1 80.404701 6.692341 31.920985
13180 14 1 80.905485 7.540778 32.092365
13181 14 1 81.271517 6.864243 32.731365
13182 14 1 80.381338 6.917395 33.183865
13183 14 1 80.927995 7.419363 33.854085
13184 14 1 81.350856 8.162726 33.335819
13185 14 1 81.558737 8.299332 34.304387
13186 14 1 81.346851 8.784874 35.152534
13187 14 1 80.401419 8.845711 34.832444
13188 14 1 80.081291 9.336685 35.642667
13189 14 1 80.571586 10.186199 35.447895
13190 14 1 79.964225 9.984449 34.679514
13191 14 1 79.888098 10.834465 34.158287
13192 14 1 79.228998 11.350462 34.705402
13193 14 1 79.488547 11.678924 35.613558
13194 14 1 78.514596 11.770441 35.406089
13195 14 1 78.016745 12.407233 34.817327
13196 14 1 77.589635 13.151718 35.330474
13197 14 1 76.953546 12.432481 35.051030
13198 14 1 76.361500 11.742175 35.466913
13199 14 1 76.807640 11.462884 36.317181
13200 14 1 77.708441 11.867340 36.159152
13201 14 1 78.661278 12.170789 36.163581
13202 14 1 78.734179 11.779568 37.080986
13203 14 1 77.803746 11.546597 37.363861
13204 14 1 77.664661 10.943961 36.578059
13205 14 1 76.976991 10.337238 36.976803
13206 14 1 76.543437 10.613803 36.119165
13207 14 1 76.307358 10.851964 37.061262
13208 14 1 75.409302 10.652865 37.453504
13209 14 1 75.895331 10.341565 38.270123
13210 14 1 75.487986 11.224875 38.502144
13211 14 1 75.495404 11.927457 39.213708
13212 14 1 75.043239 11.036121 39.181033
13213 14 1 74.900679 10.490588 40.006909
13214 14 1 75.509663 9.917183 39.458871
13215 14 1 76.316997 9.691942 38.913454
13216 14 1 77.053398 9.015804 38.890010
13217 14 1 76.482883 8.788658 38.100759
13218 14 1 77.073927 9.186947 37.399309
13219 14 1 77.112270 8.444252 36.730778
13220 14 1 76.175292 8.325904 37.059514
13221 14 1 75.866641 9.044529 36.436366
13222 14 1 75.698760 8.474035 35.632405
13223 14 1 76.190272 9.304471 35.370122
13224 14 1 76.844169 9.258472 34.614938
13225 14 1 76.676244 8.283850 34.466910
13226 14 1 77.363730 8.012447 33.793334
13227 14 1 77.232077 8.998804 33.892161
13228 14 1 77.815551 9.588650 33.333913
13229 14 1 78.134349 9.656500 32.388522
13230 14 1 77.260110 10.134862 32.471444
13231 14 1 76.949261 9.275566 32.877624
13232 14 1 77.812219 8.848668 32.607325
13233 14 1 77.978448 8.975014 31.629365
13234 14 1 77.534611 8.141692 31.958884
13235 14 1 77.061387 7.942013 32.816898
13236 14 1 76.304967 7.755304 32.190026
13237 14 1 75.980315 8.497785 32.775964
13238 14 1 75.249857 8.439329 33.456415
13239 14 1 75.738622 7.712931 32.973243
13240 14 1 76.211248 7.287216 33.744860
13241 14 1 76.543856 7.283472 34.687918
13242 14 1 75.625865 6.888142 34.719664
13243 14 1 74.945081 6.741375 34.002034
13244 14 1 75.183146 5.893604 34.475964
13245 14 1 74.758994 5.048530 34.150471
13246 14 1 74.042952 4.551491 33.660333
13247 14 1 73.232788 4.585408 33.075111
13248 14 1 73.239275 5.583972 33.128291
13249 14 1 72.865311 6.435587 32.760998
13250 14 1 73.340405 6.764108 31.944690
13251 14 1 73.440422 6.792891 30.950121
13252 14 1 73.411978 7.585518 31.559163
13253 14 1 72.759885 8.300947 31.810037
13254 14 1 72.248823 8.840116 31.140625
13255 14 1 71.693572 9.622125 31.423748
13256 14 1 71.778119 10.595454 31.637016
13257 14 1 70.857725 10.968630 31.520333
13258 14 1 70.665616 10.419594 30.706912
13259 14 1 71.481531 10.087718 30.233478
13260 14 1 71.213878 9.275197 30.751330
13261 14 1 72.080158 9.533103 30.323495
13262 14 1 73.050922 9.295117 30.292198
13263 14 1 73.166829 9.170715 31.277637
13264 14 1 73.807399 9.831353 31.669081
13265 14 1 74.224762 10.216525 32.492154
13266 14 1 74.823687 9.422827 32.385697
13267 14 1 73.932952 9.063181 32.663628
13268 14 1 73.297204 8.316186 32.469144
13269 14 1 73.663519 7.622159 33.088934
13270 14 1 72.729343 7.418577 33.381971
13271 14 1 72.850718 7.678605 34.339914
13272 14 1 72.933196 8.541865 34.837889
13273 14 1 72.509388 9.278037 35.365560
13274 14 1 72.312081 10.122175 34.867061
13275 14 1 71.525237 9.506877 34.914862
13276 14 1 71.044688 10.291214 34.522577
13277 14 1 70.091055 10.218388 34.230549
13278 14 1 69.955086 10.520608 35.174040
13279 14 1 69.979135 11.473103 35.477645
13280 14 1 70.179665 12.451987 35.517303
13281 14 1 70.642437 12.660937 34.655803
13282 14 1 69.857243 13.275847 34.582621
13283 14 1 69.358892 12.572009 35.088842
13284 14 1 68.555601 12.548173 35.683951
13285 14 1 69.190711 11.803285 35.888346
13286 14 1 69.139667 11.266485 36.730510
13287 14 1 68.607630 12.007056 37.140986
13288 14 1 67.661806 11.933866 36.824664
13289 14 1 67.103616 11.211876 37.233511
13290 14 1 67.491423 10.708797 38.005855
13291 14 1 67.909971 10.334380 37.178431
13292 14 1 67.228221 10.345427 36.446929
13293 14 1 67.695570 10.541077 35.584777
13294 14 1 68.157069 10.027644 34.861310
13295 14 1 68.425275 10.905855 34.465317
13296 14 1 68.378620 11.812075 34.045092
13297 14 1 68.688387 12.051059 34.965380
13298 14 1 69.495093 11.688420 34.498778
13299 14 1 69.710489 11.499098 33.540779
13300 14 1 69.906066 12.124807 32.785638
13301 14 1 70.529404 12.903310 32.859002
13302 14 1 70.718383 12.196028 33.540205
13303 14 1 71.499536 12.086268 34.154822
13304 14 1 71.946925 11.409405 34.739372
13305 14 1 70.966739 11.474888 34.926312
13306 14 1 71.273483 12.189297 35.555223
13307 14 1 71.875971 12.892332 35.177402
13308 14 1 72.420743 13.076878 35.995428
13309 14 1 72.712557 13.763680 36.661121
13310 14 1 73.414854 14.059722 37.308530
13311 14 1 74.230551 14.507975 36.942868
13312 14 1 74.675432 13.615983 36.862681
13313 14 1 74.681456 13.380785 35.890752
13314 14 1 73.988695 13.193546 36.587189
13315 14 1 74.179630 12.312170 37.019299
13316 14 1 73.832165 11.527805 37.533147
13317 14 1 74.410250 10.712172 37.509478
13318 14 1 73.487036 10.532807 37.169620
13319 14 1 73.799691 10.193707 36.282344
13320 14 1 74.205193 10.967080 35.795044
13321 14 1 74.860086 10.518045 35.187193
13322 14 1 75.479549 10.941944 35.847931
13323 14 1 75.021244 10.619336 36.676111
13324 14 1 75.359395 9.867076 36.110638
13325 14 1 74.698729 9.495775 36.763061
13326 14 1 74.744956 8.677656 36.189873
13327 14 1 74.006421 8.008842 36.275038
13328 14 1 74.553341 7.446361 35.654963
13329 14 1 74.035000 7.205392 34.834441
13330 14 1 73.467031 6.408806 35.041473
13331 14 1 72.635261 6.381418 35.595917
13332 14 1 72.736692 5.528484 36.107986
13333 14 1 73.439151 5.970614 36.665725
13334 14 1 73.383870 6.464015 37.533768
13335 14 1 73.668842 6.844487 38.413559
13336 14 1 73.615321 7.840481 38.341923
13337 14 1 74.100742 8.308976 37.603764
13338 14 1 74.541008 9.012154 38.162072
13339 14 1 74.080164 9.874949 37.954208
13340 14 1 74.982954 9.706042 38.349733
13341 14 1 75.881596 9.268775 38.384941
13342 14 1 75.768458 8.313707 38.110996
13343 14 1 74.779845 8.172782 38.058236
13344 14 1 75.227434 8.426142 37.200639
13345 14 1 75.717247 9.292794 37.295495
13346 14 1 75.984431 10.040698 36.687833
13347 14 1 76.887436 9.750471 36.371050
13348 14 1 77.873274 9.585459 36.341170
13349 14 1 78.212778 8.692414 36.045862
13350 14 1 79.052172 9.235669 36.062907
13351 14 1 79.354811 10.107761 35.678373
13352 14 1 79.702271 10.795759 36.315499
13353 14 1 78.772170 10.616793 36.636253
13354 14 1 78.891888 10.582424 37.628465
13355 14 1 79.125820 10.362873 38.575605
13356 14 1 78.810282 10.648542 39.480497
13357 14 1 78.765677 10.435403 40.456500
13358 14 1 79.607597 9.936381 40.251201
13359 14 1 80.258141 10.609004 40.603865
13360 14 1 80.908597 10.019425 40.125008
13361 14 1 80.721658 10.747713 39.465727
13362 14 1 80.497614 11.387838 38.730851
13363 14 1 79.780712 11.908057 38.266713
13364 14 1 79.524673 12.837926 38.002538
13365 14 1 79.457534 13.780001 38.331153
13366 14 1 80.133813 13.191988 38.774875
13367 14 1 80.745801 13.647562 38.128405
13368 14 1 81.572719 13.907081 37.629550
13369 14 1 81.643303 14.715296 38.214193
13370 14 1 82.534835 14.470468 37.833103
13371 14 1 82.070020 14.845890 37.031227
13372 14 1 81.173914 15.271344 37.157650
13373 14 1 81.783548 15.524054 36.406329
13374 14 1 81.957928 16.411335 36.833325
13375 14 1 82.645673 15.800657 37.225854
13376 14 1 82.920555 16.032670 36.292789
13377 14 1 82.084303 16.369180 35.859842
13378 14 1 81.191218 15.959313 36.045337
13379 14 1 81.016878 16.133736 35.076223
13380 14 1 80.669184 15.238110 34.798799
13381 14 1 80.238485 14.938265 35.650029
13382 14 1 79.336794 15.335241 35.478669
13383 14 1 78.736516 14.544345 35.359720
13384 14 1 78.326772 13.642238 35.495048
13385 14 1 77.747432 13.697753 34.681855
13386 14 1 76.839889 14.098728 34.557012
13387 14 1 76.626031 14.106369 33.580177
13388 14 1 76.754210 13.192065 33.195966
13389 14 1 76.648777 13.979509 32.588664
13390 14 1 77.601103 14.153853 32.338304
13391 14 1 77.439020 14.307491 31.363561
13392 14 1 78.227668 14.826524 31.693163
13393 14 1 78.395247 14.336330 32.548515
13394 14 1 77.553649 14.608130 33.015244
13395 14 1 78.112868 13.827539 33.294443
13396 14 1 78.324430 14.382676 34.098847
13397 14 1 78.842750 15.207693 33.873701
13398 14 1 78.306807 15.233259 33.029834
13399 14 1 79.163344 15.737615 33.139239
13400 14 1 79.848689 15.166753 32.687113
13401 14 1 80.184707 16.093049 32.516618
13402 14 1 79.524567 16.640002 33.031456
13403 14 1 80.073890 17.364904 32.615810
13404 14 1 79.150385 17.673636 32.388163
13405 14 1 78.234748 17.816341 32.763988
13406 14 1 79.000803 18.148292 33.314415
13407 14 1 79.939704 17.833917 33.454532
13408 14 1 80.611353 17.342334 34.008819
13409 14 1 79.638332 17.160669 33.866593
13410 14 1 80.162300 16.377303 34.200951
13411 14 1 80.271411 17.004087 34.972466
13412 14 1 79.811337 16.775029 35.830292
13413 14 1 79.949583 16.816915 36.819804
13414 14 1 79.121182 16.432195 36.412690
13415 14 1 78.694662 16.886761 37.194642
13416 14 1 79.424777 16.517979 37.769909
13417 14 1 79.116986 15.873822 38.470142
13418 14 1 79.922039 16.404196 38.735837
13419 14 1 79.191539 16.557250 39.401378
13420 14 1 79.914589 16.209615 39.998328
13421 14 1 79.496259 17.100901 40.173282
13422 14 1 80.241020 17.192777 39.512305
13423 14 1 80.159563 18.099674 39.098901
13424 14 1 79.406721 18.103295 38.440709
13425 14 1 79.995685 17.341083 38.172094
13426 14 1 80.780571 17.922996 38.385009
13427 14 1 80.985506 18.500987 39.174900
13428 14 1 80.540464 17.872745 39.813061
13429 14 1 81.337412 18.470616 39.899230
13430 14 1 82.001115 19.096320 39.489361
13431 14 1 82.363779 19.644945 38.736045
13432 14 1 82.355419 18.645456 38.705212
13433 14 1 82.077955 19.340788 38.042243
13434 14 1 81.476010 19.869529 37.443834
13435 14 1 80.519592 19.756490 37.174599
13436 14 1 80.782595 20.180469 38.041243
13437 14 1 79.815200 19.962258 38.169818
13438 14 1 79.195068 20.324573 38.865637
13439 14 1 78.944071 20.045890 37.938633
13440 14 1 78.961608 20.460178 37.028656
13441 14 1 79.486866 20.420162 36.178655
13442 14 1 80.349271 19.939447 36.019998
13443 14 1 80.342537 18.958411 36.213706
13444 14 1 81.326456 18.787954 36.267061
13445 14 1 81.842974 18.219497 36.907426
13446 14 1 81.226849 18.838621 37.394331
13447 14 1 81.191416 19.587824 36.732939
13448 14 1 81.742989 20.421496 36.760476
13449 14 1 81.241724 21.028222 37.377418
13450 14 1 81.050013 20.949576 38.355713
13451 14 1 80.230179 21.515187 38.444906
13452 14 1 79.576279 22.223162 38.178096
13453 14 1 80.329079 22.217376 37.519873
13454 14 1 79.481020 22.160270 36.993056
13455 14 1 79.446060 22.930568 37.629782
13456 14 1 79.793076 23.753859 38.078972
13457 14 1 79.235055 23.319753 38.786195
13458 14 1 79.168536 24.078818 39.433802
13459 14 1 78.263459 23.858247 39.797372
13460 14 1 78.823317 23.353227 40.454269
13461 14 1 79.384112 22.616606 40.076251
13462 14 1 79.791786 23.448460 39.699660
13463 14 1 80.234757 22.772869 40.289027
13464 14 1 80.972434 22.639139 40.950804
13465 14 1 81.695100 22.355034 40.320694
13466 14 1 82.592525 22.630616 40.665198
13467 14 1 82.778922 21.648585 40.635671
13468 14 1 83.358504 21.952122 41.391944
13469 14 1 83.816763 21.756938 40.524821
13470 14 1 83.105479 22.284789 40.060656
13471 14 1 83.033898 21.969770 39.114274
13472 14 1 82.934267 22.831446 38.616691
13473 14 1 83.694961 23.313026 39.051923
13474 14 1 84.225318 22.767977 38.402583
13475 14 1 84.148042 21.836301 38.757560
13476 14 1 83.754910 21.441991 39.588203
13477 14 1 84.427177 22.074456 39.972969
13478 14 1 84.240553 23.007052 39.664043
13479 14 1 84.305834 23.803727 40.264916
13480 14 1 83.684651 23.688752 41.040101
13481 14 1 83.956843 24.631344 40.846629
13482 14 1 83.479181 25.167836 41.542341
13483 14 1 83.590599 25.624166 40.659533
13484 14 1 84.197066 25.795676 41.435924
13485 14 1 84.630088 25.664409 42.327698
13486 14 1 85.385903 25.087164 42.018617
13487 14 1 85.879589 25.421159 41.215671
13488 14 1 86.735655 25.850873 40.928451
13489 14 1 86.831275 26.794373 41.245728
13490 14 1 85.914531 26.836811 41.642942
13491 14 1 85.438885 27.581656 41.175004
13492 14 1 84.442356 27.580575 41.091773
13493 14 1 83.868640 27.577222 41.910820
13494 14 1 84.518615 27.984763 42.552259
13495 14 1 84.577471 27.136353 42.026202
13496 14 1 85.434267 27.590693 42.270076
13497 14 1 85.918461 28.251035 41.696051
13498 14 1 86.263728 27.574454 42.346456
13499 14 1 86.481580 27.157540 43.228910
13500 14 1 86.090066 26.279325 42.954217
13501 14 1 85.390669 25.574538 43.073034
13502 14 1 85.297351 25.249707 44.014191
13503 14 1 85.985589 25.974880 43.992932
13504 14 1 85.262591 25.910847 44.680809
13505 14 1 85.284284 26.848170 44.333023
13506 14 1 85.237850 27.369187 43.480740
13507 14 1 85.040900 26.416483 43.249299
13508 14 1 84.086159 26.555136 43.512443
13509 14 1 83.254939 26.155372 43.126099
13510 14 1 82.885179 26.174389 42.197166
13511 14 1 82.899450 27.004169 42.755075
13512 14 1 83.292925 27.919397 42.841874
13513 14 1 83.967754 28.612495 42.588457
13514 14 1 83.227118 28.874529 43.207162
13515 14 1 83.342780 29.837828 43.449394
13516 14 1 82.502024 29.854228 43.990559
13517 14 1 82.811816 30.069939 44.916570
13518 14 1 83.295388 30.778449 44.402593
13519 14 1 83.935671 30.030397 44.577110
13520 14 1 84.576844 30.648998 44.122985
13521 14 1 84.531881 30.590529 43.125709
13522 14 1 83.730939 31.171229 42.979834
13523 14 1 84.055320 30.603296 42.223376
13524 14 1 83.776361 31.563189 42.195307
13525 14 1 82.828950 31.392024 41.924912
13526 14 1 82.202200 31.629261 41.182683
13527 14 1 82.046543 31.727171 42.165630
13528 14 1 81.635755 32.634746 42.078679
13529 14 1 81.132410 32.845154 41.240602
13530 14 1 81.059899 33.077564 40.270691
13531 14 1 80.660712 32.720027 39.426406
13532 14 1 81.611509 32.919259 39.189144
13533 14 1 82.411150 32.868956 38.590777
13534 14 1 81.469550 32.676830 38.314234
13535 14 1 80.635167 33.019188 37.882265
13536 14 1 80.963383 32.689191 36.997180
13537 14 1 80.354794 33.208883 36.397565
13538 14 1 79.725214 33.000835 35.649003
13539 14 1 80.423568 32.972833 34.933798
13540 14 1 80.944930 32.128496 34.810197
13541 14 1 81.794504 31.650536 34.587086
13542 14 1 82.107025 32.561393 34.317511
13543 14 1 81.624910 32.378748 35.174370
13544 14 1 81.909920 32.825339 36.022501
13545 14 1 82.053336 33.346868 35.181406
13546 14 1 81.242140 32.989861 34.718258
13547 14 1 81.099848 32.306509 34.002169
13548 14 1 80.325112 32.475279 33.392824
13549 14 1 80.671501 31.543634 33.502608
13550 14 1 79.951316 31.726983 32.833492
13551 14 1 78.960462 31.816432 32.732460
13552 14 1 79.445217 32.629849 33.053965
13553 14 1 78.992506 31.984542 33.669296
13554 14 1 78.549502 32.847787 33.911279
13555 14 1 77.861524 33.561648 34.042002
13556 14 1 78.135089 33.442877 34.996494
13557 14 1 78.296429 32.464030 34.870682
13558 14 1 78.026675 31.530105 34.636127
13559 14 1 77.290775 31.925868 34.086742
13560 14 1 76.622972 31.948326 34.830741
13561 14 1 76.418510 31.557802 35.728342
13562 14 1 75.587146 31.033527 35.912652
13563 14 1 75.102172 30.202847 36.186095
13564 14 1 75.070352 31.090386 36.645728
13565 14 1 74.668414 30.361231 37.199604
13566 14 1 75.646028 30.532226 37.076996
13567 14 1 76.366042 29.858637 37.243898
13568 14 1 75.510009 29.615020 37.699813
13569 14 1 75.962149 30.428951 38.064621
13570 14 1 76.924267 30.264672 37.847039
13571 14 1 77.644698 30.884324 37.535574
13572 14 1 78.458817 30.304613 37.569413
13573 14 1 78.589469 30.301681 38.560837
13574 14 1 79.245852 30.887842 39.035786
13575 14 1 79.798033 31.713694 39.150086
13576 14 1 78.798660 31.708301 39.185079
13577 14 1 79.067755 31.965653 40.113172
13578 14 1 79.670152 32.510965 39.530290
13579 14 1 79.971636 32.807764 40.436390
13580 14 1 79.852790 33.260886 41.319881
13581 14 1 79.528651 32.709409 42.088521
13582 14 1 78.937557 32.008437 41.689465
13583 14 1 78.389731 32.840079 41.598591
13584 14 1 78.269859 32.721197 42.584237
13585 14 1 77.598937 32.033332 42.861193
13586 14 1 76.669861 31.747134 43.095518
13587 14 1 77.009175 32.323913 43.838614
13588 14 1 77.850254 32.841730 43.682240
13589 14 1 77.729906 33.505110 44.420781
13590 14 1 77.464517 34.132947 43.689078
13591 14 1 78.367932 33.940570 43.305890
13592 14 1 77.859547 34.687797 42.877875
13593 14 1 77.076820 35.266850 43.105986
13594 14 1 77.431041 36.036783 42.575202
13595 14 1 77.214474 36.227197 43.532720
13596 14 1 77.597521 37.084415 43.876889
13597 14 1 78.159675 37.125019 44.702924
13598 14 1 78.773797 37.069207 43.915688
13599 14 1 78.688708 37.173494 42.924788
13600 14 1 79.402405 36.526762 43.193810
13601 14 1 79.862548 35.691472 43.494742
13602 14 1 80.361097 35.414985 44.316328
13603 14 1 79.745015 35.574775 45.087632
13604 14 1 80.328773 35.911057 45.826646
13605 14 1 80.062529 36.781694 45.412997
13606 14 1 79.096537 36.532163 45.480771
13607 14 1 78.608359 36.707205 46.335781
13608 14 1 79.532742 36.337160 46.428417
13609 14 1 79.534497 37.230255 45.978552
13610 14 1 80.406620 37.717265 46.025686
13611 14 1 80.578441 38.668611 45.769914
13612 14 1 81.489671 38.767322 45.370020
13613 14 1 81.612453 39.225674 44.489771
13614 14 1 82.609340 39.148548 44.506151
13615 14 1 83.366686 38.506271 44.388219
13616 14 1 83.848965 37.949933 43.711540
13617 14 1 84.844143 38.023890 43.775970
13618 14 1 84.992973 38.630406 44.556988
13619 14 1 85.687495 39.183723 45.016857
13620 14 1 85.961353 38.265491 45.302955
13621 14 1 85.544438 37.356876 45.278431
13622 14 1 85.563431 37.849785 46.148305
13623 14 1 84.633846 37.541627 46.350569
13624 14 1 84.591608 37.200863 47.289768
13625 14 1 85.077937 37.741125 47.976500
13626 14 1 85.901394 37.623223 47.421505
13627 14 1 86.776230 37.449697 47.873778
13628 14 1 86.440139 37.178042 46.971976
13629 14 1 85.841654 36.998608 46.191195
13630 14 1 86.816934 36.790157 46.264514
13631 14 1 87.045329 36.486175 47.189409
13632 14 1 87.793148 35.867578 47.430459
13633 14 1 88.216820 34.962535 47.467873
13634 14 1 87.364438 34.705460 47.012507
13635 14 1 86.774431 34.376033 46.275371
13636 14 1 87.511151 33.884601 45.810894
13637 14 1 87.558024 34.883452 45.800885
13638 14 1 88.010632 34.464418 46.588004
13639 14 1 88.899400 34.082411 46.334701
13640 14 1 89.648948 34.645940 46.681994
13641 14 1 90.014402 33.720509 46.782101
13642 14 1 89.632867 33.362607 45.929847
13643 14 1 90.314299 33.927077 45.463987
13644 14 1 89.993520 33.568544 44.587314
13645 14 1 90.158910 32.653068 44.954125
13646 14 1 89.410588 33.032058 44.409717
13647 14 1 88.725011 32.401392 44.046062
13648 14 1 88.514341 32.886648 44.894676
13649 14 1 87.828891 32.819405 44.169668
13650 14 1 87.094715 33.472524 43.984140
13651 14 1 86.772694 33.206483 43.075556
13652 14 1 87.117466 32.383500 43.527032
13653 14 1 87.315417 31.605161 42.931210
13654 14 1 87.935726 30.824137 43.003455
13655 14 1 87.111987 30.378183 42.653342
13656 14 1 87.659896 29.543186 42.602586
13657 14 1 87.538219 28.575634 42.824033
13658 14 1 87.922669 28.152330 43.644406
13659 14 1 87.688912 27.453423 44.320340
13660 14 1 87.208058 27.102020 45.123643
13661 14 1 87.289674 26.115175 44.984087
13662 14 1 86.643088 26.643863 44.434165
13663 14 1 86.608181 25.689970 44.732273
13664 14 1 87.434613 25.780706 44.176596
13665 14 1 87.393713 25.231848 43.341682
13666 14 1 87.699641 26.182844 43.386559
13667 14 1 87.279860 26.408144 42.507341
13668 14 1 87.922944 26.094147 41.808880
13669 14 1 88.040884 25.305220 42.411941
13670 14 1 88.466533 25.370581 43.314466
13671 14 1 88.893021 24.716853 42.689368
13672 14 1 88.984571 25.542650 42.132881
13673 14 1 89.799505 25.736774 42.678957
13674 14 1 90.445843 24.979935 42.581788
13675 14 1 90.562959 23.992737 42.690066
13676 14 1 91.424680 24.460097 42.887578
13677 14 1 90.902147 25.179879 43.344606
13678 14 1 91.302007 25.656299 42.561576
13679 14 1 90.687245 26.159910 41.954581
13680 14 1 90.483194 26.095245 42.931403
13681 14 1 90.631846 26.824161 43.599673
13682 14 1 90.822825 27.433486 42.830095
13683 14 1 91.323512 27.562983 43.685982
13684 14 1 91.781786 27.129140 42.910247
13685 14 1 92.683338 27.045239 43.334706
13686 14 1 91.785963 26.765444 43.675930
13687 14 1 92.572602 27.155773 44.154305
13688 14 1 93.208941 27.667962 44.731137
13689 14 1 92.380791 28.199174 44.909974
13690 14 1 92.023984 29.070836 44.573978
13691 14 1 91.911881 30.007508 44.905758
13692 14 1 91.963626 30.934204 45.277992
13693 14 1 91.533519 30.135340 45.698497
13694 14 1 91.059056 30.248346 44.825505
13695 14 1 91.150440 29.653578 44.026819
13696 14 1 90.963936 29.975189 43.098497
13697 14 1 91.820263 30.125290 43.592637
13698 14 1 92.799056 30.010056 43.762008
13699 14 1 93.386563 30.225240 44.542093
13700 14 1 93.017376 30.921160 45.158044
13701 14 1 92.594564 30.289641 45.807978
13702 14 1 92.007956 29.625955 46.272103
13703 14 1 91.430538 29.861689 47.053780
13704 14 1 90.822540 29.858419 46.259848
13705 14 1 90.423569 30.100732 47.144216
13706 14 1 90.747888 31.010656 47.402779
13707 14 1 90.936687 30.910338 48.379657
13708 14 1 90.442582 31.634032 47.897860
13709 14 1 91.001443 31.641557 48.727088
13710 14 1 91.903227 31.310536 48.449220
13711 14 1 91.906632 32.254028 48.780597
13712 14 1 92.701698 32.640394 48.313061
13713 14 1 92.791082 32.408467 47.344443
13714 14 1 93.274282 31.618942 46.966068
13715 14 1 93.137322 32.552715 46.635446
13716 14 1 94.086456 32.793275 46.432282
13717 14 1 94.370030 33.107155 45.526155
13718 14 1 93.487472 32.940857 45.086340
13719 14 1 93.860527 32.040397 44.862730
13720 14 1 93.185067 32.156573 44.134544
13721 14 1 92.246257 32.422141 44.353884
13722 14 1 91.669216 32.380300 45.169527
13723 14 1 91.329717 31.474616 44.915603
13724 14 1 91.301671 32.224561 44.254698
13725 14 1 90.464446 31.677762 44.246642
13726 14 1 91.263930 31.090760 44.119157
13727 14 1 90.661171 30.681286 43.434312
13728 14 1 91.452049 30.626898 42.824759
13729 14 1 90.970801 31.458367 42.547162
13730 14 1 91.328810 31.189040 41.653131
13731 14 1 90.456462 30.736346 41.837732
13732 14 1 89.917995 29.940533 42.114742
13733 14 1 88.977919 30.238127 42.281154
13734 14 1 88.933565 29.405670 41.728843
13735 14 1 88.891892 28.784485 40.946288
13736 14 1 88.846079 27.789973 40.852226
13737 14 1 87.997811 28.134638 40.450172
13738 14 1 87.054193 28.198793 40.125413
13739 14 1 86.752382 28.564757 41.005743
13740 14 1 86.899949 27.662257 41.410361
13741 14 1 87.674794 27.302729 40.890405
13742 14 1 88.241397 26.560268 40.533035
13743 14 1 88.210724 26.844604 41.491269
13744 14 1 89.037674 26.856162 40.929111
13745 14 1 88.949389 26.305458 41.759130
13746 14 1 88.544815 26.004163 42.622577
13747 14 1 88.827488 26.832630 43.106042
13748 14 1 89.532163 27.539738 43.164619
13749 14 1 89.900926 28.468539 43.127966
13750 14 1 90.548900 28.965399 43.705252
13751 14 1 90.153577 28.199391 44.212157
13752 14 1 89.470192 27.494232 44.401194
13753 14 1 89.656564 28.352933 44.878581
13754 14 1 89.442872 28.899572 45.688224
13755 14 1 90.170766 28.223443 45.574117
13756 14 1 90.999527 27.678400 45.700933
13757 14 1 91.362494 27.587691 46.628309
13758 14 1 91.658791 26.639919 46.510257
13759 14 1 92.284932 25.860791 46.480143
13760 14 1 93.050700 26.279131 45.991683
13761 14 1 93.763732 25.670267 46.339347
13762 14 1 94.445341 26.395596 46.435823
13763 14 1 94.031506 26.861974 45.654010
13764 14 1 93.649784 27.253680 46.491180
13765 14 1 92.779239 27.205903 46.980945
13766 14 1 92.098574 27.165214 47.712409
13767 14 1 91.498812 26.457976 48.086707
13768 14 1 92.048014 25.780454 47.597482
13769 14 1 92.866191 25.694472 48.165983
13770 14 1 92.029975 25.652203 48.712751
13771 14 1 91.579763 25.272699 49.521012
13772 14 1 91.386174 25.785842 50.357198
13773 14 1 91.183077 25.377663 51.247222
13774 14 1 91.055173 24.402982 51.430627
13775 14 1 90.556852 24.648725 52.262064
13776 14 1 89.827208 24.007254 52.498991
13777 14 1 89.142593 24.258133 51.814621
13778 14 1 88.800731 24.734515 52.624678
13779 14 1 87.918893 25.158082 52.417430
13780 14 1 87.121792 24.658071 52.755985
13781 14 1 87.147284 24.838537 51.772734
13782 14 1 86.700864 25.309136 52.533816
13783 14 1 86.853724 25.808343 51.680923
13784 14 1 86.426572 26.711694 51.719617
13785 14 1 85.935965 25.840559 51.698923
13786 14 1 85.631101 26.326672 52.517917
13787 14 1 86.122888 27.184846 52.370665
13788 14 1 85.573974 27.414035 53.174509
13789 14 1 85.309902 27.264353 54.127326
13790 14 1 85.024130 28.206589 54.302045
13791 14 1 85.860456 28.505115 53.842218
13792 14 1 85.680629 29.202299 54.536189
13793 14 1 84.695541 29.062118 54.635943
13794 14 1 84.474946 29.187113 53.668619
13795 14 1 83.783601 29.782877 53.259831
13796 14 1 84.384519 30.101708 53.992800
13797 14 1 85.106274 30.738790 53.722252
13798 14 1 84.397624 31.245837 53.231621
13799 14 1 84.362415 30.361235 52.766604
13800 14 1 85.148455 29.879151 53.153559
13801 14 1 85.949478 29.317847 52.945470
13802 14 1 86.592081 29.832063 52.377452
13803 14 1 86.080940 29.452601 51.606256
13804 14 1 86.845167 28.808103 51.630300
13805 14 1 87.306584 27.921403 51.601020
13806 14 1 87.722443 27.736070 50.710676
13807 14 1 88.071767 26.807181 50.587632
13808 14 1 87.618400 25.985287 50.932520
13809 14 1 87.354130 26.201654 49.992655
13810 14 1 86.497297 26.698483 49.854822
13811 14 1 87.328609 27.242425 49.969051
13812 14 1 86.613997 27.935529 49.874519
13813 14 1 86.980836 27.277320 49.217109
13814 14 1 85.985431 27.345492 49.149865
13815 14 1 85.498656 26.708775 48.551832
13816 14 1 85.191684 27.657560 48.477162
13817 14 1 84.921231 27.536099 47.522121
13818 14 1 85.379570 27.484377 46.634850
13819 14 1 85.978252 26.687057 46.711396
13820 14 1 86.322633 27.484722 47.206504
13821 14 1 86.681133 26.642802 47.609800
13822 14 1 87.353947 26.356304 46.927715
13823 14 1 87.681185 25.459535 46.629856
13824 14 1 87.715368 26.165521 45.922456
13825 14 1 88.500234 25.547691 45.874794
13826 14 1 89.360076 25.944686 46.195835
13827 14 1 89.562282 25.004076 45.923133
13828 14 1 88.798874 24.381410 46.094875
13829 14 1 88.170104 24.759877 46.774148
13830 14 1 87.468198 24.368673 46.178929
13831 14 1 86.836122 24.230826 46.941476
13832 14 1 86.690929 25.156112 47.291856
13833 14 1 85.740649 25.362100 47.058326
13834 14 1 85.346755 24.517141 47.420116
13835 14 1 84.497443 24.162716 47.811334
13836 14 1 83.774375 23.534307 47.524497
13837 14 1 83.023345 22.874039 47.523812
13838 14 1 82.891638 23.759984 47.079115
13839 14 1 82.873896 24.434987 47.816716
13840 14 1 82.792875 25.272382 48.357276
13841 14 1 82.725387 25.133261 47.369303
13842 14 1 82.311219 25.968531 47.730950
13843 14 1 82.664907 26.902019 47.671739
13844 14 1 81.964184 27.050238 46.973872
13845 14 1 81.192774 26.902223 46.354988
13846 14 1 80.244083 26.847462 46.666415
13847 14 1 80.047187 25.883961 46.485038
13848 14 1 79.653433 26.428777 45.744678
13849 14 1 79.849954 27.359838 45.437261
13850 14 1 79.923985 27.889167 46.282441
13851 14 1 78.950096 27.665164 46.245525
13852 14 1 79.229323 28.096894 45.387830
13853 14 1 78.928420 28.840785 45.984557
13854 14 1 78.102676 28.482681 46.420339
13855 14 1 77.142451 28.734764 46.300248
13856 14 1 76.929682 27.894416 46.798791
13857 14 1 76.393080 28.401930 46.124634
13858 14 1 75.666745 29.089259 46.120585
13859 14 1 75.363435 29.685887 45.377593
13860 14 1 75.057966 29.862560 44.441925
13861 14 1 74.162364 30.078651 44.053077
13862 14 1 74.764867 30.874486 44.113384
13863 14 1 74.986335 30.484103 45.007002
13864 14 1 74.011218 30.323575 44.854101
13865 14 1 73.885767 31.221880 44.433019
13866 14 1 73.728734 32.065095 44.947149
13867 14 1 72.762502 32.091447 45.203474
13868 14 1 72.396360 32.364003 46.093223
13869 14 1 72.606267 31.415639 46.331018
13870 14 1 72.437530 32.152833 46.985290
13871 14 1 72.591761 32.822067 47.712160
13872 14 1 72.480945 31.828241 47.717622
13873 14 1 71.998573 30.980185 47.936983
13874 14 1 71.378942 31.113250 48.710515
13875 14 1 72.294843 31.011487 49.098806
13876 14 1 73.214580 30.905861 48.720750
13877 14 1 72.725815 31.769241 48.845984
13878 14 1 72.445382 32.723971 48.746748
13879 14 1 71.833741 32.246557 49.377598
13880 14 1 72.276318 33.081545 49.704586
13881 14 1 72.411653 32.147978 50.036456
13882 14 1 73.057242 32.424013 50.748509
13883 14 1 73.872825 31.848756 50.810985
13884 14 1 73.541289 32.337764 51.617803
13885 14 1 73.806848 33.123313 51.058883
13886 14 1 73.109624 33.564496 51.623893
13887 14 1 72.809674 33.976429 50.763462
13888 14 1 72.869542 34.828621 50.243669
13889 14 1 72.736916 34.837040 51.234799
13890 14 1 73.709075 34.738891 51.447575
13891 14 1 74.062805 35.336876 50.728347
13892 14 1 74.759916 35.992110 51.019386
13893 14 1 75.371586 35.228236 50.813581
13894 14 1 75.049377 35.924351 50.172016
13895 14 1 75.979064 35.624092 50.385385
13896 14 1 76.551391 35.135834 51.044207
13897 14 1 76.095019 35.686081 51.743459
13898 14 1 75.377542 35.652032 52.439208
13899 14 1 75.017997 36.550466 52.691289
13900 14 1 74.065755 36.846501 52.616470
13901 14 1 74.144271 35.938928 53.028959
13902 14 1 73.757724 35.895148 52.107729
13903 14 1 74.412166 35.202596 51.804287
13904 14 1 74.703086 34.405441 51.275222
13905 14 1 74.717530 34.379364 52.274778
13906 14 1 75.517511 33.780601 52.235857
13907 14 1 76.135457 33.872826 53.016650
13908 14 1 76.740518 33.262880 53.528378
13909 14 1 75.938604 32.701010 53.731446
13910 14 1 75.500772 33.210803 54.471996
13911 14 1 76.481882 33.309595 54.305669
13912 14 1 77.373088 32.862839 54.227180
13913 14 1 77.350443 32.788918 53.230173
13914 14 1 78.174369 32.339861 53.575853
13915 14 1 78.048348 33.279099 53.256556
13916 14 1 77.677983 34.180742 53.033238
13917 14 1 78.576409 33.809620 52.798507
13918 14 1 77.946932 33.876271 52.024352
13919 14 1 77.689754 32.916931 51.908051
13920 14 1 77.721639 33.513194 51.105895
13921 14 1 77.258771 32.851819 50.515695
13922 14 1 78.060196 32.437832 50.084032
13923 14 1 78.204578 33.354559 50.456545
13924 14 1 78.124361 34.288292 50.107680
13925 14 1 77.897328 33.709799 49.324225
13926 14 1 78.852530 33.414748 49.347328
13927 14 1 79.290068 34.313836 49.333121
13928 14 1 79.223554 35.311131 49.364398
13929 14 1 79.390750 34.848489 50.235034
13930 14 1 79.725204 35.775749 50.403350
13931 14 1 79.435955 35.062854 51.042190
13932 14 1 78.745157 34.353788 51.183695
13933 14 1 79.330046 34.854656 51.821689
13934 14 1 80.274921 34.554648 51.690517
13935 14 1 81.180696 34.944990 51.855460
13936 14 1 82.037603 35.459732 51.882844
13937 14 1 81.757753 35.749371 52.798154
13938 14 1 81.530454 34.851685 53.175639
13939 14 1 81.910601 33.932481 53.278369
13940 14 1 81.526041 33.843792 54.197198
13941 14 1 82.442025 33.465305 54.330320
13942 14 1 83.425867 33.569314 54.184590
13943 14 1 82.769483 32.937228 53.772731
13944 14 1 82.465466 32.055108 54.132506
13945 14 1 81.784386 32.241193 53.424338
13946 14 1 81.892973 31.269863 53.212850
13947 14 1 81.346711 31.726123 52.510409
13948 14 1 82.279713 32.040295 52.685916
13949 14 1 83.085230 32.382921 53.169392
13950 14 1 82.844567 31.501180 53.575118
13951 14 1 83.371621 31.680883 54.405733
13952 14 1 84.198643 32.202228 54.195416
13953 14 1 84.874193 31.501385 54.424435
13954 14 1 85.503984 30.876503 54.885831
13955 14 1 85.789889 31.644566 55.458839
13956 14 1 86.763228 31.585894 55.237099
13957 14 1 87.503577 31.122026 55.723629
13958 14 1 87.831509 30.906427 54.803858
13959 14 1 87.642324 31.888354 54.809122
13960 14 1 87.543746 32.839164 54.515451
13961 14 1 86.819810 32.530782 55.132555
13962 14 1 86.555228 32.594356 56.094820
13963 14 1 85.979093 32.855168 55.320194
13964 14 1 86.179878 33.802682 55.071395
13965 14 1 85.690049 33.771368 55.942651
13966 14 1 84.988725 34.450692 55.726637
13967 14 1 84.202165 35.052134 55.586664
13968 14 1 85.120176 35.189725 55.214743
13969 14 1 85.214490 35.948262 54.569975
13970 14 1 85.681050 35.064959 54.524178
13971 14 1 84.779839 34.631672 54.515106
13972 14 1 83.831785 34.853511 54.287112
13973 14 1 84.030936 34.027711 53.759481
13974 14 1 84.144971 33.163421 54.249377
13975 14 1 85.032980 33.290120 53.807352
13976 14 1 85.990225 33.274313 54.096199
13977 14 1 85.432466 34.083982 54.278795
13978 14 1 86.324128 34.501883 54.452856
13979 14 1 85.817425 34.669241 55.298577
13980 14 1 86.456945 35.344788 55.665525
13981 14 1 86.909646 34.722050 55.027356
13982 14 1 87.339014 34.136535 54.339740
13983 14 1 88.021718 34.601812 54.903152
13984 14 1 88.222247 33.649970 55.135065
13985 14 1 88.980349 33.544724 55.778653
13986 14 1 89.658932 34.278520 55.811336
13987 14 1 89.211335 34.942355 55.212185
13988 14 1 88.732566 35.820080 55.192753
13989 14 1 87.799062 35.960487 54.862817
13990 14 1 88.355497 35.973720 54.032031
13991 14 1 88.710005 35.264559 53.422593
13992 14 1 88.643001 35.356847 52.429117
13993 14 1 88.013576 36.055147 52.770001
13994 14 1 88.134740 36.731177 53.496845
13995 14 1 87.719321 37.001634 52.628352
13996 14 1 87.188860 36.772739 53.444574
13997 14 1 86.361758 37.290088 53.664241
13998 14 1 85.424471 37.638560 53.671979
13999 14 1 85.621904 36.753516 53.250413
14000 14 1 84.775257 36.222896 53.290800
14001 15 1 -27.366693 -12.255301 33.025410
14002 15 1 -26.660828 -11.569819 33.203931
14003 15 1 -26.282340 -11.121220 34.013564
14004 15 1 -25.926646 -12.055241 34.046543
14005 15 1 -26.926183 -12.028211 34.060497
14006 15 1 -27.014483 -11.635929 34.976094
14007 15 1 -27.219428 -10.754964 34.549599
14008 15 1 -26.427881 -10.182520 34.335680
14009 15 1 -26.095249 -10.572838 35.194171
14010 15 1 -26.220991 -9.608988 34.959262
14011 15 1 -25.689027 -9.023277 35.570781
14012 15 1 -25.351096 -9.934920 35.336879
14013 15 1 -24.592292 -10.362345 34.845428
14014 15 1 -23.950044 -10.807963 34.221776
14015 15 1 -23.604762 -11.417459 34.935425
14016 15 1 -23.250892 -10.572043 34.535366
14017 15 1 -22.435558 -11.103111 34.304719
14018 15 1 -21.628242 -11.210177 34.885045
14019 15 1 -22.511497 -11.677863 34.918686
14020 15 1 -21.882813 -12.376505 35.260234
14021 15 1 -21.177734 -13.057362 35.061998
14022 15 1 -21.812001 -13.633463 34.546427
14023 15 1 -22.552543 -13.232646 35.085820
14024 15 1 -23.111501 -13.303797 34.259683
14025 15 1 -23.423910 -13.349760 35.208518
14026 15 1 -23.435974 -12.357102 35.088174
14027 15 1 -24.054132 -12.257107 35.867841
14028 15 1 -24.182727 -12.848599 35.071851
14029 15 1 -24.013244 -13.397102 34.253059
14030 15 1 -24.842933 -12.985898 34.630587
14031 15 1 -24.108864 -12.442856 34.222851
14032 15 1 -24.395019 -11.724915 33.588284
14033 15 1 -25.115101 -11.884318 34.263616
14034 15 1 -25.068736 -12.524664 33.496931
14035 15 1 -25.303984 -13.408485 33.901306
14036 15 1 -26.221026 -13.024753 34.009858
14037 15 1 -27.154346 -13.382291 34.042742
14038 15 1 -26.559574 -14.097274 34.410227
14039 15 1 -25.640602 -13.992313 34.790326
14040 15 1 -26.375976 -13.315000 34.768552
14041 15 1 -26.593558 -13.606716 35.699982
14042 15 1 -25.973329 -13.016602 36.216782
14043 15 1 -26.112980 -12.247861 36.840910
14044 15 1 -26.081995 -12.532851 37.798939
14045 15 1 -26.472478 -12.724296 38.699423
14046 15 1 -26.616940 -11.754740 38.897137
14047 15 1 -26.012633 -11.285836 38.252977
14048 15 1 -25.163516 -10.763365 38.175362
14049 15 1 -26.064544 -10.366013 38.349316
14050 15 1 -26.266816 -9.999877 37.441004
14051 15 1 -26.582538 -9.052281 37.392214
14052 15 1 -26.926059 -9.188965 38.321360
14053 15 1 -25.964793 -8.924403 38.398650
14054 15 1 -26.362212 -9.381785 39.194174
14055 15 1 -27.357370 -9.415652 39.101907
14056 15 1 -27.966911 -9.397437 39.894453
14057 15 1 -27.866996 -8.511169 40.346719
14058 15 1 -28.638852 -8.043117 39.916409
14059 15 1 -29.362136 -7.353904 39.873458
14060 15 1 -29.919352 -7.356829 39.043095
14061 15 1 -29.248803 -7.448415 38.306905
14062 15 1 -29.107105 -6.700130 38.954972
14063 15 1 -28.346524 -7.005451 38.382001
14064 15 1 -28.228032 -7.226121 37.413877
14065 15 1 -28.572054 -8.071660 37.822182
14066 15 1 -29.475943 -8.315872 37.470978
14067 15 1 -29.314321 -9.123737 38.037752
14068 15 1 -29.408361 -10.031891 38.445689
14069 15 1 -30.153743 -10.171285 37.793788
14070 15 1 -30.247705 -10.231658 36.800044
14071 15 1 -30.344468 -10.610590 35.879692
14072 15 1 -30.834432 -11.089159 35.151059
14073 15 1 -30.539733 -12.030052 34.984105
14074 15 1 -30.326035 -11.398824 35.729682
14075 15 1 -31.311649 -11.482728 35.876398
14076 15 1 -31.643305 -11.251780 36.791094
14077 15 1 -31.835922 -10.698402 35.980740
14078 15 1 -32.208751 -11.268580 35.248691
14079 15 1 -32.553312 -11.153907 34.316957
14080 15 1 -33.089245 -10.484502 34.831420
14081 15 1 -32.992161 -10.139195 33.897965
14082 15 1 -32.069454 -10.464739 33.691491
14083 15 1 -32.178218 -9.901285 34.510448
14084 15 1 -32.879839 -9.688718 35.190553
14085 15 1 -33.590302 -9.902657 34.520125
14086 15 1 -33.252337 -9.117710 34.000858
14087 15 1 -33.364713 -9.485125 33.077615
14088 15 1 -32.426386 -9.712881 32.817483
14089 15 1 -31.468022 -9.974362 32.702735
14090 15 1 -30.741743 -9.560651 33.251699
14091 15 1 -30.386542 -10.255953 32.626890
14092 15 1 -29.880624 -9.704729 31.963415
14093 15 1 -29.635887 -8.935255 32.553341
14094 15 1 -29.766013 -9.581968 33.304892
14095 15 1 -30.201104 -8.715807 33.550778
14096 15 1 -30.542844 -8.047885 32.889647
14097 15 1 -30.172520 -7.124142 32.987420
14098 15 1 -31.022808 -7.474075 33.380559
14099 15 1 -31.372814 -8.239355 33.920782
14100 15 1 -32.111809 -7.822015 34.449663
14101 15 1 -32.565153 -7.184369 33.826857
14102 15 1 -32.811541 -7.882969 33.155105
14103 15 1 -33.718022 -7.769951 33.561944
14104 15 1 -34.569930 -8.114530 33.167587
14105 15 1 -34.455269 -8.538946 34.065765
14106 15 1 -35.243823 -8.885522 33.557762
14107 15 1 -34.676908 -9.662897 33.830331
14108 15 1 -34.122289 -9.762436 33.004202
14109 15 1 -34.799225 -9.118952 32.646869
14110 15 1 -34.126004 -9.159942 31.908564
14111 15 1 -33.185254 -9.452854 31.737712
14112 15 1 -33.480192 -8.544204 32.033290
14113 15 1 -34.360138 -8.310792 31.619508
14114 15 1 -33.985578 -7.384613 31.575958
14115 15 1 -33.097587 -7.076159 31.917026
14116 15 1 -32.558279 -7.843303 31.569701
14117 15 1 -32.068445 -7.437872 32.341509
14118 15 1 -31.675436 -7.436824 31.421975
14119 15 1 -31.942885 -6.822528 30.679606
14120 15 1 -32.177066 -5.853387 30.756573
14121 15 1 -31.919167 -5.675426 31.706214
14122 15 1 -32.108244 -6.229198 32.517131
14123 15 1 -32.107842 -5.239273 32.375541
14124 15 1 -32.037980 -5.611982 33.300855
14125 15 1 -31.398171 -4.980607 33.739047
14126 15 1 -30.764056 -4.207695 33.761505
14127 15 1 -30.467434 -3.285632 33.512878
14128 15 1 -29.550816 -2.911048 33.652513
14129 15 1 -29.313325 -2.870160 32.681984
14130 15 1 -29.101366 -1.903613 32.537555
14131 15 1 -29.732077 -1.725160 31.782334
14132 15 1 -29.506149 -1.151362 30.995116
14133 15 1 -29.601447 -0.813148 31.931347
14134 15 1 -30.587166 -0.978615 31.900054
14135 15 1 -31.409789 -0.447504 32.103062
14136 15 1 -31.538385 0.428636 31.638473
14137 15 1 -30.905532 -0.322636 31.451159
14138 15 1 -30.184467 -0.293550 32.143416
14139 15 1 -30.359671 0.643765 31.842177
14140 15 1 -30.829266 1.416287 31.414754
14141 15 1 -30.716331 1.615312 32.388219
14142 15 1 -30.788260 1.327868 33.343312
14143 15 1 -30.954003 0.569701 33.973956
14144 15 1 -31.153962 0.068532 33.132026
14145 15 1 -31.084820 -0.702945 33.764516
14146 15 1 -30.808292 -1.326474 33.033254
14147 15 1 -31.725754 -1.670463 32.833414
14148 15 1 -32.394596 -1.148054 33.362318
14149 15 1 -32.817843 -0.258285 33.533125
14150 15 1 -32.627462 0.527956 32.945263
14151 15 1 -32.068129 -0.294838 32.844479
14152 15 1 -32.987052 -0.680548 32.761965
14153 15 1 -33.943478 -0.919571 32.929645
14154 15 1 -33.875317 -0.501379 33.835442
14155 15 1 -34.287074 -0.254503 34.712658
14156 15 1 -34.004191 0.475617 35.334673
14157 15 1 -34.918119 0.867325 35.228366
14158 15 1 -35.903220 0.749182 35.353338
14159 15 1 -36.097780 1.289796 34.534874
14160 15 1 -36.826259 1.531739 33.893952
14161 15 1 -36.202146 2.297516 34.049094
14162 15 1 -36.766356 2.846344 34.665905
14163 15 1 -36.292524 3.482982 34.057485
14164 15 1 -36.760910 2.732456 33.591303
14165 15 1 -37.333482 2.543268 32.793576
14166 15 1 -37.500757 1.751918 33.381611
14167 15 1 -37.601909 2.654764 33.799507
14168 15 1 -37.812764 3.047536 34.694644
14169 15 1 -38.076505 2.778726 35.621025
14170 15 1 -38.080256 1.779909 35.572550
14171 15 1 -38.109459 0.799780 35.768752
14172 15 1 -38.048102 0.957121 36.754388
14173 15 1 -38.682470 1.674617 36.466680
14174 15 1 -38.794252 2.336290 37.208093
14175 15 1 -37.963850 2.277002 37.762093
14176 15 1 -38.368711 3.176714 37.598979
14177 15 1 -39.260860 3.586866 37.788311
14178 15 1 -39.861100 4.249488 38.236243
14179 15 1 -40.449741 4.398430 39.030798
14180 15 1 -40.170235 3.609394 39.577880
14181 15 1 -40.255540 4.465397 40.087764
14182 15 1 -39.346025 4.239883 40.436944
14183 15 1 -38.365507 4.103086 40.577910
14184 15 1 -38.488532 3.956461 41.559422
14185 15 1 -39.234258 3.590166 42.115948
14186 15 1 -38.895657 3.138762 41.290367
14187 15 1 -38.493402 2.343885 40.836096
14188 15 1 -38.010729 1.977631 41.631636
14189 15 1 -37.536115 1.228572 41.169410
14190 15 1 -37.112521 1.875837 40.535678
14191 15 1 -36.457426 2.008308 39.791836
14192 15 1 -36.428313 2.874885 40.290028
14193 15 1 -36.001521 2.823203 41.192900
14194 15 1 -36.293717 3.771453 41.317165
14195 15 1 -37.204934 3.803821 41.727820
14196 15 1 -36.795635 4.686625 41.497316
14197 15 1 -36.195300 4.775155 40.702482
14198 15 1 -36.310296 5.767927 40.736823
14199 15 1 -37.170149 5.985713 41.198582
14200 15 1 -38.067812 5.563302 41.324162
14201 15 1 -38.595368 4.932884 41.893598
14202 15 1 -37.731674 5.323158 42.212532
14203 15 1 -37.094715 6.089734 42.131015
14204 15 1 -37.280780 6.956431 42.593850
14205 15 1 -37.726474 7.838534 42.746334
14206 15 1 -37.514625 8.805074 42.601692
14207 15 1 -36.822605 9.286311 43.139762
14208 15 1 -36.049963 9.718507 42.674755
14209 15 1 -36.878054 10.278571 42.650381
14210 15 1 -37.533460 11.033186 42.618760
14211 15 1 -38.066571 11.686639 43.156152
14212 15 1 -37.291152 11.495021 43.757823
14213 15 1 -36.634762 10.933529 44.261687
14214 15 1 -36.477842 11.667673 44.922300
14215 15 1 -36.520560 11.867050 43.943309
14216 15 1 -36.023835 12.734539 43.970276
14217 15 1 -35.217091 12.599240 44.545478
14218 15 1 -34.802147 13.493005 44.375167
14219 15 1 -34.808570 13.418229 45.372346
14220 15 1 -35.426132 13.774031 46.073790
14221 15 1 -34.909248 14.621991 46.191244
14222 15 1 -34.523952 13.699209 46.195696
14223 15 1 -34.283846 13.153880 46.998794
14224 15 1 -33.435148 12.726401 46.687387
14225 15 1 -32.797574 12.530820 47.432536
14226 15 1 -32.523681 12.112432 48.298524
14227 15 1 -32.088987 12.766446 48.917642
14228 15 1 -31.526962 13.592716 48.955152
14229 15 1 -31.305335 14.350738 49.568571
14230 15 1 -31.943547 14.803510 50.191214
14231 15 1 -31.112222 15.182717 49.784888
14232 15 1 -30.267874 15.547681 50.177159
14233 15 1 -30.807221 14.810848 50.584812
14234 15 1 -31.426627 15.288254 51.208045
14235 15 1 -30.461858 15.119365 51.409780
14236 15 1 -30.689556 15.594358 52.259800
14237 15 1 -30.985665 14.689223 51.954759
14238 15 1 -31.159861 13.758130 52.275260
14239 15 1 -31.635781 13.562863 53.132798
14240 15 1 -32.411555 14.048261 52.729607
14241 15 1 -32.535141 13.264272 53.337955
14242 15 1 -32.830075 13.297190 54.292905
14243 15 1 -32.421686 14.209873 54.307978
14244 15 1 -31.939306 14.498152 53.480811
14245 15 1 -31.719489 15.473691 53.478749
14246 15 1 -30.773558 15.576880 53.786266
14247 15 1 -30.520784 16.210330 54.517598
14248 15 1 -30.763961 15.421749 55.082403
14249 15 1 -29.859660 15.010470 54.967996
14250 15 1 -28.869460 15.149520 54.981028
14251 15 1 -28.385322 14.562422 54.332239
14252 15 1 -27.676727 15.227464 54.096420
14253 15 1 -27.080102 14.769961 54.755760
14254 15 1 -27.415054 13.962224 54.270613
14255 15 1 -26.869424 13.976391 55.108519
14256 15 1 -26.164975 13.500466 54.581975
14257 15 1 -25.699928 12.696498 54.211346
14258 15 1 -26.244304 12.015825 54.701590
14259 15 1 -26.154167 11.431497 53.895094
14260 15 1 -25.714345 11.018051 54.692351
14261 15 1 -24.902374 10.448706 54.563712
14262 15 1 -24.875969 9.690517 55.215212
14263 15 1 -24.530346 8.950844 54.637780
14264 15 1 -23.607111 8.999085 55.018975
14265 15 1 -22.847756 8.348597 55.003308
14266 15 1 -22.789695 8.246345 55.996370
14267 15 1 -22.364560 7.470904 56.463222
14268 15 1 -22.010002 6.962347 57.247862
14269 15 1 -22.565485 6.188514 57.552200
14270 15 1 -21.818899 5.523241 57.547675
14271 15 1 -21.464597 5.496659 56.612922
14272 15 1 -22.408350 5.791608 56.463471
14273 15 1 -23.003870 5.003008 56.616656
14274 15 1 -23.088474 5.803676 56.023552
14275 15 1 -22.330277 5.302702 55.606225
14276 15 1 -21.668803 4.555668 55.539954
14277 15 1 -22.452215 3.934238 55.530477
14278 15 1 -22.506656 3.689899 54.562317
14279 15 1 -23.492679 3.822918 54.662635
14280 15 1 -24.281510 3.288881 54.358414
14281 15 1 -24.178022 4.282984 54.390793
14282 15 1 -23.827325 4.274720 53.454341
14283 15 1 -23.342766 3.822781 52.705372
14284 15 1 -22.460047 3.883424 53.171344
14285 15 1 -22.664333 4.457175 52.378201
14286 15 1 -22.429279 5.190622 51.740388
14287 15 1 -23.099856 5.779821 52.191132
14288 15 1 -22.270196 5.837656 52.746398
14289 15 1 -22.132069 6.060865 51.781464
14290 15 1 -22.321062 6.931423 52.235787
14291 15 1 -21.487806 7.235239 51.773856
14292 15 1 -22.115683 7.812617 52.295781
14293 15 1 -21.380881 7.240977 52.660874
14294 15 1 -20.673070 7.749753 53.150925
14295 15 1 -21.234264 8.551446 53.356714
14296 15 1 -20.768330 9.397205 53.616711
14297 15 1 -20.729822 8.650980 54.281290
14298 15 1 -20.260976 8.316515 55.098796
14299 15 1 -20.193426 9.294526 55.296108
14300 15 1 -20.926297 9.450758 55.958295
14301 15 1 -20.052459 9.886347 56.174329
14302 15 1 -19.281598 9.615431 56.750851
14303 15 1 -18.834527 8.840332 57.197337
14304 15 1 -18.739906 9.753701 57.593322
14305 15 1 -17.754572 9.866166 57.464994
14306 15 1 -17.263862 10.736855 57.498238
14307 15 1 -16.552908 10.497282 56.837065
14308 15 1 -15.907407 11.138849 57.251458
14309 15 1 -15.093579 11.599721 57.605409
14310 15 1 -14.134934 11.765546 57.374105
14311 15 1 -13.523974 12.522278 57.606667
14312 15 1 -13.093508 12.788018 58.469268
14313 15 1 -13.688070 12.798961 59.273244
14314 15 1 -13.548263 11.837474 59.036608
14315 15 1 -13.429216 11.764769 60.026831
14316 15 1 -12.822925 11.061919 60.398870
14317 15 1 -13.298896 10.423076 59.794445
14318 15 1 -13.398665 10.635308 60.766558
14319 15 1 -14.367700 10.782444 60.568258
14320 15 1 -14.824546 9.957706 60.234942
14321 15 1 -15.214911 9.037198 60.251648
14322 15 1 -14.564379 9.013213 59.492548
14323 15 1 -14.468722 8.049093 59.740181
14324 15 1 -15.180152 7.685375 59.138868
14325 15 1 -14.765237 6.897615 58.683587
14326 15 1 -14.033838 6.309197 59.028289
14327 15 1 -14.252261 7.254936 59.268849
14328 15 1 -14.102932 8.121702 58.793016
14329 15 1 -15.041057 8.077855 58.449504
14330 15 1 -15.922598 7.964973 57.991090
14331 15 1 -16.251613 8.906757 58.060316
14332 15 1 -15.831002 9.719047 58.464384
14333 15 1 -15.851048 10.257050 57.621679
14334 15 1 -15.350372 9.976499 56.802769
14335 15 1 -15.921851 9.253328 57.190629
14336 15 1 -16.701679 9.669953 56.723413
14337 15 1 -16.001379 9.029328 56.408487
14338 15 1 -15.211811 8.608766 56.855377
14339 15 1 -14.506849 7.927776 57.053575
14340 15 1 -14.430439 6.957301 56.824799
14341 15 1 -14.421504 7.760290 56.228872
14342 15 1 -14.421010 8.714482 56.528066
14343 15 1 -13.497078 8.931739 56.842944
14344 15 1 -12.554999 8.673990 57.057543
14345 15 1 -12.389713 8.813631 58.033853
14346 15 1 -11.785018 9.575728 57.802442
14347 15 1 -12.770930 9.439597 57.705254
14348 15 1 -12.389578 9.676529 58.598806
14349 15 1 -12.414048 9.672005 59.598496
14350 15 1 -11.887926 8.967249 60.074432
14351 15 1 -10.980820 8.734725 60.425277
14352 15 1 -11.187227 9.272041 59.607544
14353 15 1 -10.360444 8.712170 59.662075
14354 15 1 -9.575803 8.097943 59.746127
14355 15 1 -9.517030 8.598148 58.882217
14356 15 1 -8.926134 9.006306 58.186336
14357 15 1 -8.771280 9.101270 59.169699
14358 15 1 -8.779669 8.119695 59.360592
14359 15 1 -7.977403 8.553866 59.770305
14360 15 1 -7.317953 8.278044 59.070985
14361 15 1 -7.644761 7.424299 58.665625
14362 15 1 -8.069863 6.590944 58.312345
14363 15 1 -8.026778 5.638581 58.010437
14364 15 1 -7.345855 4.964051 57.725211
14365 15 1 -7.563373 4.107861 57.256569
14366 15 1 -8.047312 3.452266 57.836223
14367 15 1 -8.630260 3.806954 57.105218
14368 15 1 -9.392750 4.452171 57.153221
14369 15 1 -9.429204 3.456208 57.235242
14370 15 1 -9.065237 3.257110 58.145126
14371 15 1 -9.680651 3.805108 58.711663
14372 15 1 -8.693997 3.966703 58.691630
14373 15 1 -8.877159 4.934877 58.862190
14374 15 1 -9.668198 4.785495 59.455436
14375 15 1 -9.675862 4.039941 60.121838
14376 15 1 -9.434577 3.886639 61.080107
14377 15 1 -9.623871 3.870737 62.061899
14378 15 1 -10.476874 4.247278 61.700508
14379 15 1 -11.320507 4.503956 62.172100
14380 15 1 -10.947080 5.205642 61.565315
14381 15 1 -11.569203 5.609904 62.235788
14382 15 1 -11.973310 6.367101 62.748965
14383 15 1 -12.493040 6.858526 63.447808
14384 15 1 -13.093187 6.911399 64.245949
14385 15 1 -12.618186 7.179695 65.084036
14386 15 1 -12.137793 6.303267 65.117147
14387 15 1 -13.006076 5.877419 64.862710
14388 15 1 -13.664365 6.218929 64.191869
14389 15 1 -13.643425 5.280745 64.537371
14390 15 1 -14.160300 5.897894 65.130640
14391 15 1 -14.853849 6.077438 65.828317
14392 15 1 -15.471638 6.439824 66.526180
14393 15 1 -14.684985 7.029148 66.710230
14394 15 1 -14.458377 7.441823 67.592470
14395 15 1 -13.868946 6.866219 68.159261
14396 15 1 -13.246839 7.474179 67.665938
14397 15 1 -13.123698 6.507389 67.441991
14398 15 1 -12.461585 5.789101 67.228291
14399 15 1 -12.992805 5.326575 66.518449
14400 15 1 -13.972584 5.517316 66.578883
14401 15 1 -14.064962 4.526774 66.477426
14402 15 1 -13.857227 3.715131 65.931459
14403 15 1 -14.644743 4.291394 65.712963
14404 15 1 -14.439390 3.392243 65.326495
14405 15 1 -15.408405 3.175698 65.445310
14406 15 1 -15.798834 2.631013 64.703096
14407 15 1 -16.432661 2.980438 65.393143
14408 15 1 -16.955312 2.140200 65.537493
14409 15 1 -16.944197 1.329070 66.122253
14410 15 1 -16.907202 0.345441 66.298617
14411 15 1 -16.196534 -0.316607 66.060616
14412 15 1 -15.458146 -0.892148 66.412092
14413 15 1 -15.619743 -1.321554 65.523556
14414 15 1 -15.607043 -0.790560 64.676276
14415 15 1 -14.947381 -0.584967 63.953380
14416 15 1 -14.055783 -0.399225 64.366360
14417 15 1 -13.895853 -1.351807 64.625222
14418 15 1 -14.769620 -1.166523 65.074889
14419 15 1 -15.196434 -1.989918 64.700924
14420 15 1 -15.922429 -2.637915 64.470638
14421 15 1 -15.849139 -2.783193 63.483966
14422 15 1 -16.322113 -3.661695 63.416670
14423 15 1 -15.909412 -4.151435 62.648664
14424 15 1 -14.957399 -4.043177 62.934936
14425 15 1 -15.116734 -5.002180 62.700573
14426 15 1 -14.526263 -5.111625 61.900969
14427 15 1 -14.279026 -6.060401 62.097687
14428 15 1 -13.595652 -5.597778 62.662470
14429 15 1 -13.192024 -6.424834 62.271236
14430 15 1 -12.431207 -6.943317 62.661533
14431 15 1 -12.174497 -6.108417 63.148402
14432 15 1 -12.217118 -6.926148 63.722423
14433 15 1 -11.227240 -7.065372 63.694871
14434 15 1 -11.379990 -7.040326 64.682819
14435 15 1 -12.237596 -7.014820 65.196493
14436 15 1 -12.740352 -7.275607 64.372341
14437 15 1 -12.289225 -8.145041 64.170922
14438 15 1 -12.269212 -8.004433 65.160785
14439 15 1 -12.875259 -8.585879 65.703581
14440 15 1 -13.154266 -8.179493 64.833520
14441 15 1 -14.107667 -8.382590 65.056628
14442 15 1 -13.670941 -8.289868 65.951431
14443 15 1 -13.721905 -9.252032 65.683770
14444 15 1 -13.511494 -9.052212 64.726796
14445 15 1 -12.809901 -9.014391 64.015223
14446 15 1 -13.659635 -8.532583 63.801182
14447 15 1 -14.032995 -8.410133 62.881612
14448 15 1 -14.836983 -8.690005 63.406278
14449 15 1 -15.480962 -9.185897 63.988844
14450 15 1 -14.566870 -9.143775 64.392159
14451 15 1 -13.979002 -9.823819 63.954035
14452 15 1 -14.557381 -9.465169 63.221336
14453 15 1 -14.105424 -10.347322 63.353777
14454 15 1 -14.436178 -10.889640 64.126106
14455 15 1 -14.280184 -11.584960 63.424539
14456 15 1 -14.672147 -12.085466 62.652620
14457 15 1 -14.415735 -12.764452 61.964703
14458 15 1 -14.515503 -11.770049 61.929951
14459 15 1 -14.748526 -11.904478 60.966815
14460 15 1 -14.520691 -12.876369 60.907489
14461 15 1 -13.527777 -12.762980 60.871916
14462 15 1 -13.567098 -11.947428 60.294569
14463 15 1 -14.092612 -12.587197 59.733739
14464 15 1 -15.082824 -12.447639 59.731610
14465 15 1 -15.564943 -13.157600 60.244948
14466 15 1 -16.047093 -14.031047 60.312943
14467 15 1 -15.307192 -14.102168 59.643996
14468 15 1 -15.145172 -14.857388 60.279128
14469 15 1 -15.152442 -15.802904 59.953635
14470 15 1 -15.462331 -16.213937 60.810968
14471 15 1 -14.579095 -15.746019 60.841735
14472 15 1 -15.347533 -15.200196 61.175769
14473 15 1 -15.211346 -16.021553 61.729688
14474 15 1 -14.257540 -16.170511 61.468792
14475 15 1 -13.363707 -16.308067 61.042012
14476 15 1 -13.616798 -15.356146 60.869415
14477 15 1 -13.418539 -14.412322 60.605049
14478 15 1 -14.295818 -14.333580 60.131571
14479 15 1 -13.574823 -13.988967 59.530399
14480 15 1 -13.586660 -13.552922 60.430246
14481 15 1 -13.896141 -13.824237 61.341624
14482 15 1 -14.487403 -14.570595 61.036078
14483 15 1 -13.947660 -14.741294 61.860420
14484 15 1 -13.146487 -14.613949 62.445146
14485 15 1 -12.454736 -14.559294 63.165211
14486 15 1 -12.326414 -14.955508 64.074358
14487 15 1 -12.322961 -14.321382 64.847581
14488 15 1 -13.154555 -14.471334 64.312824
14489 15 1 -12.621293 -13.729529 63.906182
14490 15 1 -13.198444 -13.727552 63.089546
14491 15 1 -13.237334 -13.062332 63.835181
14492 15 1 -13.775976 -12.311226 64.216894
14493 15 1 -13.520175 -11.453487 63.770968
14494 15 1 -13.100876 -10.560580 63.934994
14495 15 1 -12.415853 -9.966883 64.357212
14496 15 1 -13.144027 -10.518874 64.763498
14497 15 1 -12.270208 -10.999043 64.686825
14498 15 1 -11.801349 -11.786697 64.287110
14499 15 1 -11.345466 -11.621706 65.161724
14500 15 1 -10.998057 -12.226759 65.878116
14501 15 1 -11.001885 -12.722143 66.746782
14502 15 1 -11.409786 -13.461816 67.282039
14503 15 1 -10.657017 -12.927885 67.667080
14504 15 1 -10.882482 -12.102268 68.184305
14505 15 1 -11.605038 -12.352899 67.540025
14506 15 1 -11.837724 -11.625347 68.185412
14507 15 1 -11.904949 -10.938044 68.908665
14508 15 1 -12.171902 -10.000888 69.133329
14509 15 1 -11.183519 -9.868508 69.207991
14510 15 1 -10.859811 -10.358443 68.398561
14511 15 1 -10.381923 -10.258557 69.271285
14512 15 1 -9.976456 -10.950984 69.868060
14513 15 1 -9.885476 -10.028862 70.244110
14514 15 1 -9.343534 -10.490665 70.946276
14515 15 1 -8.998339 -9.570958 70.759250
14516 15 1 -8.323800 -9.301689 70.071870
14517 15 1 -8.126074 -8.934519 70.980766
14518 15 1 -7.345903 -8.447780 71.373726
14519 15 1 -7.516338 -7.567349 70.931242
14520 15 1 -8.285574 -7.824255 70.346198
14521 15 1 -8.592926 -8.193988 71.223029
14522 15 1 -9.005492 -7.313692 71.457269
14523 15 1 -9.957739 -7.612128 71.392748
14524 15 1 -9.836265 -8.229013 70.615125
14525 15 1 -9.068025 -8.434049 70.008687
14526 15 1 -9.079831 -7.438670 69.913397
14527 15 1 -10.034324 -7.167641 69.788951
14528 15 1 -10.349401 -6.447518 69.170768
14529 15 1 -10.112343 -5.479167 69.248865
14530 15 1 -9.606585 -6.057466 68.608724
14531 15 1 -9.232630 -6.237652 67.698950
14532 15 1 -8.551171 -5.805112 67.108592
14533 15 1 -8.096021 -6.625176 66.761702
14534 15 1 -7.420738 -6.915651 67.439653
14535 15 1 -7.192418 -7.670272 66.824498
14536 15 1 -7.384284 -8.238839 67.624447
14537 15 1 -7.402714 -8.967910 66.940257
14538 15 1 -7.834517 -9.744692 66.481830
14539 15 1 -6.949404 -9.723350 66.946716
14540 15 1 -6.908447 -10.571124 67.475490
14541 15 1 -7.685920 -11.138722 67.204626
14542 15 1 -8.597128 -10.740433 67.309822
14543 15 1 -9.263776 -11.485805 67.311250
14544 15 1 -9.179355 -12.319324 67.857253
14545 15 1 -9.554606 -12.048987 68.743878
14546 15 1 -9.418656 -13.039477 68.765051
14547 15 1 -9.288763 -12.699967 69.696642
14548 15 1 -8.419740 -12.762854 70.187400
14549 15 1 -7.566447 -12.922499 70.683792
14550 15 1 -6.790324 -12.796607 70.065906
14551 15 1 -6.512117 -13.626621 70.549307
14552 15 1 -6.689759 -13.650116 69.565493
14553 15 1 -6.956579 -13.347828 68.650381
14554 15 1 -6.041969 -13.634117 68.935909
14555 15 1 -5.551626 -13.794470 68.079258
14556 15 1 -5.163856 -13.185302 67.387486
14557 15 1 -4.639348 -12.334395 67.358358
14558 15 1 -4.958892 -11.524626 66.866255
14559 15 1 -4.782495 -10.942515 67.660000
14560 15 1 -4.351229 -10.300450 68.293847
14561 15 1 -4.850054 -9.706851 67.662330
14562 15 1 -5.064295 -8.743720 67.825059
14563 15 1 -4.344063 -8.160151 68.200176
14564 15 1 -4.762227 -8.988187 68.573665
14565 15 1 -5.482269 -9.394082 69.136506
14566 15 1 -4.848727 -10.164185 69.211109
14567 15 1 -5.280652 -10.910494 69.717532
14568 15 1 -6.176492 -10.690463 69.331453
14569 15 1 -6.822470 -10.023392 68.960335
14570 15 1 -7.433851 -10.603255 68.421844
14571 15 1 -7.708362 -9.794033 68.941270
14572 15 1 -8.510272 -9.213721 69.083315
14573 15 1 -9.367836 -9.141840 68.573984
14574 15 1 -9.359689 -8.164901 68.787347
14575 15 1 -8.636649 -8.690878 68.339505
14576 15 1 -9.578667 -8.507759 68.058312
14577 15 1 -9.095245 -8.748668 67.216727
14578 15 1 -8.169080 -8.464338 67.464468
14579 15 1 -7.720505 -8.368220 68.353029
14580 15 1 -6.757513 -8.529345 68.569094
14581 15 1 -6.190895 -9.353302 68.575286
14582 15 1 -6.227136 -9.452059 67.580834
14583 15 1 -5.390632 -9.244451 67.073725
14584 15 1 -5.359370 -10.126302 66.603234
14585 15 1 -5.747273 -10.877365 66.068973
14586 15 1 -6.641821 -11.309304 66.183922
14587 15 1 -7.531807 -11.763011 66.229461
14588 15 1 -7.667554 -11.912934 65.250127
14589 15 1 -7.319973 -12.381176 64.437762
14590 15 1 -6.926520 -11.867629 63.675224
14591 15 1 -6.291979 -11.934313 64.445232
14592 15 1 -6.136427 -10.970812 64.227357
14593 15 1 -5.720915 -10.155467 64.630546
14594 15 1 -6.057468 -10.899297 65.207997
14595 15 1 -6.875252 -10.676062 64.677530
14596 15 1 -6.748795 -9.737755 64.999382
14597 15 1 -7.468544 -9.132442 64.659445
14598 15 1 -6.916116 -8.300202 64.706358
14599 15 1 -6.068085 -7.780514 64.602594
14600 15 1 -5.688051 -7.731054 65.526243
14601 15 1 -4.845642 -7.747254 66.064839
14602 15 1 -4.300616 -7.945861 66.879395
14603 15 1 -4.531823 -7.126342 67.403735
14604 15 1 -4.342156 -6.145134 67.368264
14605 15 1 -5.199450 -5.743770 67.690684
14606 15 1 -5.716884 -6.564453 67.448320
14607 15 1 -4.948617 -6.766915 68.055589
14608 15 1 -4.585850 -7.403537 68.736112
14609 15 1 -4.902004 -6.574958 69.198175
14610 15 1 -4.921862 -5.798375 68.568473
14611 15 1 -5.292019 -5.194051 69.274005
14612 15 1 -4.622098 -4.454466 69.209046
14613 15 1 -4.394550 -3.900864 68.407954
14614 15 1 -4.892142 -4.763976 68.494209
14615 15 1 -5.101450 -4.872192 67.522365
14616 15 1 -5.016013 -4.022040 67.002805
14617 15 1 -5.296806 -3.101924 67.275829
14618 15 1 -5.747072 -3.155021 66.384515
14619 15 1 -6.097803 -2.371725 65.871256
14620 15 1 -6.450877 -1.442894 65.758950
14621 15 1 -7.286287 -1.248260 65.244938
14622 15 1 -6.323296 -1.182948 64.983437
14623 15 1 -5.799838 -1.783053 64.378569
14624 15 1 -6.180843 -1.733010 63.455352
14625 15 1 -5.220840 -1.963198 63.614748
14626 15 1 -5.319096 -0.969561 63.669802
14627 15 1 -5.572574 -0.671846 62.749414
14628 15 1 -4.894776 0.015714 62.488932
14629 15 1 -5.407631 0.175356 61.645431
14630 15 1 -5.885549 0.628343 62.398024
14631 15 1 -6.840417 0.821179 62.623950
14632 15 1 -6.518243 -0.007739 62.166675
14633 15 1 -6.854117 -0.566938 62.924623
14634 15 1 -7.352482 -1.432692 62.878783
14635 15 1 -7.639064 -1.659944 61.948070
14636 15 1 -6.771455 -2.025210 61.610677
14637 15 1 -6.078422 -1.976086 62.329907
14638 15 1 -5.200514 -2.444007 62.228286
14639 15 1 -4.560083 -2.369773 61.463866
14640 15 1 -4.234078 -3.308864 61.355100
14641 15 1 -4.891428 -4.020495 61.603034
14642 15 1 -5.273438 -3.511603 62.374459
14643 15 1 -4.310323 -3.716516 62.548876
14644 15 1 -3.909294 -4.621260 62.692449
14645 15 1 -3.331203 -5.359882 63.039219
14646 15 1 -3.465601 -5.178811 62.064976
14647 15 1 -4.369958 -5.543299 62.286984
14648 15 1 -5.247710 -5.154015 62.007683
14649 15 1 -4.818666 -4.825386 61.166301
14650 15 1 -3.909271 -4.630696 61.533855
14651 15 1 -4.183008 -4.548024 60.575610
14652 15 1 -4.005490 -5.498471 60.830832
14653 15 1 -4.106622 -5.636633 59.845599
14654 15 1 -3.434734 -5.987673 59.193421
14655 15 1 -3.858565 -5.738668 58.322580
14656 15 1 -4.610650 -6.119533 58.860456
14657 15 1 -5.485050 -6.166396 58.377520
14658 15 1 -5.081862 -5.957742 57.486508
14659 15 1 -4.863155 -5.397904 58.285725
14660 15 1 -4.901359 -4.704699 57.565998
14661 15 1 -5.035211 -4.884449 56.591434
14662 15 1 -4.343773 -5.138074 55.914982
14663 15 1 -3.778729 -5.167101 55.090432
14664 15 1 -3.719921 -5.907236 55.760314
14665 15 1 -4.094921 -6.184422 54.875699
14666 15 1 -4.012998 -6.981062 54.276822
14667 15 1 -3.221146 -7.232606 53.720319
14668 15 1 -3.724701 -7.894404 54.275707
14669 15 1 -4.391390 -8.459845 54.761302
14670 15 1 -4.201317 -8.113222 55.679847
14671 15 1 -4.707183 -8.750507 56.261196
14672 15 1 -5.390747 -9.479156 56.303753
14673 15 1 -5.797294 -8.840859 56.957432
14674 15 1 -6.227519 -9.495709 57.578783
14675 15 1 -6.495739 -9.861948 58.469809
14676 15 1 -6.393247 -9.059748 59.058003
14677 15 1 -5.556269 -8.540614 58.884893
14678 15 1 -5.203639 -8.394459 57.960614
14679 15 1 -6.148590 -8.120700 58.139846
14680 15 1 -5.410958 -7.455201 58.253908
14681 15 1 -5.801457 -6.819371 57.588151
14682 15 1 -6.719826 -7.215095 57.588628
14683 15 1 -7.090876 -8.033768 58.026917
14684 15 1 -6.919428 -8.818815 57.431679
14685 15 1 -7.816055 -8.834738 57.874179
14686 15 1 -8.726787 -9.246783 57.902224
14687 15 1 -8.836661 -9.428734 58.879374
14688 15 1 -9.667397 -9.849175 59.244212
14689 15 1 -10.589781 -9.968893 58.876959
14690 15 1 -10.994914 -9.340772 58.212631
14691 15 1 -11.084757 -9.889544 57.381500
14692 15 1 -10.501288 -9.078072 57.414321
14693 15 1 -9.604528 -8.676451 57.228521
14694 15 1 -8.617010 -8.520253 57.208249
14695 15 1 -7.880796 -8.217668 56.602913
14696 15 1 -7.663810 -8.586050 55.698915
14697 15 1 -7.707304 -9.486084 55.265273
14698 15 1 -7.894022 -8.963147 54.433604
14699 15 1 -8.700703 -9.022049 55.021649
14700 15 1 -9.124888 -8.288501 55.552662
14701 15 1 -8.718390 -7.637843 56.194069
14702 15 1 -8.983941 -6.942158 55.526608
14703 15 1 -9.498468 -7.066583 54.678208
14704 15 1 -10.179673 -7.795541 54.745889
14705 15 1 -10.743208 -7.030422 55.057372
14706 15 1 -10.328095 -6.395994 54.405312
14707 15 1 -9.986070 -6.108562 55.299964
14708 15 1 -10.839381 -5.786948 54.889570
14709 15 1 -10.937692 -5.748343 55.883976
14710 15 1 -11.490230 -5.969039 56.687714
14711 15 1 -12.258012 -5.389926 56.413599
14712 15 1 -11.595666 -4.641579 56.377927
14713 15 1 -11.756806 -4.418115 57.339227
14714 15 1 -11.333132 -3.633815 57.792408
14715 15 1 -10.449058 -3.200487 57.617365
14716 15 1 -9.803151 -2.522178 57.267080
14717 15 1 -9.505390 -3.404793 56.903310
14718 15 1 -10.078970 -4.131815 57.280730
14719 15 1 -9.474913 -4.618144 56.649383
14720 15 1 -8.641814 -4.087708 56.806178
14721 15 1 -8.459422 -4.049199 55.823707
14722 15 1 -7.600914 -3.752450 56.241922
14723 15 1 -7.656539 -3.087528 56.986760
14724 15 1 -7.622966 -2.766103 57.933100
14725 15 1 -8.261057 -3.487049 58.203425
14726 15 1 -8.870178 -2.843442 58.666827
14727 15 1 -9.602379 -3.247602 58.118616
14728 15 1 -9.548370 -3.742047 58.986145
14729 15 1 -10.270602 -4.163667 58.437859
14730 15 1 -10.693658 -5.067288 58.370834
14731 15 1 -11.286465 -4.441583 58.877857
14732 15 1 -11.663780 -3.888013 59.620282
14733 15 1 -10.920402 -3.225296 59.710800
14734 15 1 -11.717849 -2.670311 59.474008
14735 15 1 -11.458091 -3.428438 58.875869
14736 15 1 -11.590684 -2.592438 58.343401
14737 15 1 -11.546233 -1.654377 57.999793
14738 15 1 -10.906409 -0.894994 58.117957
14739 15 1 -11.485332 -0.223603 58.580647
14740 15 1 -12.459706 -0.372470 58.412023
14741 15 1 -12.354936 -0.349658 57.417789
14742 15 1 -11.627978 -0.970683 57.124773
14743 15 1 -12.586091 -1.245569 57.205122
14744 15 1 -13.510958 -1.428295 56.871608
14745 15 1 -13.676975 -0.618655 56.308649
14746 15 1 -14.503292 -1.052412 56.667894
14747 15 1 -14.429917 -0.860130 55.689301
14748 15 1 -15.400558 -0.705846 55.873834
14749 15 1 -15.935457 -0.802394 55.034453
14750 15 1 -16.656694 -0.239250 54.631109
14751 15 1 -17.155979 -0.563576 53.827662
14752 15 1 -16.923831 -1.502180 54.082870
14753 15 1 -15.994036 -1.558541 53.719133
14754 15 1 -16.498095 -2.204761 54.292128
14755 15 1 -16.410920 -2.807714 53.499129
14756 15 1 -16.529583 -1.864066 53.190182
14757 15 1 -17.448430 -2.015597 52.825822
14758 15 1 -17.440079 -2.064130 53.824609
14759 15 1 -18.295473 -1.576077 53.998122
14760 15 1 -17.675178 -2.021646 54.643647
14761 15 1 -17.054203 -2.673381 55.079114
14762 15 1 -17.371913 -2.504319 56.012109
14763 15 1 -17.975154 -1.762407 56.304797
14764 15 1 -18.162475 -2.703721 56.585580
14765 15 1 -18.250983 -3.536296 56.038783
14766 15 1 -17.730979 -4.283316 56.452977
14767 15 1 -16.839002 -4.394745 56.891109
14768 15 1 -15.876941 -4.452130 56.624377
14769 15 1 -15.106014 -4.264659 57.233086
14770 15 1 -14.402100 -4.339166 57.939452
14771 15 1 -14.743189 -5.120768 58.461714
14772 15 1 -14.759171 -5.133857 59.461500
14773 15 1 -14.593550 -5.974487 59.977166
14774 15 1 -14.085848 -5.115285 59.913831
14775 15 1 -14.705691 -4.537838 60.445197
14776 15 1 -15.586729 -4.873495 60.778522
14777 15 1 -16.268781 -5.594897 60.658590
14778 15 1 -17.094118 -6.123142 60.459150
14779 15 1 -16.642948 -7.013337 60.395921
14780 15 1 -16.878243 -7.158418 61.356956
14781 15 1 -16.030062 -7.376661 60.874297
14782 15 1 -16.237771 -8.281549 61.245828
14783 15 1 -16.911119 -8.644622 60.601794
14784 15 1 -17.911026 -8.657976 60.604730
14785 15 1 -18.723374 -8.549058 61.177641
14786 15 1 -18.695860 -7.715917 61.730017
14787 15 1 -18.200782 -8.013541 62.546300
14788 15 1 -17.343869 -8.064581 62.033372
14789 15 1 -16.888243 -7.835490 62.893560
14790 15 1 -16.403670 -8.381364 62.210031
14791 15 1 -15.779352 -7.669828 61.887628
14792 15 1 -16.309039 -7.055313 62.472266
14793 15 1 -15.438495 -6.639302 62.735113
14794 15 1 -14.682344 -7.272221 62.901396
14795 15 1 -14.110266 -7.365404 63.716284
14796 15 1 -14.524501 -7.655823 64.578876
14797 15 1 -15.320861 -8.144648 64.935051
14798 15 1 -14.725107 -7.508451 65.425285
14799 15 1 -15.545148 -7.278086 64.901391
14800 15 1 -16.246354 -6.587743 64.723244
14801 15 1 -17.178308 -6.944651 64.787111
14802 15 1 -17.378678 -6.798229 63.818395
14803 15 1 -16.797746 -5.987497 63.890729
14804 15 1 -16.468660 -5.046931 63.806837
14805 15 1 -15.743909 -5.614860 63.416719
14806 15 1 -15.765955 -6.292324 64.151944
14807 15 1 -15.291316 -5.415235 64.078244
14808 15 1 -14.893530 -4.903668 64.839864
14809 15 1 -14.801918 -3.935562 64.606673
14810 15 1 -15.196384 -3.033263 64.780609
14811 15 1 -16.044068 -2.883334 65.289482
14812 15 1 -16.204940 -3.847716 65.499454
14813 15 1 -15.221561 -3.812628 65.677595
14814 15 1 -14.546407 -4.440210 66.065291
14815 15 1 -15.019762 -4.778682 66.878538
14816 15 1 -15.179656 -5.357181 66.078681
14817 15 1 -15.755788 -6.073631 65.685270
14818 15 1 -16.641697 -5.660621 65.896431
14819 15 1 -17.196576 -6.345087 66.369311
14820 15 1 -18.191971 -6.423574 66.314275
14821 15 1 -19.113696 -6.295247 66.680274
14822 15 1 -18.865121 -5.872011 67.551528
14823 15 1 -19.338066 -5.048746 67.865466
14824 15 1 -19.429212 -4.125610 68.238980
14825 15 1 -19.140327 -3.573860 69.021359
14826 15 1 -19.010788 -3.410890 69.999449
14827 15 1 -18.669279 -2.617061 69.496252
14828 15 1 -19.320405 -2.132738 68.911901
14829 15 1 -20.086429 -1.727485 68.412927
14830 15 1 -20.022861 -2.565477 67.870960
14831 15 1 -19.235150 -3.168558 67.996673
14832 15 1 -18.551644 -3.852161 67.740730
14833 15 1 -19.310329 -4.096765 67.136938
14834 15 1 -19.718800 -4.430951 66.287544
14835 15 1 -19.728041 -4.163300 65.324072
14836 15 1 -19.887311 -3.289598 64.864424
14837 15 1 -19.931992 -2.674618 64.077147
14838 15 1 -20.642586 -3.099095 64.638285
14839 15 1 -20.404653 -3.285476 65.591516
14840 15 1 -20.589408 -4.261048 65.710361
14841 15 1 -21.529125 -4.564038 65.551841
14842 15 1 -22.067504 -3.947156 64.977729
14843 15 1 -22.112869 -3.597647 64.041895
14844 15 1 -22.882261 -3.743473 64.663804
14845 15 1 -22.278924 -4.464911 64.323931
14846 15 1 -23.248891 -4.599378 64.121240
14847 15 1 -23.819175 -3.779269 64.168100
14848 15 1 -24.379064 -4.607593 64.148008
14849 15 1 -24.689981 -4.605515 63.197573
14850 15 1 -23.761334 -4.396615 62.891020
14851 15 1 -23.193883 -4.889605 62.231504
14852 15 1 -22.974523 -5.449808 63.030287
14853 15 1 -22.011541 -5.495599 62.764640
14854 15 1 -21.476758 -4.652069 62.715010
14855 15 1 -21.159909 -4.865157 61.790780
14856 15 1 -20.781329 -4.301243 61.056833
14857 15 1 -20.599577 -4.323198 62.039932
14858 15 1 -20.025603 -3.612142 62.446077
14859 15 1 -19.907556 -2.854361 63.087818
14860 15 1 -19.606548 -2.026205 62.615006
14861 15 1 -18.811763 -2.427457 62.159689
14862 15 1 -18.800735 -3.415061 62.316268
14863 15 1 -18.809429 -4.262260 61.785063
14864 15 1 -18.689750 -5.026402 62.418910
14865 15 1 -18.609531 -5.497925 63.297108
14866 15 1 -18.930740 -6.429246 63.468764
14867 15 1 -18.721111 -5.945436 62.619068
14868 15 1 -19.686029 -5.942124 62.881600
14869 15 1 -20.583646 -5.502280 62.852961
14870 15 1 -20.978371 -5.598688 63.766689
14871 15 1 -21.831597 -5.992554 64.108558
14872 15 1 -21.189982 -5.618713 64.778313
14873 15 1 -20.894957 -5.884973 65.695954
14874 15 1 -21.309712 -5.576019 66.551831
14875 15 1 -21.969382 -5.794725 65.832802
14876 15 1 -22.956552 -5.665415 65.926472
14877 15 1 -22.760259 -6.632572 65.764989
14878 15 1 -23.351905 -7.438375 65.790233
14879 15 1 -23.627697 -6.821025 66.526995
14880 15 1 -23.917951 -6.817101 67.483936
14881 15 1 -23.012041 -6.844009 67.906551
14882 15 1 -23.827196 -6.443180 68.324712
14883 15 1 -24.606696 -5.828043 68.442977
14884 15 1 -25.466142 -6.278396 68.684916
14885 15 1 -25.896419 -6.161847 67.789775
14886 15 1 -26.334886 -5.264954 67.732068
14887 15 1 -26.683878 -4.379283 68.038323
14888 15 1 -27.473841 -3.944892 68.471061
14889 15 1 -26.633251 -3.411928 68.374334
14890 15 1 -27.057462 -3.390999 67.469012
14891 15 1 -27.379509 -3.503253 66.528967
14892 15 1 -27.956733 -4.125264 65.999898
14893 15 1 -28.768676 -3.549966 65.901000
14894 15 1 -29.328612 -3.087115 65.213802
14895 15 1 -30.284129 -2.792461 65.200893
14896 15 1 -30.453547 -3.146137 66.120790
14897 15 1 -29.857996 -3.940084 66.243129
14898 15 1 -30.408640 -4.245960 67.019808
14899 15 1 -31.137372 -3.853416 67.580930
14900 15 1 -31.748223 -3.193406 68.018250
14901 15 1 -31.109966 -2.593280 68.500410
14902 15 1 -30.908649 -2.751258 67.533707
14903 15 1 -31.362691 -2.029079 67.011879
14904 15 1 -30.396984 -1.773542 66.965932
14905 15 1 -29.682516 -2.472453 66.933371
14906 15 1 -29.401175 -2.623876 65.985785
14907 15 1 -28.477666 -2.549556 65.609478
14908 15 1 -28.649466 -1.591872 65.840404
14909 15 1 -28.437983 -1.024038 65.044892
14910 15 1 -27.696583 -1.643531 64.786908
14911 15 1 -27.775936 -1.335292 65.734902
14912 15 1 -27.418483 -2.267144 65.797183
14913 15 1 -26.438431 -2.116079 65.926325
14914 15 1 -26.607498 -1.381303 66.583227
14915 15 1 -26.316704 -1.444110 67.537949
14916 15 1 -25.776292 -0.907303 68.185863
14917 15 1 -26.071581 -1.823535 68.456643
14918 15 1 -26.752955 -2.126173 69.123082
14919 15 1 -26.265585 -2.718001 69.765118
14920 15 1 -25.625152 -3.403355 69.418514
14921 15 1 -25.016690 -3.978380 68.871596
14922 15 1 -25.087012 -4.197975 69.844649
14923 15 1 -24.950494 -4.837234 69.087873
14924 15 1 -24.007976 -5.128547 68.924174
14925 15 1 -24.589923 -5.320963 69.714309
14926 15 1 -25.537843 -5.417116 70.017958
14927 15 1 -26.262383 -4.991973 69.475468
14928 15 1 -26.399423 -5.892190 69.888782
14929 15 1 -26.897148 -6.374615 70.609571
14930 15 1 -27.485749 -6.677817 69.860160
14931 15 1 -27.205916 -6.754297 68.903163
14932 15 1 -26.324706 -6.354790 69.155874
14933 15 1 -26.248693 -6.955203 69.951943
14934 15 1 -26.929997 -7.671114 69.799317
14935 15 1 -26.215289 -7.373125 69.166549
14936 15 1 -26.562055 -8.224177 68.772260
14937 15 1 -25.902432 -8.297300 69.520291
14938 15 1 -25.734860 -8.975214 70.236079
14939 15 1 -25.655594 -8.372136 71.029813
14940 15 1 -26.226683 -9.192996 71.023029
14941 15 1 -26.925019 -8.494662 70.866002
14942 15 1 -26.609334 -8.439406 69.918748
14943 15 1 -27.458578 -8.595672 69.414402
14944 15 1 -27.841075 -8.294451 70.287879
14945 15 1 -27.847002 -7.747515 71.125032
14946 15 1 -27.887604 -7.727047 72.123998
14947 15 1 -28.480812 -8.478817 72.412002
14948 15 1 -29.125186 -8.543789 73.173948
14949 15 1 -29.780455 -8.248662 73.869306
14950 15 1 -30.000061 -7.293849 74.069569
14951 15 1 -30.326959 -7.118782 74.998272
14952 15 1 -31.143176 -7.152679 75.575022
14953 15 1 -31.287841 -7.339641 76.546679
14954 15 1 -32.126106 -6.988153 76.129823
14955 15 1 -32.286326 -7.592372 76.910367
14956 15 1 -31.982575 -6.714305 77.280141
14957 15 1 -31.546414 -6.154560 77.984733
14958 15 1 -31.734833 -5.669998 77.130509
14959 15 1 -31.795871 -4.673621 77.071273
14960 15 1 -31.867647 -4.497221 78.052971
14961 15 1 -32.577633 -3.881972 77.710351
14962 15 1 -33.203465 -4.518264 78.161423
14963 15 1 -32.561565 -4.540467 78.927890
14964 15 1 -32.383910 -4.772332 79.884277
14965 15 1 -31.923028 -5.631176 80.107828
14966 15 1 -31.499583 -5.175102 79.325082
14967 15 1 -30.928023 -5.971892 79.521158
14968 15 1 -31.254545 -6.916800 79.544218
14969 15 1 -30.336325 -6.866405 79.151366
14970 15 1 -30.130174 -6.005213 79.615962
14971 15 1 -29.709757 -6.405106 78.801509
14972 15 1 -29.066918 -6.990436 78.307396
14973 15 1 -28.512178 -7.755178 78.635166
14974 15 1 -29.287317 -7.900680 79.249973
14975 15 1 -29.219805 -7.645791 80.214583
14976 15 1 -28.583171 -8.360373 79.924636
14977 15 1 -27.677700 -8.326690 79.501567
14978 15 1 -27.550643 -9.317814 79.540686
14979 15 1 -27.728436 -9.564852 80.493241
14980 15 1 -27.107625 -9.568503 81.277193
14981 15 1 -27.465319 -10.460793 81.552645
14982 15 1 -27.161552 -11.251334 82.084407
14983 15 1 -26.624537 -11.804845 81.447822
14984 15 1 -25.720827 -12.056302 81.101299
14985 15 1 -26.058422 -12.897614 80.679132
14986 15 1 -26.542757 -13.681284 81.068080
14987 15 1 -26.606162 -14.662372 81.250960
14988 15 1 -25.849417 -14.279594 80.721038
14989 15 1 -25.076659 -14.813071 81.064908
14990 15 1 -25.270832 -15.750709 80.776584
14991 15 1 -24.411469 -15.324415 80.494153
14992 15 1 -24.597422 -15.386380 79.513550
14993 15 1 -25.198854 -14.821191 80.078210
14994 15 1 -25.845142 -14.413500 79.433153
14995 15 1 -24.980094 -14.791731 79.103558
14996 15 1 -24.748811 -13.877181 78.771736
14997 15 1 -24.154793 -13.078524 78.675353
14998 15 1 -24.844650 -12.396633 78.918502
14999 15 1 -24.629327 -12.860249 79.777976
15000 15 1 -25.069509 -13.668469 80.169153
15001 16 1 -15.272363 -60.474159 76.411634
15002 16 1 -14.550659 -59.820114 76.184987
15003 16 1 -14.270540 -60.615766 76.722083
15004 16 1 -13.977266 -60.325971 75.811034
15005 16 1 -13.061109 -60.231471 75.421516
15006 16 1 -12.951558 -59.574814 74.675324
15007 16 1 -13.639890 -59.180992 75.284507
15008 16 1 -14.616873 -58.969588 75.256009
15009 16 1 -14.266676 -59.280375 74.372395
15010 16 1 -14.205160 -58.323935 74.657769
15011 16 1 -13.377630 -58.788897 74.343119
15012 16 1 -13.612580 -58.587936 73.392112
15013 16 1 -12.884061 -58.001022 73.038853
15014 16 1 -13.352531 -58.581754 72.373056
15015 16 1 -13.624225 -57.949757 71.647272
15016 16 1 -13.404727 -58.910530 71.477754
15017 16 1 -13.319363 -59.905970 71.435187
15018 16 1 -12.580270 -60.516448 71.150480
15019 16 1 -13.134236 -60.484171 70.318566
15020 16 1 -13.314281 -60.478572 69.334924
15021 16 1 -12.944588 -61.368630 69.601616
15022 16 1 -12.090701 -60.958186 69.281596
15023 16 1 -12.395035 -61.243838 70.190322
15024 16 1 -12.814906 -62.118688 69.948773
15025 16 1 -12.504980 -62.545600 69.099248
15026 16 1 -12.733939 -61.706601 68.605630
15027 16 1 -11.881994 -61.780486 69.124023
15028 16 1 -11.113107 -61.280090 69.522038
15029 16 1 -11.438110 -61.165874 68.583247
15030 16 1 -10.507547 -61.030035 68.923249
15031 16 1 -10.302890 -60.536940 69.768809
15032 16 1 -10.716777 -60.366996 70.663134
15033 16 1 -10.453797 -61.228076 71.098313
15034 16 1 -9.688035 -60.678931 70.763578
15035 16 1 -9.034426 -60.035990 71.162857
15036 16 1 -9.793548 -60.304932 71.755650
15037 16 1 -10.407398 -60.921232 72.248968
15038 16 1 -10.830921 -61.720332 72.675663
15039 16 1 -11.364571 -62.352473 73.237459
15040 16 1 -11.649188 -63.120647 72.663959
15041 16 1 -12.185590 -63.762228 73.212272
15042 16 1 -12.189841 -64.431286 73.955471
15043 16 1 -11.812417 -64.545840 74.874399
15044 16 1 -11.091164 -64.584267 74.182793
15045 16 1 -10.169044 -64.809597 74.497308
15046 16 1 -9.964749 -65.476319 73.780548
15047 16 1 -10.852090 -65.880911 74.001753
15048 16 1 -9.927441 -66.063350 74.336030
15049 16 1 -9.701709 -65.737869 75.254238
15050 16 1 -9.449920 -66.589209 74.793997
15051 16 1 -8.578771 -66.304554 74.393908
15052 16 1 -8.124727 -65.421717 74.273730
15053 16 1 -9.111041 -65.585797 74.289924
15054 16 1 -8.934511 -64.807541 73.687301
15055 16 1 -8.912509 -64.645950 74.673914
15056 16 1 -8.089240 -64.307168 75.129386
15057 16 1 -8.799549 -63.767550 74.677420
15058 16 1 -8.471570 -63.533324 73.762233
15059 16 1 -9.242223 -63.001986 73.410418
15060 16 1 -9.822201 -63.813660 73.341051
15061 16 1 -9.380602 -64.491083 72.752759
15062 16 1 -9.672920 -64.607410 71.803539
15063 16 1 -8.742047 -64.972621 71.813285
15064 16 1 -7.875465 -64.963670 72.312239
15065 16 1 -7.868191 -64.014638 72.627334
15066 16 1 -7.951864 -64.675265 73.373371
15067 16 1 -7.431220 -64.598431 74.223681
15068 16 1 -6.432294 -64.640772 74.242514
15069 16 1 -6.636892 -63.699290 74.510378
15070 16 1 -5.997636 -63.910322 73.770907
15071 16 1 -6.790954 -64.443842 73.477643
15072 16 1 -7.194418 -63.536065 73.362939
15073 16 1 -7.207762 -63.297684 72.391859
15074 16 1 -6.465435 -63.140782 73.043267
15075 16 1 -6.274460 -62.182853 72.829023
15076 16 1 -6.530277 -61.217815 72.886118
15077 16 1 -6.241870 -60.732246 73.711372
15078 16 1 -6.180641 -61.717586 73.870611
15079 16 1 -5.658580 -61.643410 73.020934
15080 16 1 -6.007866 -61.071236 72.278899
15081 16 1 -6.348940 -61.183707 71.345615
15082 16 1 -6.857663 -60.504275 70.816869
15083 16 1 -6.774397 -59.528513 70.614497
15084 16 1 -7.031367 -59.496945 69.648593
15085 16 1 -7.817842 -60.059014 69.904590
15086 16 1 -7.765603 -60.072161 68.906042
15087 16 1 -7.419354 -60.928960 69.288151
15088 16 1 -6.522825 -60.499525 69.396877
15089 16 1 -5.761845 -61.111079 69.613468
15090 16 1 -6.719050 -61.324638 69.808792
15091 16 1 -7.677784 -61.608122 69.787242
15092 16 1 -7.258456 -61.993430 70.609253
15093 16 1 -7.857842 -61.333639 71.062478
15094 16 1 -8.452797 -61.760629 70.381517
15095 16 1 -8.909351 -62.650052 70.403549
15096 16 1 -8.756924 -62.808753 71.379038
15097 16 1 -8.725261 -63.729491 70.990143
15098 16 1 -7.956258 -64.360684 70.888998
15099 16 1 -7.316333 -65.083589 70.628413
15100 16 1 -7.761855 -65.966506 70.480196
15101 16 1 -8.113429 -65.758138 69.567520
15102 16 1 -8.155197 -65.192582 68.743869
15103 16 1 -7.635933 -65.061785 67.899323
15104 16 1 -7.496010 -64.425941 67.140295
15105 16 1 -8.441759 -64.719352 67.279826
15106 16 1 -8.142161 -64.480115 66.356242
15107 16 1 -7.418276 -65.145031 66.540298
15108 16 1 -6.524561 -64.747337 66.332661
15109 16 1 -6.419176 -65.632631 66.785594
15110 16 1 -6.650689 -65.681101 65.813971
15111 16 1 -5.993461 -66.335816 65.440609
15112 16 1 -5.240657 -66.842103 65.019943
15113 16 1 -4.511479 -66.202834 65.264146
15114 16 1 -3.626535 -66.403060 64.843689
15115 16 1 -3.205729 -66.651857 63.971323
15116 16 1 -2.229285 -66.856563 63.903111
15117 16 1 -1.904261 -67.373158 64.695253
15118 16 1 -2.769118 -67.841046 64.513315
15119 16 1 -3.064037 -68.227510 65.387196
15120 16 1 -2.257972 -68.057057 65.953946
15121 16 1 -2.352590 -67.257206 66.546639
15122 16 1 -3.094435 -67.342126 65.881467
15123 16 1 -3.696996 -67.044351 66.621906
15124 16 1 -2.848455 -66.619235 66.306860
15125 16 1 -2.588328 -65.805764 65.786669
15126 16 1 -2.632487 -65.923384 66.778745
15127 16 1 -1.933042 -66.617838 66.947595
15128 16 1 -1.101682 -66.166497 66.623354
15129 16 1 -1.094120 -67.001311 67.173835
15130 16 1 -0.203468 -67.261203 67.546925
15131 16 1 0.616804 -66.749957 67.290445
15132 16 1 0.685510 -66.791135 66.293658
15133 16 1 0.202086 -66.723491 65.420889
15134 16 1 0.511643 -67.524505 65.933287
15135 16 1 -0.126945 -68.204710 65.573389
15136 16 1 -0.522229 -67.858358 64.722630
15137 16 1 -0.762110 -67.099785 65.328456
15138 16 1 -0.677077 -66.369946 64.650146
15139 16 1 -1.310975 -65.995718 63.973295
15140 16 1 -0.649396 -66.070319 63.227139
15141 16 1 -0.686905 -65.131960 62.883518
15142 16 1 0.146942 -65.629559 63.122462
15143 16 1 0.263412 -64.771641 62.622050
15144 16 1 0.264043 -64.804600 63.621506
15145 16 1 0.263040 -64.034326 64.259218
15146 16 1 -0.573906 -64.481272 63.943370
15147 16 1 -0.540714 -64.670161 64.924808
15148 16 1 -0.322866 -65.004357 65.841789
15149 16 1 -0.875847 -65.776310 65.528262
15150 16 1 -1.498469 -66.476907 65.876839
15151 16 1 -1.732222 -65.531590 66.104296
15152 16 1 -2.031007 -65.499674 65.150509
15153 16 1 -1.274614 -64.920801 65.455098
15154 16 1 -1.435291 -63.936801 65.378107
15155 16 1 -2.188907 -63.950881 64.720943
15156 16 1 -1.766669 -64.704292 64.216872
15157 16 1 -2.609537 -65.142495 64.529203
15158 16 1 -2.442654 -64.807134 63.602013
15159 16 1 -2.648055 -65.570105 62.989080
15160 16 1 -3.458369 -65.468324 63.566170
15161 16 1 -3.358358 -64.626006 63.036549
15162 16 1 -3.339286 -64.136328 63.908244
15163 16 1 -4.150189 -64.016943 63.335371
15164 16 1 -5.051114 -63.585987 63.386473
15165 16 1 -5.504336 -64.346443 63.851550
15166 16 1 -5.928365 -64.315641 64.756675
15167 16 1 -5.409678 -63.876344 65.490147
15168 16 1 -4.995279 -64.668762 65.937747
15169 16 1 -4.688645 -65.314539 65.238499
15170 16 1 -4.430571 -65.446378 64.281412
15171 16 1 -5.073749 -65.112183 63.592474
15172 16 1 -5.705296 -65.285047 64.348295
15173 16 1 -6.572498 -65.333696 63.852721
15174 16 1 -6.087333 -66.010603 64.406266
15175 16 1 -6.189186 -66.795292 63.794802
15176 16 1 -7.175864 -66.957206 63.810639
15177 16 1 -7.565689 -67.830207 64.103736
15178 16 1 -6.597997 -68.029547 63.949350
15179 16 1 -5.903122 -68.529755 63.432687
15180 16 1 -6.094551 -69.511161 63.446779
15181 16 1 -5.261133 -69.694484 62.925427
15182 16 1 -5.615258 -70.600573 63.156938
15183 16 1 -5.390123 -70.743448 62.193143
15184 16 1 -4.600288 -71.216595 62.583389
15185 16 1 -5.084610 -72.084526 62.693515
15186 16 1 -5.385464 -73.012634 62.912838
15187 16 1 -5.997536 -73.250904 62.158785
15188 16 1 -6.084249 -74.082569 61.610319
15189 16 1 -6.048456 -73.161260 61.223139
15190 16 1 -6.170577 -72.183755 61.051175
15191 16 1 -6.285053 -72.960441 60.431777
15192 16 1 -6.572048 -72.431784 59.632930
15193 16 1 -6.457795 -72.523423 58.643714
15194 16 1 -5.499337 -72.644840 58.901812
15195 16 1 -5.520016 -73.113018 59.785204
15196 16 1 -5.309850 -74.090625 59.774450
15197 16 1 -5.635867 -74.807311 60.390951
15198 16 1 -5.724516 -73.857467 60.690849
15199 16 1 -6.125462 -74.215427 59.847577
15200 16 1 -6.630582 -73.673529 59.175862
15201 16 1 -7.522607 -73.222580 59.206458
15202 16 1 -8.037206 -73.140168 60.059920
15203 16 1 -8.185707 -72.227477 59.679207
15204 16 1 -8.341640 -71.482331 60.327621
15205 16 1 -8.898550 -70.701780 60.611510
15206 16 1 -8.532360 -70.481932 59.707313
15207 16 1 -8.026297 -70.356209 58.854028
15208 16 1 -7.075328 -70.571266 59.076306
15209 16 1 -6.159093 -70.242290 58.847637
15210 16 1 -5.741779 -70.934888 59.435988
15211 16 1 -5.597483 -71.083408 58.457663
15212 16 1 -6.284847 -71.781907 58.258589
15213 16 1 -6.695335 -72.307593 57.513503
15214 16 1 -6.697977 -73.214229 57.091598
15215 16 1 -7.165521 -74.095354 57.020725
15216 16 1 -8.123403 -74.055740 56.736311
15217 16 1 -7.754049 -73.126708 56.714478
15218 16 1 -8.150497 -72.480741 57.366824
15219 16 1 -7.943374 -71.692882 56.786843
15220 16 1 -7.804214 -72.089876 55.879633
15221 16 1 -8.410233 -72.395432 55.145210
15222 16 1 -8.225123 -72.784315 54.242711
15223 16 1 -7.278456 -73.078082 54.110337
15224 16 1 -7.100702 -72.711996 55.023783
15225 16 1 -6.574312 -72.098590 54.435016
15226 16 1 -5.922724 -72.638137 54.968235
15227 16 1 -6.461660 -73.139301 55.645275
15228 16 1 -6.849496 -73.680267 54.898991
15229 16 1 -6.534510 -74.601015 54.668758
15230 16 1 -5.840976 -74.484384 53.957838
15231 16 1 -5.392659 -75.227239 53.460669
15232 16 1 -5.834703 -76.012401 53.894395
15233 16 1 -6.626161 -75.515889 53.537927
15234 16 1 -7.116182 -75.953043 52.783755
15235 16 1 -6.281498 -76.446483 53.028337
15236 16 1 -5.608499 -75.736605 52.820624
15237 16 1 -6.072033 -74.852201 52.875079
15238 16 1 -6.112559 -74.927811 51.878766
15239 16 1 -6.891554 -75.542918 51.757071
15240 16 1 -7.881791 -75.480932 51.632217
15241 16 1 -8.537537 -75.889072 50.997064
15242 16 1 -9.169484 -76.575296 50.636871
15243 16 1 -10.070741 -76.895157 50.929146
15244 16 1 -10.725949 -77.113634 51.652312
15245 16 1 -11.178737 -77.971822 51.410454
15246 16 1 -12.130719 -78.127995 51.673780
15247 16 1 -12.596112 -78.875446 51.199727
15248 16 1 -13.432488 -79.344521 51.483352
15249 16 1 -12.949421 -80.009295 50.913508
15250 16 1 -13.044688 -79.592214 50.009646
15251 16 1 -12.688689 -78.715577 50.333332
15252 16 1 -13.050878 -77.846903 49.995361
15253 16 1 -12.862377 -76.991072 49.513676
15254 16 1 -13.769255 -76.664003 49.779379
15255 16 1 -13.877962 -76.299712 48.854460
15256 16 1 -14.855327 -76.095709 48.910489
15257 16 1 -14.991233 -76.954866 49.403824
15258 16 1 -14.857352 -76.072753 49.855436
15259 16 1 -14.688307 -75.652581 50.746996
15260 16 1 -14.021693 -76.024881 51.392766
15261 16 1 -13.885674 -76.656227 52.156245
15262 16 1 -13.638205 -76.945683 53.080893
15263 16 1 -14.637949 -76.961957 53.065218
15264 16 1 -15.161878 -77.682913 52.611654
15265 16 1 -14.884205 -78.178082 53.434883
15266 16 1 -15.765384 -77.926447 53.835137
15267 16 1 -15.775069 -76.938640 53.990519
15268 16 1 -16.735846 -77.192505 53.878888
15269 16 1 -17.243383 -78.006134 54.162461
15270 16 1 -17.855299 -77.487795 54.759858
15271 16 1 -18.042391 -76.682461 54.197333
15272 16 1 -18.602982 -76.521942 53.384947
15273 16 1 -18.261963 -76.766802 52.477341
15274 16 1 -17.908860 -76.057194 53.087074
15275 16 1 -18.811830 -76.086801 52.658393
15276 16 1 -19.484568 -76.571515 53.217388
15277 16 1 -20.113333 -76.054821 53.798492
15278 16 1 -20.029351 -75.081387 54.011500
15279 16 1 -19.442133 -74.375227 54.407118
15280 16 1 -19.166467 -73.868753 53.590116
15281 16 1 -18.733173 -73.099545 54.059771
15282 16 1 -19.643965 -73.206571 54.458523
15283 16 1 -20.183628 -73.111302 53.622050
15284 16 1 -20.253807 -73.957214 53.093364
15285 16 1 -19.568622 -74.477456 52.583590
15286 16 1 -19.772954 -75.215212 53.226990
15287 16 1 -19.269697 -75.618926 53.991023
15288 16 1 -19.188815 -75.712395 54.983355
15289 16 1 -18.255672 -76.045104 54.847161
15290 16 1 -18.602907 -76.033478 55.784867
15291 16 1 -18.212565 -76.949685 55.694326
15292 16 1 -18.667113 -77.734166 55.272453
15293 16 1 -19.237621 -77.765077 54.451743
15294 16 1 -19.075062 -77.458075 53.514021
15295 16 1 -20.050083 -77.660665 53.422966
15296 16 1 -19.302368 -78.314569 53.538431
15297 16 1 -19.836308 -78.730566 52.802323
15298 16 1 -19.456663 -79.611350 53.085321
15299 16 1 -20.265908 -79.852952 53.620813
15300 16 1 -19.856495 -79.030313 54.015333
15301 16 1 -20.640897 -78.833070 54.603388
15302 16 1 -20.712225 -77.841041 54.499507
15303 16 1 -21.493593 -78.457792 54.594800
15304 16 1 -22.346048 -78.885379 54.895618
15305 16 1 -23.008182 -79.459466 55.377284
15306 16 1 -22.132232 -79.797072 55.032705
15307 16 1 -22.775318 -80.165957 55.703796
15308 16 1 -23.412618 -80.696760 56.262454
15309 16 1 -23.737959 -81.524916 56.718864
15310 16 1 -23.922513 -81.564112 55.736823
15311 16 1 -24.734206 -81.168351 56.166390
15312 16 1 -24.965326 -82.083252 55.835421
15313 16 1 -25.607824 -82.287400 56.574014
15314 16 1 -25.873066 -82.892484 57.324693
15315 16 1 -25.535256 -82.782125 58.259415
15316 16 1 -24.724701 -82.343184 57.871690
15317 16 1 -24.680087 -83.209641 57.374437
15318 16 1 -24.762987 -84.117400 56.963217
15319 16 1 -24.604119 -83.621049 56.109755
15320 16 1 -23.956950 -82.987754 56.534148
15321 16 1 -24.520166 -82.204000 56.795908
15322 16 1 -24.032382 -81.636286 57.459058
15323 16 1 -23.574402 -82.406172 57.903501
15324 16 1 -23.612777 -81.486589 58.294518
15325 16 1 -24.476902 -81.016813 58.475065
15326 16 1 -25.347343 -80.608993 58.750775
15327 16 1 -25.444978 -79.844186 58.113956
15328 16 1 -25.034912 -79.219294 57.449609
15329 16 1 -25.422253 -78.321623 57.659735
15330 16 1 -26.214682 -77.746428 57.862732
15331 16 1 -25.736003 -77.430780 58.682019
15332 16 1 -25.464285 -78.095260 59.378177
15333 16 1 -26.024193 -78.831639 59.757979
15334 16 1 -25.474379 -78.922365 60.588325
15335 16 1 -26.112460 -78.337354 61.088939
15336 16 1 -25.409564 -77.886130 61.638787
15337 16 1 -24.989324 -76.986460 61.757080
15338 16 1 -24.862938 -77.451529 60.880874
15339 16 1 -24.047177 -77.221545 61.411572
15340 16 1 -23.377678 -76.638642 60.951142
15341 16 1 -23.561362 -75.719645 60.602281
15342 16 1 -23.574261 -75.712562 59.602389
15343 16 1 -22.825539 -76.372821 59.543461
15344 16 1 -23.498104 -76.961996 59.095656
15345 16 1 -22.901285 -76.267832 58.693233
15346 16 1 -22.500138 -75.417863 58.351716
15347 16 1 -22.300949 -74.595366 57.818967
15348 16 1 -22.925242 -73.896632 57.469638
15349 16 1 -23.812985 -74.002950 57.021745
15350 16 1 -23.849476 -74.522854 57.875190
15351 16 1 -24.373825 -75.318872 57.572847
15352 16 1 -24.396798 -75.206779 56.579415
15353 16 1 -24.280541 -76.199998 56.578526
15354 16 1 -23.514694 -76.740654 56.926618
15355 16 1 -23.077326 -77.624065 57.094832
15356 16 1 -24.024609 -77.532114 57.401751
15357 16 1 -23.625619 -78.302491 56.904433
15358 16 1 -23.774839 -78.927190 56.137958
15359 16 1 -24.529885 -79.309287 56.670787
15360 16 1 -25.223440 -79.698532 56.064594
15361 16 1 -24.784421 -80.148526 56.842262
15362 16 1 -25.646835 -80.290489 57.328151
15363 16 1 -26.512246 -79.948306 56.962125
15364 16 1 -26.481359 -79.620921 57.906511
15365 16 1 -26.498174 -79.572995 58.905221
15366 16 1 -26.254412 -78.606508 58.824699
15367 16 1 -25.430059 -79.170933 58.781487
15368 16 1 -24.481695 -79.133907 58.466471
15369 16 1 -24.505973 -78.510038 59.247623
15370 16 1 -24.055882 -77.688340 58.898007
15371 16 1 -23.418151 -78.087452 58.239213
15372 16 1 -22.789801 -78.592321 58.831061
15373 16 1 -22.321315 -77.730650 59.026110
15374 16 1 -22.250116 -78.557517 59.583983
15375 16 1 -22.715913 -78.575042 60.468701
15376 16 1 -22.403149 -77.794911 59.926877
15377 16 1 -23.374323 -77.647168 60.113942
15378 16 1 -22.714935 -77.006332 60.507054
15379 16 1 -22.328120 -77.040541 61.428577
15380 16 1 -21.472185 -76.864663 60.942323
15381 16 1 -21.373656 -77.202914 61.878207
15382 16 1 -21.438237 -78.198481 61.809821
15383 16 1 -21.625898 -79.103261 61.427517
15384 16 1 -22.476857 -79.616422 61.315557
15385 16 1 -22.078062 -80.379026 60.806244
15386 16 1 -22.515512 -81.272217 60.910395
15387 16 1 -23.101492 -80.586361 60.478851
15388 16 1 -23.941860 -80.333206 59.999587
15389 16 1 -24.933119 -80.453511 59.945443
15390 16 1 -25.574898 -79.737905 59.669714
15391 16 1 -24.598890 -79.550689 59.780883
15392 16 1 -24.767417 -80.059428 60.625148
15393 16 1 -24.161164 -80.315191 61.378170
15394 16 1 -24.494614 -80.910704 60.647297
15395 16 1 -25.478372 -81.085999 60.608662
15396 16 1 -26.039113 -81.076945 59.780720
15397 16 1 -26.708518 -80.769657 60.457086
15398 16 1 -27.233855 -81.076346 59.663384
15399 16 1 -27.138715 -81.861188 60.275734
15400 16 1 -26.754899 -81.422066 61.088049
15401 16 1 -27.707330 -81.127181 61.011113
15402 16 1 -28.247253 -80.625680 61.687115
15403 16 1 -28.641281 -80.801454 62.589249
15404 16 1 -27.675813 -80.977047 62.396791
15405 16 1 -27.582756 -81.886924 61.992484
15406 16 1 -27.535905 -82.446365 61.164939
15407 16 1 -28.481995 -82.122787 61.150395
15408 16 1 -28.099000 -83.044863 61.205984
15409 16 1 -28.378124 -83.668844 60.476095
15410 16 1 -29.252230 -83.219360 60.291968
15411 16 1 -30.023094 -83.209098 59.655051
15412 16 1 -30.356247 -83.989463 60.184238
15413 16 1 -29.656904 -84.560207 60.614552
15414 16 1 -29.020473 -84.003411 61.148343
15415 16 1 -28.593702 -84.429075 60.350423
15416 16 1 -27.818846 -84.003777 59.882748
15417 16 1 -27.479242 -83.288548 60.493580
15418 16 1 -26.677586 -83.156708 59.910514
15419 16 1 -26.362677 -83.567402 59.054849
15420 16 1 -26.984933 -84.160043 58.543406
15421 16 1 -27.398064 -84.495581 57.696803
15422 16 1 -26.855333 -83.676795 57.509633
15423 16 1 -27.451255 -83.165422 56.890462
15424 16 1 -28.245399 -82.558068 56.869085
15425 16 1 -28.463289 -82.477259 55.896463
15426 16 1 -29.244987 -81.877902 56.068854
15427 16 1 -29.747505 -81.884421 55.204312
15428 16 1 -30.562910 -81.623806 55.721221
15429 16 1 -30.168237 -80.707427 55.654270
15430 16 1 -30.223892 -79.966154 56.323162
15431 16 1 -30.236026 -79.022565 56.654057
15432 16 1 -31.023844 -78.687481 57.170837
15433 16 1 -31.944117 -78.296413 57.158078
15434 16 1 -32.575007 -78.999200 57.486818
15435 16 1 -33.032447 -79.442629 56.716027
15436 16 1 -33.671049 -78.719869 56.980232
15437 16 1 -32.914456 -78.178802 56.613064
15438 16 1 -33.560940 -78.233172 55.852077
15439 16 1 -33.152236 -77.382684 56.183184
15440 16 1 -32.156884 -77.424962 56.269711
15441 16 1 -31.927643 -78.158606 55.630012
15442 16 1 -31.023853 -77.992648 55.235524
15443 16 1 -31.114307 -78.331521 56.171997
15444 16 1 -30.485700 -77.651531 55.794551
15445 16 1 -30.038151 -76.896925 55.314686
15446 16 1 -30.875458 -77.249564 54.896878
15447 16 1 -30.156972 -77.285476 54.202264
15448 16 1 -29.446159 -76.600167 54.360677
15449 16 1 -29.614845 -76.276312 53.429730
15450 16 1 -30.104987 -75.980620 54.249685
15451 16 1 -31.076280 -76.116494 54.054416
15452 16 1 -31.276413 -77.091035 53.953341
15453 16 1 -31.210783 -77.688944 53.154468
15454 16 1 -30.818166 -78.607629 53.111218
15455 16 1 -31.602936 -79.107984 52.745458
15456 16 1 -31.335096 -79.789839 53.426145
15457 16 1 -30.972352 -79.562688 52.522365
15458 16 1 -30.923412 -80.537981 52.306940
15459 16 1 -30.634985 -81.418804 51.931492
15460 16 1 -31.219555 -81.518961 51.126355
15461 16 1 -31.964263 -81.497520 50.459308
15462 16 1 -32.148886 -82.416538 50.807619
15463 16 1 -31.561913 -82.207907 50.025355
15464 16 1 -31.226571 -81.657570 49.260716
15465 16 1 -30.332032 -81.989852 48.961735
15466 16 1 -30.280323 -81.960709 49.959972
15467 16 1 -30.440888 -82.426859 50.829986
15468 16 1 -29.809209 -83.201899 50.847146
15469 16 1 -30.602687 -83.793586 50.989622
15470 16 1 -30.556105 -83.517908 50.029501
15471 16 1 -31.480349 -83.899163 50.049943
15472 16 1 -32.036856 -83.084690 49.885829
15473 16 1 -32.685675 -83.298944 50.615987
15474 16 1 -32.656401 -84.180692 51.086798
15475 16 1 -32.312844 -83.467424 51.697713
15476 16 1 -31.750357 -83.848809 50.964124
15477 16 1 -31.312890 -84.541757 51.537226
15478 16 1 -30.343545 -84.771268 51.449511
15479 16 1 -30.058603 -83.896575 51.841582
15480 16 1 -29.189184 -83.425694 51.991189
15481 16 1 -28.248908 -83.378906 51.654007
15482 16 1 -28.291454 -84.368043 51.513305
15483 16 1 -28.506068 -84.565068 52.469925
15484 16 1 -29.014851 -84.916321 53.255903
15485 16 1 -29.565855 -85.261228 52.496013
15486 16 1 -29.898841 -85.977618 51.882902
15487 16 1 -29.784753 -86.028500 50.890735
15488 16 1 -29.831541 -86.882912 50.373249
15489 16 1 -29.366616 -87.710718 50.059274
15490 16 1 -29.294436 -88.560894 49.537746
15491 16 1 -28.888903 -89.221431 50.169596
15492 16 1 -29.882682 -89.188694 50.276053
15493 16 1 -30.763605 -88.966100 49.858411
15494 16 1 -30.632331 -89.894007 50.207344
15495 16 1 -31.560671 -90.167321 49.955385
15496 16 1 -31.074005 -90.878940 49.448675
15497 16 1 -31.628015 -91.706988 49.362598
15498 16 1 -32.200565 -91.043047 48.881591
15499 16 1 -33.099144 -90.834168 49.267500
15500 16 1 -32.675660 -89.977219 49.561267
15501 16 1 -32.971088 -90.651151 50.238422
15502 16 1 -32.363465 -89.893723 50.477376
15503 16 1 -32.006628 -89.542978 51.343196
15504 16 1 -31.789737 -90.377695 51.849363
15505 16 1 -32.072431 -90.043040 52.748302
15506 16 1 -31.213772 -90.386248 53.128976
15507 16 1 -30.443719 -89.774289 53.309323
15508 16 1 -30.714062 -90.218029 54.163729
15509 16 1 -30.939859 -91.094977 53.739491
15510 16 1 -31.280906 -91.560057 52.922553
15511 16 1 -32.213059 -91.759974 53.224420
15512 16 1 -32.964747 -92.224761 53.692329
15513 16 1 -33.287627 -92.259381 54.638135
15514 16 1 -33.360870 -93.203011 54.315339
15515 16 1 -33.350747 -94.133162 53.948302
15516 16 1 -34.085562 -93.480152 53.764933
15517 16 1 -33.950792 -93.664241 52.791306
15518 16 1 -34.796649 -93.980651 52.361875
15519 16 1 -34.477070 -93.036237 52.439021
15520 16 1 -33.584751 -92.663093 52.184993
15521 16 1 -33.020550 -92.838502 52.991781
15522 16 1 -32.101631 -92.629403 52.657316
15523 16 1 -31.224908 -93.030175 52.391348
15524 16 1 -30.463300 -93.631011 52.148554
15525 16 1 -30.685073 -93.331204 53.076419
15526 16 1 -31.129977 -94.082828 52.589468
15527 16 1 -30.210224 -94.423673 52.784091
15528 16 1 -30.129403 -94.929978 51.925533
15529 16 1 -31.034707 -94.785218 51.526195
15530 16 1 -30.408242 -94.819610 50.747504
15531 16 1 -29.788816 -95.596031 50.631392
15532 16 1 -30.282280 -96.324522 50.156213
15533 16 1 -30.003915 -96.904960 49.390966
15534 16 1 -30.195287 -97.147961 50.341927
15535 16 1 -29.286328 -96.756674 50.198093
15536 16 1 -29.129236 -96.379421 49.285404
15537 16 1 -28.874846 -95.515113 49.719291
15538 16 1 -29.837135 -95.343124 49.508530
15539 16 1 -30.544745 -96.036431 49.372102
15540 16 1 -31.400549 -96.550088 49.310805
15541 16 1 -31.731792 -97.462282 49.069601
15542 16 1 -31.931666 -98.437042 49.169070
15543 16 1 -32.497831 -99.209595 49.456506
15544 16 1 -32.505002 -99.572384 48.524663
15545 16 1 -31.585414 -99.718758 48.160062
15546 16 1 -31.991726 -98.956721 47.655870
15547 16 1 -32.488430 -98.754447 48.499891
15548 16 1 -31.839242 -97.996155 48.440321
15549 16 1 -32.145930 -97.212428 47.900215
15550 16 1 -31.316196 -97.563434 47.466238
15551 16 1 -31.046082 -97.524580 46.504194
15552 16 1 -30.828397 -98.255775 45.857690
15553 16 1 -30.921429 -98.564437 44.911079
15554 16 1 -31.871213 -98.341168 45.130305
15555 16 1 -31.745194 -98.805468 44.253639
15556 16 1 -30.872981 -99.289760 44.185039
15557 16 1 -31.048958 -99.353388 45.167375
15558 16 1 -31.863669 -99.259816 45.739643
15559 16 1 -32.369259 -98.475358 46.098814
15560 16 1 -32.671361 -99.421993 46.211139
15561 16 1 -32.856110 -98.638172 46.804006
15562 16 1 -32.122058 -99.317196 46.794359
15563 16 1 -32.896904 -99.733098 47.270425
15564 16 1 -33.450001 -99.808957 46.440769
15565 16 1 -34.156448 -99.716409 47.142459
15566 16 1 -33.789183 -98.799657 47.299559
15567 16 1 -34.120082 -98.938827 46.366212
15568 16 1 -34.768939 -99.207796 45.654424
15569 16 1 -35.670074 -98.776332 45.612063
15570 16 1 -35.946532 -98.457881 44.705333
15571 16 1 -36.771666 -98.765783 44.231677
15572 16 1 -36.060957 -98.603175 43.547242
15573 16 1 -36.128079 -99.566451 43.287255
15574 16 1 -37.064925 -99.278347 43.485536
15575 16 1 -37.573178 -99.307713 42.624829
15576 16 1 -36.786079 -99.920024 42.699334
15577 16 1 -35.974524 -99.767060 42.135437
15578 16 1 -35.106790 -99.305810 42.320601
15579 16 1 -35.229523 -98.573505 41.650775
15580 16 1 -35.989956 -98.029274 42.005110
15581 16 1 -36.772170 -98.535996 42.367566
15582 16 1 -37.315407 -97.761046 42.690591
15583 16 1 -38.061420 -98.388372 42.467151
15584 16 1 -38.974531 -98.215381 42.097959
15585 16 1 -38.825293 -97.839403 41.183427
15586 16 1 -39.779672 -98.130982 41.247791
15587 16 1 -39.676471 -97.245683 40.794367
15588 16 1 -38.714443 -97.067535 41.001165
15589 16 1 -38.226121 -97.020507 41.872560
15590 16 1 -37.671523 -96.868538 41.054437
15591 16 1 -37.401992 -97.478046 41.799992
15592 16 1 -36.789098 -96.742463 42.088572
15593 16 1 -37.433991 -96.344230 42.740894
15594 16 1 -38.209319 -96.805136 43.172671
15595 16 1 -38.634470 -97.499669 43.753076
15596 16 1 -39.250347 -97.074985 44.416657
15597 16 1 -40.216041 -97.142682 44.165957
15598 16 1 -40.226795 -96.597420 45.004154
15599 16 1 -40.341335 -95.614108 45.145499
15600 16 1 -39.921101 -94.710649 45.230143
15601 16 1 -39.574305 -95.233112 46.009094
15602 16 1 -39.347644 -94.302939 46.297890
15603 16 1 -39.434174 -93.470439 46.845117
15604 16 1 -40.112959 -93.123290 47.492218
15605 16 1 -39.610128 -93.692302 48.142899
15606 16 1 -39.275945 -93.876913 49.067151
15607 16 1 -39.519431 -92.977194 48.704906
15608 16 1 -39.775438 -92.265881 49.359502
15609 16 1 -39.250608 -93.103088 49.513248
15610 16 1 -38.576496 -93.500756 50.135690
15611 16 1 -39.099309 -93.057247 50.863677
15612 16 1 -39.414523 -92.117429 50.995520
15613 16 1 -40.201866 -92.613993 50.630122
15614 16 1 -40.745353 -93.181323 50.011446
15615 16 1 -40.695714 -92.182987 49.982094
15616 16 1 -40.492458 -91.219093 49.810062
15617 16 1 -40.713612 -90.709861 50.641791
15618 16 1 -41.006161 -91.663882 50.707053
15619 16 1 -40.737710 -91.097679 51.486379
15620 16 1 -40.613658 -90.784198 52.427836
15621 16 1 -40.144935 -90.738928 53.310020
15622 16 1 -39.428384 -90.804592 52.615583
15623 16 1 -39.027380 -90.065248 53.156477
15624 16 1 -38.407174 -90.187756 53.931291
15625 16 1 -38.139458 -91.050546 54.360153
15626 16 1 -37.166414 -90.820135 54.350370
15627 16 1 -36.686086 -89.943261 54.369800
15628 16 1 -35.766403 -89.573889 54.236583
15629 16 1 -36.309515 -88.857198 53.799109
15630 16 1 -36.665365 -87.924312 53.854727
15631 16 1 -36.102390 -87.901270 53.028574
15632 16 1 -36.005188 -86.910465 53.122679
15633 16 1 -35.071042 -86.642138 53.357994
15634 16 1 -35.727592 -85.929336 53.604685
15635 16 1 -35.510203 -86.730924 54.161639
15636 16 1 -35.744418 -87.389786 54.876513
15637 16 1 -36.410449 -87.088455 54.194163
15638 16 1 -37.347794 -86.746647 54.126689
15639 16 1 -37.321330 -86.684741 53.128958
15640 16 1 -38.144935 -86.226671 53.463391
15641 16 1 -38.664109 -86.707226 52.756620
15642 16 1 -39.375246 -87.410243 52.749479
15643 16 1 -40.038114 -87.638737 53.462498
15644 16 1 -40.232131 -87.252270 52.560833
15645 16 1 -40.974770 -86.880327 53.117740
15646 16 1 -40.751659 -86.740782 52.152987
15647 16 1 -41.744291 -86.832149 52.073393
15648 16 1 -41.823767 -87.049554 51.100552
15649 16 1 -41.939055 -87.188148 50.116936
15650 16 1 -40.958890 -87.366981 50.202352
15651 16 1 -41.099285 -87.813378 51.086104
15652 16 1 -40.576114 -88.615360 50.797803
15653 16 1 -39.739077 -88.227441 50.411943
15654 16 1 -38.864885 -88.712820 50.397947
15655 16 1 -38.354396 -87.905815 50.694835
15656 16 1 -38.591286 -87.448203 49.837820
15657 16 1 -38.671749 -86.909303 50.676339
15658 16 1 -37.690236 -86.766625 50.548759
15659 16 1 -37.437241 -86.839374 51.513487
15660 16 1 -37.166920 -87.759988 51.231711
15661 16 1 -36.665631 -87.497564 52.056237
15662 16 1 -37.044045 -88.189476 52.671104
15663 16 1 -36.803524 -89.145722 52.504542
15664 16 1 -35.859564 -88.973820 52.786304
15665 16 1 -35.590388 -88.131308 52.319701
15666 16 1 -35.109348 -87.305448 52.613907
15667 16 1 -34.478469 -88.041257 52.367786
15668 16 1 -34.312746 -88.110473 51.384045
15669 16 1 -34.535713 -87.332721 50.796349
15670 16 1 -34.690821 -88.225456 50.373306
15671 16 1 -35.362841 -88.600538 49.734790
15672 16 1 -35.208122 -89.337038 49.076284
15673 16 1 -35.034453 -90.321709 49.060109
15674 16 1 -34.363187 -90.412449 49.795750
15675 16 1 -34.526169 -90.362198 50.781099
15676 16 1 -35.375931 -90.845358 50.570239
15677 16 1 -35.882596 -91.484208 51.149170
15678 16 1 -36.199974 -92.245835 50.584196
15679 16 1 -36.375054 -92.141250 51.563180
15680 16 1 -36.294819 -93.134577 51.480323
15681 16 1 -36.639384 -92.938792 52.398442
15682 16 1 -36.308334 -93.046786 53.335855
15683 16 1 -35.422242 -93.508989 53.370645
15684 16 1 -35.379521 -93.762703 54.336980
15685 16 1 -34.720334 -94.492883 54.516727
15686 16 1 -35.689450 -94.721694 54.424749
15687 16 1 -36.369863 -95.151335 53.831076
15688 16 1 -36.436656 -94.261604 54.282648
15689 16 1 -37.368940 -94.619719 54.231658
15690 16 1 -37.618090 -95.517225 53.867778
15691 16 1 -38.496952 -95.976123 53.998217
15692 16 1 -38.131313 -95.439325 53.237852
15693 16 1 -37.315602 -95.313667 52.673205
15694 16 1 -36.477324 -95.669379 52.259975
15695 16 1 -36.721689 -94.892441 51.679757
15696 16 1 -36.545313 -95.459937 50.875493
15697 16 1 -37.078300 -94.725707 50.454980
15698 16 1 -37.438864 -95.124194 49.611652
15699 16 1 -38.057889 -95.884378 49.414348
15700 16 1 -38.932261 -96.354120 49.292632
15701 16 1 -39.200738 -97.118915 49.878302
15702 16 1 -39.669448 -96.830647 50.713295
15703 16 1 -40.129147 -96.568124 49.864909
15704 16 1 -40.342148 -97.026947 49.002290
15705 16 1 -41.241446 -97.261408 48.633113
15706 16 1 -40.606232 -97.225012 47.861634
15707 16 1 -39.730876 -97.603309 48.162705
15708 16 1 -40.520533 -98.180072 47.953455
15709 16 1 -40.128417 -99.017283 48.334666
15710 16 1 -39.686394 -98.323708 47.765836
15711 16 1 -38.713928 -98.093745 47.803627
15712 16 1 -38.221442 -98.912855 47.509491
15713 16 1 -38.839253 -99.613443 47.866543
15714 16 1 -38.983387 -99.554981 48.854373
15715 16 1 -39.467168 -99.705573 49.716509
15716 16 1 -38.535263 -99.368437 49.582748
15717 16 1 -38.986153 -98.597059 49.133665
15718 16 1 -38.550666 -98.345574 49.998018
15719 16 1 -37.736398 -97.957622 49.566207
15720 16 1 -38.120923 -98.598939 48.902239
15721 16 1 -37.241833 -98.564741 49.377667
15722 16 1 -37.553428 -98.365178 50.306689
15723 16 1 -37.470058 -99.271513 50.720943
15724 16 1 -36.803050 -98.870824 50.092813
15725 16 1 -35.897209 -98.903813 49.670480
15726 16 1 -35.193602 -99.582596 49.460268
15727 16 1 -34.303773 -99.947455 49.186256
15728 16 1 -34.017900 -99.426265 49.990394
15729 16 1 -33.914172 -98.847822 50.799495
15730 16 1 -33.385961 -99.193355 51.575124
15731 16 1 -32.622961 -99.507404 52.140105
15732 16 1 -32.035625 -98.808773 51.731508
15733 16 1 -31.520851 -98.213838 52.348809
15734 16 1 -31.562231 -97.864795 51.412616
15735 16 1 -31.128860 -96.966703 51.337643
15736 16 1 -31.338516 -96.115251 51.818345
15737 16 1 -30.906280 -95.608675 51.072321
15738 16 1 -31.875561 -95.378924 50.984524
15739 16 1 -32.024129 -96.357134 50.839499
15740 16 1 -32.943413 -96.366313 51.232987
15741 16 1 -33.791800 -96.648909 50.785350
15742 16 1 -33.664464 -97.026731 51.702430
15743 16 1 -33.438611 -96.666862 52.607684
15744 16 1 -34.091070 -96.669150 53.365504
15745 16 1 -34.103806 -95.738911 52.998773
15746 16 1 -34.196924 -94.784671 52.714596
15747 16 1 -33.337617 -94.613586 53.196593
15748 16 1 -33.043890 -95.444024 53.669982
15749 16 1 -32.343556 -95.036998 53.083584
15750 16 1 -32.660004 -95.866920 52.624139
15751 16 1 -33.281333 -95.480140 51.942706
15752 16 1 -32.835151 -94.595051 51.810269
15753 16 1 -33.604962 -94.592892 51.172001
15754 16 1 -33.816678 -95.521954 50.868654
15755 16 1 -33.605176 -95.122985 49.976415
15756 16 1 -34.518293 -95.363868 50.305343
15757 16 1 -35.215914 -94.900690 50.851961
15758 16 1 -35.626694 -94.937888 49.940985
15759 16 1 -35.936365 -94.000627 50.101125
15760 16 1 -35.794081 -93.864945 49.120642
15761 16 1 -36.543523 -93.599412 48.514154
15762 16 1 -37.027307 -93.817905 49.361629
15763 16 1 -37.021246 -92.818451 49.329128
15764 16 1 -36.944011 -91.829029 49.451920
15765 16 1 -36.152518 -92.310220 49.075099
15766 16 1 -35.753518 -91.405803 49.226196
15767 16 1 -36.113730 -91.243346 48.307580
15768 16 1 -35.624720 -91.684791 47.555253
15769 16 1 -36.419922 -91.173387 47.229491
15770 16 1 -36.731329 -90.468468 47.866761
15771 16 1 -37.255993 -90.229630 48.683881
15772 16 1 -36.676333 -89.427008 48.543199
15773 16 1 -37.156169 -88.679809 48.083360
15774 16 1 -36.601222 -88.301024 47.342715
15775 16 1 -36.169219 -87.720040 46.652910
15776 16 1 -36.176235 -86.907754 47.236126
15777 16 1 -36.357253 -85.927715 47.318329
15778 16 1 -35.927979 -85.170126 46.826617
15779 16 1 -35.559814 -86.053392 47.116953
15780 16 1 -34.587321 -85.836737 47.031411
15781 16 1 -34.274446 -85.685120 46.093796
15782 16 1 -33.534011 -86.267005 45.757394
15783 16 1 -34.159931 -86.967464 46.100292
15784 16 1 -34.450868 -87.040690 47.054228
15785 16 1 -33.500327 -86.741808 47.138743
15786 16 1 -32.557455 -87.010418 46.941663
15787 16 1 -31.634831 -87.227738 46.623015
15788 16 1 -31.228244 -87.212924 45.709523
15789 16 1 -31.677078 -86.466829 46.201347
15790 16 1 -32.498044 -85.901409 46.280808
15791 16 1 -31.530678 -85.664444 46.370529
15792 16 1 -31.479595 -86.199276 47.213942
15793 16 1 -30.649849 -85.932901 46.723467
15794 16 1 -30.173044 -85.370528 47.399036
15795 16 1 -29.484081 -85.940835 46.951734
15796 16 1 -29.371033 -85.930178 47.945266
15797 16 1 -29.458572 -85.274021 48.694796
15798 16 1 -29.028343 -86.054462 49.148465
15799 16 1 -29.844692 -85.973520 49.720323
15800 16 1 -30.765932 -85.584549 49.724661
15801 16 1 -31.635809 -85.120853 49.556433
15802 16 1 -31.207266 -85.130965 50.459898
15803 16 1 -31.328325 -86.049405 50.083319
15804 16 1 -30.501700 -86.401982 50.521932
15805 16 1 -30.843990 -86.860916 49.702043
15806 16 1 -31.008296 -87.374369 50.544284
15807 16 1 -30.767712 -87.295613 51.511712
15808 16 1 -30.633375 -88.129243 52.047451
15809 16 1 -29.687422 -87.823445 51.939462
15810 16 1 -29.869932 -86.874170 52.195523
15811 16 1 -30.830834 -86.664051 52.375846
15812 16 1 -30.611326 -87.369582 53.049672
15813 16 1 -31.417754 -87.881955 53.344881
15814 16 1 -31.596082 -87.649589 52.388740
15815 16 1 -32.252808 -86.933334 52.624727
15816 16 1 -33.086914 -86.719469 53.133184
15817 16 1 -32.666792 -87.407841 53.724489
15818 16 1 -32.315353 -88.328874 53.892381
15819 16 1 -32.241507 -89.314522 53.740574
15820 16 1 -32.946352 -88.845130 53.208723
15821 16 1 -32.346799 -88.149001 52.813830
15822 16 1 -31.935607 -89.053092 52.697469
15823 16 1 -31.510265 -88.836944 53.576312
15824 16 1 -30.863057 -89.073021 54.301149
15825 16 1 -31.647327 -88.461118 54.403595
15826 16 1 -31.064255 -88.029806 55.092069
15827 16 1 -31.689482 -88.573750 55.651727
15828 16 1 -32.521147 -88.735395 56.182956
15829 16 1 -32.438561 -89.200433 55.301526
15830 16 1 -32.787526 -89.460146 54.401096
15831 16 1 -33.436125 -88.747165 54.667512
15832 16 1 -34.114362 -88.638063 53.940813
15833 16 1 -34.336046 -88.522982 54.909117
15834 16 1 -34.967627 -88.901075 55.585986
15835 16 1 -34.053245 -88.733728 55.954631
15836 16 1 -33.863284 -87.816477 56.304723
15837 16 1 -33.962282 -87.791459 57.299496
15838 16 1 -34.661492 -87.360096 57.869612
15839 16 1 -35.640815 -87.471113 58.038728
15840 16 1 -36.329531 -88.167107 58.241861
15841 16 1 -37.244318 -88.306384 58.621027
15842 16 1 -36.386318 -88.118214 59.098969
15843 16 1 -36.369290 -87.127793 58.961941
15844 16 1 -35.449659 -87.506678 58.858380
15845 16 1 -35.413601 -88.419087 59.266068
15846 16 1 -35.405752 -87.694653 59.955368
15847 16 1 -36.039916 -86.941623 59.779923
15848 16 1 -36.758948 -86.255200 59.888629
15849 16 1 -36.941919 -86.351571 60.867013
15850 16 1 -37.504372 -86.538566 60.061607
15851 16 1 -37.450879 -85.571333 60.309796
15852 16 1 -36.469471 -85.560437 60.501424
15853 16 1 -35.770259 -84.911294 60.800949
15854 16 1 -35.009667 -85.546051 60.664626
15855 16 1 -35.568670 -85.626913 59.839412
15856 16 1 -36.440046 -85.197384 59.602331
15857 16 1 -36.523679 -84.284742 60.002443
15858 16 1 -36.852423 -83.756181 59.219787
15859 16 1 -36.283903 -84.137095 58.490617
15860 16 1 -37.033437 -84.775713 58.316358
15861 16 1 -36.173023 -85.202379 58.037709
15862 16 1 -36.570654 -85.715066 57.276761
15863 16 1 -37.559633 -85.590031 57.356044
15864 16 1 -37.780089 -86.236644 58.086311
15865 16 1 -37.178539 -86.415318 58.864908
15866 16 1 -36.548190 -85.640509 58.913192
15867 16 1 -37.408432 -85.169462 59.108378
15868 16 1 -38.005367 -84.785904 58.403714
15869 16 1 -38.904255 -84.394249 58.207225
15870 16 1 -38.321209 -85.017256 57.685765
15871 16 1 -39.146074 -85.360314 57.236422
15872 16 1 -39.072980 -85.824306 56.353604
15873 16 1 -39.913961 -85.285405 56.401942
15874 16 1 -39.930127 -86.274446 56.255186
15875 16 1 -39.623522 -87.179772 55.961285
15876 16 1 -39.221130 -87.719671 56.700603
15877 16 1 -38.377404 -87.196372 56.820127
15878 16 1 -38.290802 -86.205301 56.921505
15879 16 1 -38.898639 -86.819491 57.424800
15880 16 1 -39.215465 -87.111643 58.327168
15881 16 1 -38.398019 -86.973198 58.886289
15882 16 1 -38.595228 -86.115361 59.360866
15883 16 1 -38.935501 -86.381290 60.262806
15884 16 1 -38.767126 -87.003219 61.027564
15885 16 1 -39.334636 -86.398278 61.586115
15886 16 1 -39.764250 -85.914342 60.823725
15887 16 1 -40.177064 -86.215691 59.964206
15888 16 1 -40.179719 -86.769758 59.131738
15889 16 1 -39.842225 -86.008542 58.577981
15890 16 1 -40.415376 -85.486177 59.209355
15891 16 1 -40.562753 -85.488783 60.198432
15892 16 1 -40.194730 -84.805439 59.567877
15893 16 1 -40.139157 -84.016162 60.179395
15894 16 1 -40.546831 -83.147837 60.461908
15895 16 1 -40.430644 -82.163093 60.332372
15896 16 1 -40.206996 -82.545045 59.435659
15897 16 1 -39.848327 -83.230889 60.068885
15898 16 1 -39.805049 -83.308443 61.064933
15899 16 1 -39.408852 -83.967120 61.704599
15900 16 1 -40.272767 -84.371301 62.005080
15901 16 1 -40.853649 -85.183512 61.951333
15902 16 1 -41.535859 -85.267206 62.677683
15903 16 1 -41.970281 -84.405012 62.938258
15904 16 1 -42.291449 -84.713713 62.042962
15905 16 1 -42.674038 -84.941669 62.938317
15906 16 1 -43.340004 -85.308438 63.587910
15907 16 1 -43.641313 -84.912331 62.720550
15908 16 1 -43.141168 -85.576184 62.164533
15909 16 1 -42.523822 -86.300607 61.857782
15910 16 1 -43.424667 -86.386842 61.432292
15911 16 1 -44.051383 -86.519879 60.664484
15912 16 1 -44.728207 -87.012718 60.117658
15913 16 1 -45.256922 -86.167861 60.199369
15914 16 1 -45.511935 -86.622146 59.345792
15915 16 1 -45.712420 -87.512349 59.754870
15916 16 1 -46.226155 -87.443246 58.899708
15917 16 1 -46.824750 -86.742500 59.287830
15918 16 1 -46.590717 -87.519971 59.871584
15919 16 1 -46.461181 -87.237770 60.822154
15920 16 1 -46.737688 -87.920100 61.498888
15921 16 1 -47.355275 -88.273296 62.201625
15922 16 1 -46.676191 -88.939604 62.509646
15923 16 1 -45.869139 -89.430704 62.837499
15924 16 1 -44.873887 -89.348935 62.784696
15925 16 1 -45.409937 -90.180544 62.929873
15926 16 1 -46.281238 -90.099908 62.445793
15927 16 1 -46.915823 -90.208484 63.210981
15928 16 1 -47.459531 -90.309756 64.044123
15929 16 1 -47.209482 -89.488583 64.557104
15930 16 1 -47.527226 -89.864931 65.427392
15931 16 1 -46.551429 -89.708929 65.580640
15932 16 1 -47.267772 -89.469355 66.235970
15933 16 1 -47.216766 -88.628651 65.696882
15934 16 1 -47.988623 -87.995251 65.752020
15935 16 1 -48.424028 -88.198192 64.874959
15936 16 1 -48.989980 -87.408259 64.638939
15937 16 1 -49.438276 -87.369878 63.745878
15938 16 1 -48.570588 -87.405100 63.250019
15939 16 1 -48.620295 -88.391662 63.405658
15940 16 1 -49.510774 -88.714651 63.726165
15941 16 1 -49.088722 -89.379793 64.342167
15942 16 1 -48.912735 -89.592860 63.381109
15943 16 1 -49.469039 -90.260968 63.875231
15944 16 1 -49.827532 -90.975176 64.476388
15945 16 1 -49.774533 -91.548085 65.294292
15946 16 1 -49.697257 -91.881903 64.354827
15947 16 1 -49.767850 -91.204678 63.622446
15948 16 1 -49.049505 -91.789652 63.245903
15949 16 1 -48.608138 -92.262538 62.483293
15950 16 1 -48.600230 -91.295182 62.229993
15951 16 1 -49.452735 -91.151804 61.727323
15952 16 1 -49.266261 -90.362622 61.142159
15953 16 1 -49.199734 -90.473996 60.150609
15954 16 1 -48.433800 -90.951151 59.719717
15955 16 1 -48.715898 -91.587199 60.437953
15956 16 1 -48.478243 -92.123625 61.247748
15957 16 1 -47.930304 -92.901265 60.939463
15958 16 1 -47.054027 -93.012816 60.470747
15959 16 1 -47.024349 -94.009078 60.389614
15960 16 1 -46.684113 -94.844926 59.958804
15961 16 1 -47.517859 -95.294223 59.637869
15962 16 1 -48.149493 -95.430458 60.401072
15963 16 1 -47.900885 -96.327895 60.765489
15964 16 1 -47.034379 -95.849511 60.622959
15965 16 1 -46.145438 -95.548722 60.968373
15966 16 1 -46.126606 -94.583908 61.230631
15967 16 1 -46.105945 -94.644764 62.228563
15968 16 1 -46.847042 -94.885105 62.855470
15969 16 1 -45.867513 -94.904351 63.055847
15970 16 1 -45.429584 -94.525400 63.871086
15971 16 1 -44.757061 -94.687360 63.148949
15972 16 1 -45.244631 -93.831487 62.976448
15973 16 1 -45.111408 -92.994805 62.445208
15974 16 1 -44.195374 -92.987237 62.846238
15975 16 1 -43.597783 -93.767636 62.662222
15976 16 1 -44.547796 -93.992894 62.446043
15977 16 1 -44.861932 -94.393211 61.585192
15978 16 1 -45.734473 -93.978971 61.844185
15979 16 1 -46.478596 -93.770058 62.478721
15980 16 1 -47.039602 -93.453020 61.714025
15981 16 1 -46.903072 -94.430707 61.554372
15982 16 1 -47.236598 -95.242263 62.034096
15983 16 1 -48.162173 -95.291509 61.658749
15984 16 1 -48.946414 -95.384526 61.045304
15985 16 1 -48.992200 -94.475509 60.631067
15986 16 1 -48.820276 -93.706303 60.015629
15987 16 1 -48.050637 -94.335631 59.907919
15988 16 1 -48.163369 -93.773790 59.088391
15989 16 1 -47.283979 -93.425546 58.763741
15990 16 1 -47.441288 -93.851301 57.872681
15991 16 1 -48.387192 -93.829070 57.548996
15992 16 1 -49.251545 -93.777704 57.048742
15993 16 1 -49.387765 -93.378282 57.955332
15994 16 1 -49.275882 -92.385606 58.000919
15995 16 1 -50.040356 -92.160371 58.604946
15996 16 1 -49.878316 -93.102613 58.898073
15997 16 1 -49.976943 -94.087008 58.752337
15998 16 1 -50.826275 -94.253686 58.251485
15999 16 1 -50.293249 -95.053565 58.527306
16000 16 1 -51.019380 -94.680503 59.104850
16001 17 2 62.296237 -14.726281 -64.876417
16002 17 2 64.592996 -13.346927 -63.526497
16003 17 2 59.741083 -13.305960 -64.202713
16004 17 2 62.140211 -17.568509 -63.929106
16005 17 3 62.710658 -14.683729 -67.847350
16006 18 2 -86.240632 4.533367 19.250249
16007 18 2 -86.061837 6.734085 21.281227
16008 18 3 -88.722082 2.920044 19.739737
16009 18 2 -83.832457 2.759549 19.483191
16010 18 2 -86.346154 5.719791 16.496839
16011 19 2 93.091185 -59.014101 -92.985325
16012 19 2 94.726335 -61.527981 -93.067124
16013 19 2 92.342714 -58.399962 -90.145849
16014 19 2 90.601754 -59.386867 -94.617434
16015 19 3 94.693936 -56.741594 -94.110893
16016 20 2 -10.973283 83.877287 84.603774
16017 20 2 -11.756175 84.830654 87.338398
16018 20 3 -10.186769 80.985434 84.740082
16019 20 2 -8.654698 85.498225 83.605411
16020 20 2 -13.295489 84.194836 82.731203
16021 21 2 73.933299 5.426673 14.020525
16022 21 2 71.613354 6.550542 15.555052
16023 21 2 76.414432 6.978899 14.679746
16024 21 2 73.378974 5.629203 11.079147
16025 21 3 74.326437 2.548046 14.768156
16026 22 2 2.475772 74.632294 -76.743480
16027 22 3 2.842695 71.808949 -75.797916
16028 22 2 3.407949 76.529079 -74.614336
16029 22 2 -0.426841 75.124500 -77.320171
16030 22 2 4.079284 75.066648 -79.241496
16031 23 2 82.333548 -56.909344 24.058071
16032 23 2 80.589292 -56.523717 26.468229
16033 23 3 84.275327 -59.136951 24.575044
16034 23 2 83.842200 -54.377048 23.499997
16035 23 2 80.627373 -57.599660 21.689014
16036 24 2 34.808045 95.040988 65.170228
16037 24 2 34.158361 92.152544 65.654794
16038 24 2 33.366335 96.740757 67.178276
16039 24 3 33.941621 95.810260 62.403004
16040 24 2 37.765864 95.460389 65.444839
16041 25 2 79.983438 24.463074 -82.920579
16042 25 2 77.442464 25.879712 -82.188054
16043 25 2 80.594276 24.939659 -85.818810
16044 25 3 79.662500 21.519733 -82.437108
16045 25 2 82.234511 25.513193 -81.238342
16046 26 2 26.576749 16.501761 -87.996272
16047 26 3 23.622962 16.624539 -87.486307
16048 26 2 27.067719 15.977086 -90.908945
16049 26 2 27.782164 14.291395 -86.364937
16050 26 2 27.834152 19.114025 -87.224899
16051 27 2 48.883548 26.499758 29.637051
16052 27 2 51.484566 25.343406 28.689656
16053 27 2 47.150276 27.133265 27.271795
16054 27 3 49.412479 29.011161 31.190461
16055 27 2 47.486872 24.511198 31.396291
16056 28 2 67.582747 -48.681137 -9.153864
16057 28 2 64.901943 -49.782920 -9.928048
16058 28 2 68.881838 -47.433416 -11.552938
16059 28 3 69.315498 -50.901036 -8.119638
16060 28 2 67.231711 -46.607176 -7.014831
16061 29 2 59.938628 34.189414 28.136571
16062 29 2 57.219127 33.109642 27.474450
16063 29 3 61.753358 33.846967 25.772361
16064 29 2 61.062492 32.697633 30.484233
16065 29 2 59.719536 37.103416 28.815240
16066 30 2 57.563339 -15.757805 -52.017022
16067 30 3 56.492521 -12.984538 -51.614115
16068 30 2 55.304871 -17.728888 -51.898056
16069 30 2 59.552479 -16.384804 -49.860591
16070 30 2 58.903485 -15.932991 -54.695327
16071 31 2 30.394448 -55.921033 -44.886592
16072 31 2 32.155277 -53.699916 -45.869505
16073 31 2 29.795175 -55.508651 -41.976126
16074 31 2 31.796816 -58.547157 -45.256510
16075 31 3 27.830522 -55.928410 -46.444229
16076 32 2 -88.928383 82.960747 56.072182
16077 32 2 -89.210900 81.587777 53.419798
16078 32 2 -87.894334 81.009732 58.103015
16079 32 3 -91.602901 83.996618 56.951910
16080 32 2 -87.005396 85.248861 55.814003
16081 33 2 20.265442 80.405462 -74.447883
16082 33 2 17.343936 79.737103 -74.582418
16083 33 3 21.737636 78.887176 -76.575664
16084 33 2 21.341664 79.647111 -71.752210
16085 33 2 20.638532 83.350459 -74.881239
16086 34 2 89.937316 -62.568455 40.345920
16087 34 2 87.011084 -62.337508 40.965462
16088 34 2 90.337500 -62.513334 37.373242
16089 34 3 90.992297 -65.151029 41.449246
16090 34 2 91.408382 -60.271949 41.595731
16091 35 2 65.216212 -54.839232 -53.408496
16092 35 3 63.876277 -52.218302 -52.829445
16093 35 2 65.909084 -56.200137 -50.826275
16094 35 2 67.720932 -54.354606 -54.986951
16095 35 2 63.358557 -56.583882 -54.991314
16096 36 2 -75.851516 -22.509661 49.676422
16097 36 2 -78.382132 -23.906777 50.478949
16098 36 2 -74.391195 -21.596515 52.132766
16099 36 3 -76.518591 -20.134942 47.968874
16100 36 2 -74.114145 -24.400412 48.125098
16101 37 2 -35.806921 -44.785284 -0.142084
16102 37 2 -35.679423 -41.787995 -0.141204
16103 37 2 -35.838890 -45.785660 2.686029
16104 37 3 -33.407426 -45.887839 -1.565740
16105 37 2 -38.301945 -45.679643 -1.547423
16106 38 2 36.101421 -24.537228 -4.631672
16107 38 2 33.849264 -24.810413 -2.668726
16108 38 2 38.627314 -23.849851 -3.166279
16109 38 3 35.459485 -22.360304 -6.593538
16110 38 2 36.469622 -27.128344 -6.098146
16111 39 2 -81.929718 96.643512 38.607878
16112 39 3 -80.759291 96.310879 35.865716
16113 39 2 -80.320825 95.056741 40.581104
16114 39 2 -84.764932 95.662925 38.610710
16115 39 2 -81.873823 99.543505 39.373984
16116 40 2 -47.735120 -57.410762 -96.235211
16117 40 2 -48.782542 -54.618020 -95.913501
16118 40 2 -44.759013 -57.326352 -96.603535
16119 40 3 -49.004242 -58.684316 -98.636749
16120 40 2 -48.394682 -59.014360 -93.787058
16121 41 2 -90.434674 -39.778890 2.948289
16122 41 2 -90.500688 -37.332287 4.683159
16123 41 3 -88.131721 -41.520463 3.762739
16124 41 2 -90.105714 -38.962533 0.080302
16125 41 2 -93.000573 -41.300276 3.266954
16126 42 2 33.769081 -73.889932 32.008095
16127 42 2 36.012352 -75.048144 33.628676
16128 42 2 33.194959 -75.681450 29.671250
16129 42 3 34.553934 -71.170367 31.014127
16130 42 2 31.315079 -73.659767 33.718329
16131 43 2 -48.711214 -15.629978 47.066610
16132 43 2 -50.559977 -17.687791 48.227421
16133 43 3 -46.930156 -14.553375 49.227341
16134 43 2 -50.321688 -13.389381 45.889283
16135 43 2 -47.033035 -16.889365 44.922394
16136 44 2 51.079912 -21.860651 -82.689041
16137 44 2 52.475376 -24.479012 -83.132736
16138 44 2 50.052450 -20.818698 -85.307945
16139 44 2 53.008881 -19.885858 -81.514619
16140 44 3 48.782940 -22.259036 -80.800865
16141 45 2 1.037860 60.411813 27.335680
16142 45 3 2.661422 61.521583 29.601172
16143 45 2 2.350115 57.925334 26.289060
16144 45 2 0.860788 62.448902 25.140477
16145 45 2 -1.720886 59.751432 28.312009
16146 46 2 30.915432 40.917869 -40.999405
16147 46 2 30.233102 38.011819 -40.700576
16148 46 2 31.568198 42.073585 -38.309012
16149 46 3 28.573534 42.379278 -42.174052
16150 46 2 33.286895 41.206794 -42.813982
16151 47 2 -25.720974 -87.514387 -75.425128
16152 47 2 -25.423023 -87.903653 -72.465449
16153 47 2 -26.261662 -84.620799 -76.003746
16154 47 3 -28.006826 -89.178738 -76.427534
16155 47 2 -23.192385 -88.354360 -76.803780
16156 48 2 -59.772168 -51.458594 48.754420
16157 48 2 -58.662435 -49.533291 50.769786
16158 48 2 -62.300044 -50.339814 47.589012
16159 48 2 -60.361705 -54.077977 50.092805
16160 48 3 -57.764487 -51.883293 46.566076
16161 49 2 -66.483776 87.693292 91.113103
16162 49 2 -66.823862 90.116255 92.849073
16163 49 2 -65.109138 85.530551 92.672887
16164 49 2 -64.826245 88.405186 88.716064
16165 49 3 -69.175858 86.721176 90.214390
16166 50 2 96.173685 -66.142927 -45.582593
16167 50 2 93.814806 -67.963593 -45.234935
16168 50 2 96.309380 -64.230398 -43.275252
16169 50 2 95.880640 -64.604057 -48.141109
16170 50 3 98.689913 -67.773659 -45.679075
16171 51 2 -94.782870 -57.946798 61.302184
16172 51 2 -92.254931 -59.512790 61.698660
16173 51 2 -95.820659 -58.409311 58.525662
16174 51 3 -94.219847 -55.025148 61.685542
16175 51 2 -96.836044 -58.839945 63.298873
16176 52 2 -55.918607 -57.117440 63.492264
16177 52 2 -56.555574 -54.353261 64.468783
16178 52 2 -57.086123 -57.505171 60.756104
16179 52 3 -57.090382 -59.137899 65.374998
16180 52 2 -52.942347 -57.473428 63.369170
16181 53 2 -14.779155 19.803658 30.347317
16182 53 2 -13.609758 17.297967 31.510943
16183 53 2 -16.542477 21.123800 32.383962
16184 53 2 -16.398809 19.116593 27.917366
16185 53 3 -12.565577 21.676271 29.576998
16186 54 2 -42.113869 47.512670 -92.450221
16187 54 2 -39.654995 47.134060 -94.126703
16188 54 3 -44.398548 45.998351 -93.669679
16189 54 2 -42.800554 50.430416 -92.326844
16190 54 2 -41.601380 46.487854 -89.677658
16191 55 2 -90.566780 -75.182581 -72.194667
16192 55 3 -92.610542 -77.125768 -71.171406
16193 55 2 -88.149735 -75.245690 -70.418742
16194 55 2 -91.730984 -72.417697 -72.201186
16195 55 2 -89.775860 -75.941171 -74.987333
16196 56 2 1.829515 -23.256519 8.042046
16197 56 2 0.637079 -24.314103 10.583623
16198 56 2 0.891126 -20.442785 7.592243
16199 56 2 0.967842 -24.977916 5.741108
16200 56 3 4.822013 -23.291274 8.251209
16201 57 2 42.404546 43.483214 19.327563
16202 57 3 40.059635 42.065790 18.105965
16203 57 2 42.252523 46.408703 18.680724
16204 57 2 44.949343 42.344935 18.219263
16205 57 2 42.356683 43.113428 22.304301
16206 58 2 28.779821 -85.575748 -92.809063
16207 58 2 26.613021 -86.208613 -90.833092
16208 58 2 27.549639 -84.576512 -95.356254
16209 58 3 30.373685 -88.053917 -93.373221
16210 58 2 30.582937 -83.463950 -91.673685
16211 59 2 56.235563 64.159047 87.455847
16212 59 2 56.307859 61.353304 88.515368
16213 59 3 55.607194 64.104534 84.522899
16214 59 2 58.905807 65.458194 87.882477
16215 59 2 54.121391 65.720154 88.902644
16216 60 2 82.713019 -59.439460 55.423346
16217 60 2 80.248407 -59.126731 53.741712
16218 60 2 85.129690 -58.714839 53.800193
16219 60 2 82.942219 -62.286125 56.342021
16220 60 3 82.531758 -57.630145 57.809456
16221 61 2 42.049953 35.818077 80.489468
16222 61 2 39.097232 36.338691 80.387489
16223 61 2 42.908357 35.483434 83.344491
16224 61 2 43.516336 38.133378 79.269181
16225 61 3 42.677887 33.316806 78.956712
16226 62 2 93.653843 28.259915 92.519627
16227 62 2 94.226958 28.686354 89.605920
16228 62 2 94.151094 30.809616 94.020215
16229 62 3 95.447977 26.105336 93.586807
16230 62 2 90.789342 27.438353 92.865567
16231 63 2 76.948073 -95.074161 23.574040
16232 63 2 76.639729 -92.090876 23.503792
16233 63 3 78.673594 -95.955353 21.283608
16234 63 2 74.249095 -96.364074 23.346799
16235 63 2 78.229876 -95.886342 26.161963
16236 64 2 96.941930 -49.955324 -85.201240
16237 64 2 95.352693 -49.456200 -87.696276
16238 64 2 96.246640 -47.887194 -83.142258
16239 64 3 99.870442 -49.793560 -85.831836
16240 64 2 96.297945 -52.684343 -84.134592
16241 65 2 -24.379772 83.412202 -86.058119
16242 65 2 -22.436297 85.680210 -86.339270
16243 65 2 -25.072117 82.345886 -88.775402
16244 65 2 -26.870934 84.392034 -84.703850
16245 65 3 -23.139741 81.230680 -84.413953
16246 66 2 -69.330608 5.954429 -53.560603
16247 66 3 -67.588216 8.394399 -53.457559
16248 66 2 -69.983195 5.072995 -50.768256
16249 66 2 -67.882477 3.751240 -54.991992
16250 66 2 -71.868543 6.599083 -55.024606
16251 67 2 -46.385805 78.060383 36.540548
16252 67 2 -44.373436 75.856440 36.235577
16253 67 2 -47.159457 79.090097 33.831092
16254 67 2 -45.190690 80.289588 38.153727
16255 67 3 -48.819636 77.005408 37.941795
16256 68 2 -88.047829 -35.741029 66.705744
16257 68 3 -89.108313 -33.614086 64.875038
16258 68 2 -90.180931 -36.531787 68.661396
16259 68 2 -85.668173 -34.683127 68.195066
16260 68 2 -87.233898 -38.135117 65.091476
16261 69 2 -38.625539 -52.978824 61.727776
16262 69 3 -41.529499 -53.683554 61.462503
16263 69 2 -37.402426 -52.734880 58.999317
16264 69 2 -37.211362 -55.129365 63.268970
16265 69 2 -38.358867 -50.367498 63.180313
16266 70 2 38.652779 -28.332800 72.650658
16267 70 2 37.974344 -29.624293 75.272065
16268 70 3 36.640534 -29.151957 70.581878
16269 70 2 41.389291 -29.205375 71.784566
16270 70 2 38.606947 -25.349574 72.964125
16271 71 2 22.926773 56.464694 12.969720
16272 71 3 20.343988 57.767917 12.175472
16273 71 2 22.709988 55.448185 15.783919
16274 71 2 25.152217 58.469269 12.799196
16275 71 2 23.500899 54.173406 11.120294
16276 72 2 53.924338 -36.101267 -52.243052
16277 72 2 54.409898 -39.054456 -52.035912
16278 72 2 53.805667 -34.911926 -49.491437
16279 72 3 51.323991 -35.612130 -53.656890
16280 72 2 56.157798 -34.826555 -53.787970
16281 73 2 -80.194624 -21.045526 -92.444713
16282 73 2 -77.851337 -22.317208 -93.820151
16283 73 3 -81.637019 -19.257508 -94.374088
16284 73 2 -79.226849 -19.425860 -90.112312
16285 73 2 -82.063290 -23.181527 -91.472301
16286 74 2 50.842219 -15.877634 94.192531
16287 74 3 53.824958 -15.818682 93.876632
16288 74 2 50.149181 -16.110384 97.102089
16289 74 2 49.725658 -18.232789 92.707089
16290 74 2 49.669079 -13.348682 93.084315
16291 75 2 -49.824248 -78.871039 -45.435867
16292 75 2 -47.833128 -77.287542 -47.025829
16293 75 2 -48.388185 -80.468608 -43.341710
16294 75 2 -51.313823 -80.726825 -47.262674
16295 75 3 -51.761857 -77.001180 -44.113255
16296 76 2 12.698564 -9.049563 -10.239025
16297 76 3 14.970606 -8.173052 -8.487011
16298 76 2 13.776014 -10.003564 -12.871321
16299 76 2 10.840274 -6.739409 -10.697220
16300 76 2 11.207362 -11.282229 -8.900548
16301 77 2 -23.496392 77.772441 -93.400948
16302 77 2 -25.708438 76.924164 -91.560494
16303 77 3 -22.848843 75.530355 -95.286083
16304 77 2 -21.061311 78.457885 -91.788326
16305 77 2 -24.366973 80.177362 -94.968891
16306 78 2 -46.347375 18.860207 -96.168424
16307 78 2 -46.571011 21.652496 -95.094595
16308 78 2 -45.082184 17.092167 -94.101222
16309 78 3 -44.653783 18.873732 -98.644624
16310 78 2 -49.082521 17.822435 -96.833256
16311 79 2 63.257101 -60.742337 47.041294
16312 79 3 61.272085 -58.495274 46.939217
16313 79 2 61.820881 -63.359572 46.745737
16314 79 2 64.698879 -60.684291 49.671485
16315 79 2 65.236561 -60.430210 44.808735
16316 80 2 22.629942 -88.231291 17.809556
16317 80 2 22.756390 -85.264839 17.380403
16318 80 2 23.701155 -88.894378 20.532205
16319 80 3 24.280480 -89.615064 15.721281
16320 80 2 19.781743 -89.150882 17.604336
16321 81 2 66.469761 -36.144156 -14.477262
16322 81 2 68.867046 -36.935683 -16.097913
16323 81 3 66.005433 -33.193274 -14.754206
16324 81 2 66.947108 -36.814946 -11.592443
16325 81 2 64.059457 -37.632720 -15.464487
16326 82 2 39.383763 -71.935824 -26.099537
16327 82 2 37.043963 -71.585700 -24.254884
16328 82 3 41.504672 -73.554942 -24.728333
16329 82 2 40.493988 -69.245762 -26.828210
16330 82 2 38.492429 -73.356893 -28.586722
16331 83 2 -29.727472 52.478277 33.083592
16332 83 2 -31.644191 53.359210 35.216699
16333 83 3 -30.213171 54.066114 30.585018
16334 83 2 -30.139408 49.562328 32.511276
16335 83 2 -26.913117 52.925458 34.021375
16336 84 2 95.349428 68.995281 35.168477
16337 84 2 94.228394 67.260111 37.343900
16338 84 3 96.880355 67.298513 33.224965
16339 84 2 97.183543 71.043709 36.368463
16340 84 2 93.105421 70.378792 33.736580
16341 85 2 -81.308708 60.086054 9.711190
16342 85 2 -79.632690 62.518097 9.185709
16343 85 3 -81.440518 59.581694 12.665551
16344 85 2 -80.083150 57.712814 8.345269
16345 85 2 -84.078473 60.531609 8.648231
16346 86 2 -49.082413 78.697996 20.690283
16347 86 2 -47.685130 80.997510 22.016871
16348 86 3 -49.967491 76.729253 22.773714
16349 86 2 -47.201571 77.353293 18.778685
16350 86 2 -51.475459 79.711929 19.191861
16351 87 2 19.286267 -45.534428 -39.540059
16352 87 3 20.287362 -47.877761 -37.956836
16353 87 2 18.576280 -43.296096 -37.673032
16354 87 2 16.854739 -46.345972 -41.098606
16355 87 2 21.426687 -44.617881 -41.431764
16356 88 2 -70.937122 73.180816 -36.619429
16357 88 3 -68.556856 74.928253 -37.149332
16358 88 2 -71.899772 71.992614 -39.200413
16359 88 2 -73.129645 74.821910 -35.394826
16360 88 2 -70.162215 70.980486 -34.733144
16361 89 2 3.864663 47.176089 -79.335904
16362 89 3 3.765355 46.780715 -76.363730
16363 89 2 3.257470 44.579816 -80.710924
16364 89 2 6.602435 48.111527 -80.129353
16365 89 2 1.833393 49.232299 -80.139609
16366 90 2 -37.496943 29.821550 -3.583605
16367 90 2 -39.913391 28.524555 -4.799575
16368 90 2 -35.075114 29.163426 -5.227264
16369 90 3 -37.115245 28.802433 -0.787946
16370 90 2 -37.884022 32.795785 -3.519634
16371 91 2 -62.363514 -30.986772 96.152497
16372 91 2 -60.048077 -32.337634 94.805679
16373 91 2 -63.595743 -29.001805 94.270605
16374 91 3 -61.399514 -29.566868 98.613102
16375 91 2 -64.410723 -33.040780 96.920602
16376 92 2 -29.423365 4.640423 52.894840
16377 92 2 -27.973290 3.235546 55.113759
16378 92 3 -29.197387 3.028661 50.374689
16379 92 2 -28.206927 7.348428 52.462417
16380 92 2 -32.315854 4.949056 53.628494
16381 93 2 43.147187 -95.743490 -73.589709
16382 93 2 43.793013 -98.189558 -71.977363
16383 93 3 45.018103 -93.523954 -72.832521
16384 93 2 40.321081 -94.900582 -73.039590
16385 93 2 43.456551 -96.359866 -76.509362
16386 94 2 -68.269352 32.331912 36.871979
16387 94 2 -70.102889 34.628022 36.266981
16388 94 2 -69.811160 30.156385 38.246717
16389 94 3 -66.050413 33.268539 38.660564
16390 94 2 -67.112945 31.274703 34.313652
16391 95 2 5.241513 22.883294 -56.392123
16392 95 2 4.533653 25.542686 -57.586514
16393 95 2 2.791976 21.648831 -55.177270
16394 95 2 7.327223 23.263654 -54.269591
16395 95 3 6.313201 21.078006 -58.535116
16396 96 2 71.146163 15.242046 57.663524
16397 96 2 69.435073 17.294793 59.026756
16398 96 3 71.155629 15.751803 54.707165
16399 96 2 70.044499 12.504229 58.202684
16400 96 2 73.949450 15.417360 58.717491
16401 97 2 -4.902756 79.810731 23.913616
16402 97 2 -5.340409 82.695033 23.214144
16403 97 2 -4.495235 78.223111 21.400969
16404 97 2 -7.300357 78.762656 25.380942
16405 97 3 -2.475021 79.562122 25.658408
16406 98 2 -46.842944 -16.794821 3.219351
16407 98 2 -47.750444 -14.441475 4.843607
16408 98 2 -46.616863 -19.205219 4.991035
16409 98 3 -44.168443 -16.196156 1.999250
16410 98 2 -48.836026 -17.336433 1.043511
16411 99 2 -18.032390 18.701755 -72.779320
16412 99 2 -15.956060 20.816248 -72.312660
16413 99 2 -17.877119 17.758048 -75.622788
16414 99 3 -20.756718 19.841610 -72.251337
16415 99 2 -17.539663 16.391113 -70.930495
16416 100 2 62.108107 65.754897 33.131191
16417 100 2 63.898404 68.162097 33.146191
16418 100 3 61.350316 65.054671 35.948181
16419 100 2 63.552411 63.442268 31.879897
16420 100 2 59.631299 66.360551 31.550493
16421 101 2 49.193727 -68.626646 -22.227476
16422 101 2 46.727206 -70.317821 -21.990416
16423 101 2 51.528991 -70.092990 -21.045790
16424 101 3 48.782804 -66.046688 -20.752701
16425 101 2 49.735909 -68.049083 -25.120996
16426 102 2 70.974677 60.822123 34.978287
16427 102 2 68.549118 60.657436 36.735997
16428 102 3 72.297445 63.489423 35.346791
16429 102 2 70.155146 60.500025 32.110427
16430 102 2 72.896998 58.641609 35.719934
16431 103 2 -94.981224 -73.252722 -60.950175
16432 103 2 -94.114884 -70.380581 -60.933953
16433 103 3 -93.426460 -74.777864 -58.887011
16434 103 2 -94.474032 -74.434918 -63.660372
16435 103 2 -97.909521 -73.417524 -60.319366
16436 104 2 57.767427 -70.737425 -76.670714
16437 104 3 55.360254 -68.995317 -76.257700
16438 104 2 59.894962 -69.988708 -74.692579
16439 104 2 58.812789 -70.354590 -79.456509
16440 104 2 57.001702 -73.611085 -76.276068
16441 105 2 22.792121 0.688712 -23.843974
16442 105 2 22.606553 3.632779 -24.389902
16443 105 2 22.828303 -0.809880 -26.442610
16444 105 3 20.422117 -0.178933 -22.222163
16445 105 2 25.311513 0.110884 -22.321219
16446 106 2 -55.284575 -71.530238 -50.031564
16447 106 2 -58.226420 -70.992954 -49.793083
16448 106 2 -53.867185 -70.417762 -47.632939
16449 106 3 -54.226906 -70.220536 -52.514711
16450 106 2 -54.817788 -74.489698 -50.185524
16451 107 2 -68.199860 -76.588943 -36.369626
16452 107 3 -70.327287 -77.479470 -34.451029
16453 107 2 -65.551472 -77.711539 -35.517674
16454 107 2 -68.057602 -73.592355 -36.384644
16455 107 2 -68.863077 -77.572407 -39.125155
16456 108 2 -23.563092 -3.732247 80.480612
16457 108 2 -25.232418 -2.662368 78.229233
16458 108 2 -20.676445 -3.087360 79.979230
16459 108 3 -23.907481 -6.707326 80.654692
16460 108 2 -24.436026 -2.471936 83.059294
16461 109 2 54.496756 -1.062295 -52.689495
16462 109 2 55.296693 -2.317876 -50.084957
16463 109 2 55.116992 1.872001 -52.617276
16464 109 2 51.554299 -1.451995 -53.125472
16465 109 3 56.019041 -2.351310 -54.930273
16466 110 2 -28.450351 -46.347127 85.008176
16467 110 2 -29.585444 -48.677358 83.497684
16468 110 3 -27.195450 -44.421332 83.080343
16469 110 2 -26.373713 -47.323797 86.940453
16470 110 2 -30.646795 -44.966021 86.514224
16471 111 2 -9.281424 8.466133 -68.318026
16472 111 2 -7.424290 6.528895 -69.658982
16473 111 2 -9.912126 10.714100 -70.201867
16474 111 3 -7.970946 9.564856 -65.853183
16475 111 2 -11.818335 7.056680 -67.558074
16476 112 2 30.339958 89.570840 66.196927
16477 112 2 30.880656 92.062695 64.616323
16478 112 2 27.817021 88.285537 65.205574
16479 112 2 30.031502 90.273469 69.097128
16480 112 3 32.630654 87.661660 65.868682
16481 113 2 -8.641350 80.951075 56.746272
16482 113 3 -11.512962 80.188319 56.331488
16483 113 2 -7.847221 83.003293 54.707214
16484 113 2 -6.907902 78.520952 56.446838
16485 113 2 -8.297314 82.091735 59.499549
16486 114 2 92.154550 -65.228007 80.100981
16487 114 2 94.964428 -66.278921 80.088295
16488 114 2 91.220744 -64.904301 82.933510
16489 114 3 90.358386 -67.158566 78.670338
16490 114 2 92.074641 -62.570238 78.711779
16491 115 2 -92.515236 42.535572 -67.040290
16492 115 2 -92.869255 45.329945 -68.072836
16493 115 3 -92.036348 40.672124 -69.342078
16494 115 2 -94.989884 41.692133 -65.568988
16495 115 2 -90.165459 42.448086 -65.177257
16496 116 2 77.568517 94.873188 -51.786194
16497 116 3 79.365686 97.107119 -52.669222
16498 116 2 78.847433 92.240767 -52.445539
16499 116 2 74.934251 95.088493 -53.205450
16500 116 2 77.126699 95.056372 -48.824566
16501 117 2 37.038059 38.904984 -71.049055
16502 117 2 36.170653 41.388520 -69.606954
16503 117 2 39.103050 37.468848 -69.414023
16504 117 2 38.209338 39.650345 -73.708479
16505 117 3 34.669193 37.112221 -71.466761
16506 118 2 -72.022275 47.631359 -47.640448
16507 118 2 -74.097709 48.315527 -49.695804
16508 118 3 -73.282817 47.600381 -44.918302
16509 118 2 -69.835037 49.683590 -47.706323
16510 118 2 -70.873537 44.925938 -48.241362
16511 119 2 58.936542 18.849144 36.281463
16512 119 2 61.690185 19.252468 35.161296
16513 119 2 59.053973 18.931679 39.278027
16514 119 2 57.876582 16.186246 35.395200
16515 119 3 57.125426 21.026182 35.291329
16516 120 2 58.523362 -86.077157 -24.139497
16517 120 3 59.124048 -89.011279 -24.313019
16518 120 2 56.835697 -85.543456 -21.717319
16519 120 2 57.041982 -85.212422 -26.600746
16520 120 2 61.091723 -84.541472 -23.926906
16521 121 2 -2.675872 53.173372 -21.314120
16522 121 3 -2.542947 53.591008 -18.346307
16523 121 2 -0.969185 55.221585 -22.689635
16524 121 2 -5.516286 53.455406 -22.237434
16525 121 2 -1.675072 50.425489 -21.983103
16526 122 2 -26.600592 -51.409018 86.306057
16527 122 2 -23.790885 -50.684830 87.068355
16528 122 2 -26.646605 -52.388722 83.470909
16529 122 2 -28.359551 -48.991817 86.557470
16530 122 3 -27.605328 -53.570701 88.127493
16531 123 2 13.002052 48.202208 -21.717988
16532 123 3 12.176815 47.234108 -19.001047
16533 123 2 12.267145 51.095658 -22.014396
16534 123 2 11.595589 46.592524 -23.822929
16535 123 2 15.968659 47.886542 -22.033579
16536 124 2 65.833869 33.373204 80.130131
16537 124 2 64.540877 31.095669 81.593349
16538 124 2 65.531614 32.962674 77.173764
16539 124 2 68.748614 33.486089 80.831215
16540 124 3 64.514370 35.948385 80.922195
16541 125 2 77.767417 -23.178484 26.102986
16542 125 2 80.410839 -22.008038 26.904467
16543 125 3 78.217093 -25.456043 24.202850
16544 125 2 76.105806 -21.070912 24.762393
16545 125 2 76.335929 -24.178944 28.542232
16546 126 2 52.114134 -52.764197 25.968236
16547 126 2 54.760854 -52.702111 24.557202
16548 126 2 50.167530 -54.395275 24.371264
16549 126 3 51.071066 -49.966636 26.260916
16550 126 2 52.457085 -53.992767 28.683563
16551 127 2 -81.322122 -81.904207 -13.977374
16552 127 2 -79.147054 -80.526908 -15.517545
16553 127 2 -81.636950 -84.712248 -14.985237
16554 127 3 -83.901442 -80.416035 -14.341320
16555 127 2 -80.603044 -81.961635 -11.065394
16556 128 2 -13.884919 93.010615 81.518403
16557 128 2 -11.559003 91.115857 81.516117
16558 128 2 -15.084300 93.118312 84.266108
16559 128 3 -15.951028 92.060033 79.561979
16560 128 2 -12.945347 95.748258 80.729406
16561 129 2 -24.761067 50.946989 40.104882
16562 129 3 -26.586657 50.866576 42.484116
16563 129 2 -26.010782 52.607289 37.941178
16564 129 2 -24.313525 48.158431 39.093125
16565 129 2 -22.133304 52.155659 40.901109
16566 130 2 -55.397373 -89.053616 0.343012
16567 130 2 -55.573177 -86.489673 -1.204660
16568 130 3 -58.025871 -89.594386 1.684119
16569 130 2 -53.244210 -88.822795 2.419213
16570 130 2 -54.746235 -91.307609 -1.526623
16571 131 2 11.477437 25.270183 59.027047
16572 131 2 10.344228 27.590718 57.500301
16573 131 3 13.501628 23.848851 57.329264
16574 131 2 9.268205 23.373058 59.748304
16575 131 2 12.795686 26.268104 61.530319
16576 132 2 -0.606712 -15.226027 34.831823
16577 132 3 -1.310732 -17.331906 32.814491
16578 132 2 -1.670713 -16.022242 37.521422
16579 132 2 -1.821427 -12.608738 34.010684
16580 132 2 2.376026 -14.941220 34.980694
16581 133 2 -10.994241 88.955753 36.862846
16582 133 2 -9.081157 86.704852 37.385867
16583 133 2 -11.729269 88.988045 33.954463
16584 133 2 -9.698338 91.560265 37.595755
16585 133 3 -13.468201 88.569851 38.515299
16586 134 2 -49.725539 47.687804 -60.138755
16587 134 2 -52.513196 48.796266 -60.121995
16588 134 3 -48.806122 47.336432 -62.972694
16589 134 2 -49.696539 45.033159 -58.741607
16590 134 2 -47.886300 49.585358 -58.718724
16591 135 2 -2.458801 79.620369 13.517985
16592 135 3 -3.882217 78.485196 15.902365
16593 135 2 -2.776959 77.761501 11.184879
16594 135 2 0.456017 79.939713 14.151907
16595 135 2 -3.632043 82.295067 12.832790
16596 136 2 10.618333 65.890687 -83.646610
16597 136 2 8.591840 67.289428 -85.360334
16598 136 3 9.250025 63.804188 -81.981000
16599 136 2 11.956066 67.885859 -81.849458
16600 136 2 12.675401 64.583272 -85.395649
16601 137 2 -27.531087 -12.512074 86.074632
16602 137 2 -26.279619 -9.835300 86.593002
16603 137 3 -26.623672 -14.462083 88.166058
16604 137 2 -26.702645 -13.495235 83.364082
16605 137 2 -30.518412 -12.255678 86.175385
16606 138 2 25.659840 72.708999 30.757990
16607 138 2 25.585102 75.426051 29.488328
16608 138 2 22.862139 71.668868 31.059647
16609 138 2 26.951434 72.902459 33.458797
16610 138 3 27.240684 70.838617 29.025188
16611 139 2 -96.590949 13.027645 83.226929
16612 139 2 -95.348462 13.834870 80.618364
16613 139 2 -99.578512 13.027859 82.954045
16614 139 2 -95.781838 14.971520 85.363910
16615 139 3 -95.654983 10.276330 83.971398
16616 140 2 0.987775 -13.415190 -12.097084
16617 140 2 -1.202545 -15.464947 -12.128579
16618 140 3 1.589233 -12.637857 -9.262653
16619 140 2 0.112102 -10.992261 -13.634163
16620 140 2 3.452312 -14.565696 -13.362942
16621 141 2 -26.319913 56.005191 7.490496
16622 141 2 -27.476825 58.763435 7.722110
16623 141 3 -27.255675 54.331322 9.797553
16624 141 2 -23.324697 56.170929 7.525273
16625 141 2 -27.222456 54.755078 4.917048
16626 142 2 21.749245 12.368764 10.762764
16627 142 3 24.699858 12.834826 11.039654
16628 142 2 21.192361 11.012391 8.145488
16629 142 2 20.308667 14.998721 10.852564
16630 142 2 20.796093 10.629119 13.013350
16631 143 2 52.956933 -32.340901 -79.828285
16632 143 2 50.250719 -32.624380 -78.564939
16633 143 2 54.941015 -34.019250 -78.329430
16634 143 3 53.807431 -29.465468 -79.735866
16635 143 2 52.828568 -33.254505 -82.682904
16636 144 2 -83.029395 -85.878628 -24.885976
16637 144 2 -83.158589 -88.587710 -26.168233
16638 144 2 -85.590218 -84.404104 -25.403628
16639 144 3 -80.733756 -84.332752 -26.043692
16640 144 2 -82.635017 -86.189947 -21.928351
16641 145 2 0.557308 -84.542153 -42.609794
16642 145 3 0.592378 -81.577005 -43.064402
16643 145 2 -0.778119 -85.136449 -39.989976
16644 145 2 3.371966 -85.578847 -42.555337
16645 145 2 -0.956992 -85.876310 -44.829461
16646 146 2 48.646633 38.059075 -9.560339
16647 146 2 47.634967 39.424645 -7.088143
16648 146 2 46.366683 36.694469 -10.953062
16649 146 2 50.717289 36.024747 -8.802782
16650 146 3 49.867594 40.092441 -11.397369
16651 147 2 16.004628 80.977562 32.463049
16652 147 2 14.708910 83.257000 33.920882
16653 147 2 18.964298 81.032241 32.950252
16654 147 2 15.470229 81.238285 29.522566
16655 147 3 14.875075 78.382722 33.458496
16656 148 2 45.925172 -12.220392 86.567158
16657 148 2 48.917396 -12.405642 86.456362
16658 148 3 45.029995 -12.197744 89.430399
16659 148 2 44.724254 -14.583671 85.162627
16660 148 2 45.029042 -9.694510 85.219245
16661 149 2 72.026041 82.885119 -38.930914
16662 149 2 74.601696 81.480554 -38.303857
16663 149 3 70.591573 81.414498 -41.117138
16664 149 2 72.608086 85.688568 -39.826400
16665 149 2 70.302810 82.956854 -36.476260
16666 150 2 -49.760153 -8.055852 58.585452
16667 150 2 -47.712418 -7.091583 56.616450
16668 150 2 -52.483126 -7.132487 57.729406
16669 150 2 -49.135980 -6.945891 61.301772
16670 150 3 -49.709086 -11.053446 58.694179
16671 151 2 18.855522 41.537938 59.800827
16672 151 3 20.188651 43.257534 61.866198
16673 151 2 17.806613 39.045726 61.100316
16674 151 2 20.844394 40.798767 57.679974
16675 151 2 16.582430 43.049724 58.556819
16676 152 2 38.572895 -38.032848 -39.229257
16677 152 2 40.770780 -39.793162 -40.263954
16678 152 2 39.763197 -35.729839 -37.719513
16679 152 3 36.799500 -39.617624 -37.400717
16680 152 2 36.958103 -36.990769 -41.532845
16681 153 2 -12.547736 15.847432 -79.288565
16682 153 2 -13.403262 12.972079 -79.267987
16683 153 2 -14.446919 17.467767 -77.624950
16684 153 2 -12.560878 16.874520 -82.107238
16685 153 3 -9.779883 16.075360 -78.154086
16686 154 2 -30.904691 -1.797079 19.532695
16687 154 2 -31.205342 -1.801284 22.517589
16688 154 2 -28.365743 -3.207492 18.781380
16689 154 3 -30.807626 1.032746 18.541398
16690 154 2 -33.240056 -3.212285 18.290413
16691 155 2 85.889057 12.862788 -50.761699
16692 155 2 84.252119 13.440393 -53.208494
16693 155 2 88.583920 11.830955 -51.582085
16694 155 2 84.494490 10.798775 -49.089865
16695 155 3 86.225700 15.381030 -49.166353
16696 156 2 70.785206 -1.431247 -33.790788
16697 156 2 73.638856 -0.505751 -33.778884
16698 156 2 69.868018 -1.808299 -36.622147
16699 156 2 69.061824 0.623791 -32.446625
16700 156 3 70.572128 -4.034727 -32.315496
16701 157 2 -35.627848 -17.860713 -42.712542
16702 157 2 -37.511176 -16.189449 -41.081607
16703 157 2 -33.924854 -19.521008 -40.884091
16704 157 3 -33.873855 -16.070336 -44.361197
16705 157 2 -37.201506 -19.662059 -44.523275
16706 158 2 59.002928 28.668580 35.259459
16707 158 2 56.147602 29.096520 36.074308
16708 158 2 60.335211 31.325307 34.851018
16709 158 2 59.089059 27.102972 32.701833
16710 158 3 60.439840 27.149521 37.410678
16711 159 2 -77.737361 44.544572 -94.822874
16712 159 2 -79.777948 42.873239 -96.252087
16713 159 2 -77.691156 43.798619 -91.917462
16714 159 3 -78.449714 47.445634 -95.099265
16715 159 2 -75.030625 44.060797 -96.022683
16716 160 2 -71.135874 -83.852163 -7.341437
16717 160 2 -69.967662 -86.615347 -7.331860
16718 160 2 -71.709989 -82.999413 -4.523066
16719 160 2 -73.683389 -83.848982 -8.925784
16720 160 3 -69.182457 -81.944908 -8.585037
16721 161 2 -32.262243 -3.342006 27.530298
16722 161 3 -33.205489 -0.762633 28.737411
16723 161 2 -30.343720 -2.759185 25.298798
16724 161 2 -34.614550 -4.862186 26.455260
16725 161 2 -30.885214 -4.984019 29.629722
16726 162 2 10.917758 -91.691671 -85.368031
16727 162 2 13.393014 -91.306575 -87.018729
16728 162 3 8.920353 -93.303044 -86.921689
16729 162 2 9.738271 -89.016580 -84.695204
16730 162 2 11.619392 -93.140487 -82.836501
16731 163 2 -94.752235 44.832729 77.715825
16732 163 2 -94.282040 42.206794 76.343461
16733 163 3 -92.135339 46.254006 78.078900
16734 163 2 -96.007945 44.349048 80.397102
16735 163 2 -96.583618 46.521068 76.043835
16736 164 2 92.887802 -17.329284 -73.558017
16737 164 2 91.655321 -19.403050 -71.774625
16738 164 3 91.204901 -16.999285 -76.019509
16739 164 2 95.649162 -18.199560 -74.343836
16740 164 2 93.041826 -14.715242 -72.094097
16741 165 2 -50.718644 77.458751 49.014983
16742 165 3 -49.059561 79.661637 47.833991
16743 165 2 -51.976753 78.412121 51.566109
16744 165 2 -48.971796 75.087716 49.586573
16745 165 2 -52.866464 76.673531 47.073257
16746 166 2 50.271101 65.784396 70.882990
16747 166 3 48.219816 63.967524 69.661840
16748 166 2 52.553962 66.143900 68.970060
16749 166 2 51.285348 64.575585 73.434475
16750 166 2 49.025278 68.450575 71.465583
16751 167 2 -72.208166 19.080317 69.519686
16752 167 2 -72.797105 16.894449 71.488222
16753 167 2 -69.306772 19.824002 69.689530
16754 167 3 -73.894177 21.479051 70.154858
16755 167 2 -72.834609 18.123766 66.746136
16756 168 2 11.529914 9.748331 2.986321
16757 168 2 12.596517 10.708237 0.351755
16758 168 3 8.770784 10.847823 3.408596
16759 168 2 13.329391 10.687024 5.195560
16760 168 2 11.422964 6.750239 2.989372
16761 169 2 74.562068 -37.155691 2.222743
16762 169 2 72.335526 -37.806432 4.125123
16763 169 2 76.775506 -39.153603 2.552955
16764 169 2 75.603781 -34.403568 2.806400
16765 169 3 73.533458 -37.259160 -0.593505
16766 170 2 -96.580272 -81.108535 5.804357
16767 170 2 -96.812654 -78.249309 4.926392
16768 170 2 -98.190915 -82.852037 3.969682
16769 170 2 -97.614962 -81.381261 8.607041
16770 170 3 -93.702557 -81.951535 5.714314
16771 171 2 43.377854 -48.160599 -11.983152
16772 171 2 41.114141 -48.508713 -10.045519
16773 171 2 45.079680 -50.631181 -11.987074
16774 171 2 45.041103 -45.801904 -11.164517
16775 171 3 42.276492 -47.700598 -14.735496
16776 172 2 -15.136069 -16.934367 88.965377
16777 172 2 -17.931739 -17.863380 89.532088
16778 172 3 -13.178599 -18.915373 90.080691
16779 172 2 -14.691993 -14.259021 90.248076
16780 172 2 -14.741944 -16.699695 86.000652
16781 173 2 34.786535 -73.609779 73.035718
16782 173 2 36.156755 -72.636692 75.520793
16783 173 3 35.616233 -76.438432 72.478654
16784 173 2 35.559311 -71.866441 70.719775
16785 173 2 31.813840 -73.497549 73.423649
16786 174 2 31.330033 47.531370 6.374245
16787 174 2 34.195562 48.277765 6.855533
16788 174 2 30.636074 45.117944 8.015524
16789 174 3 30.933199 46.910792 3.466083
16790 174 2 29.555297 49.818979 7.159840
16791 175 2 34.514271 -54.406523 -3.167877
16792 175 2 34.445409 -56.696149 -5.105109
16793 175 2 36.823791 -54.758187 -1.285737
16794 175 3 31.953265 -54.340018 -1.606844
16795 175 2 34.834619 -51.831737 -4.673817
16796 176 2 -76.613787 -5.271735 28.060629
16797 176 3 -73.725334 -4.790902 28.713042
16798 176 2 -78.088073 -6.042090 30.557233
16799 176 2 -76.829245 -7.486363 26.048416
16800 176 2 -77.812495 -2.767583 26.923825

Bonds

1 1 1 2
2 1 2 3
3 1 3 4
4 1 4 5
5 1 5 6
6 1 6 7
7 1 7 8
8 1 8 9
9 1 9 10
10 1 10 11
11 1 11 12
12 1 12 13
13 1 13 14
14 1 14 15
15 1 15 16
16 1 16 17
17 1 17 18
18 1 18 19
19 1 19 20
20 1 20 21
21 1 21 22
22 1 22 23
23 1 23 24
24 1 24 25
25 1 25 26
26 1 26 27
27 1 27 28
28 1 28 29
29 1 29 30
30 1 30 31
31 1 31 32
32 1 32 33
33 1 33 34
34 1 34 35
35 1 35 36
36 1 36 37
37 1 37 38
38 1 38 39
39 1 39 40
40 1 40 41
41 1 41 42
42 1 42 43
43 1 43 44
44 1 44 45
45 1 45 46
46 1 46 47
47 1 47 48
48 1 48 49
49 1 49 50
50 1 50 51
51 1 51 52
52 1 52 53
53 1 53 54
54 1 54 55
55 1 55 56
56 1 56 57
57 1 57 58
58 1 58 59
59 1 59 60
60 1 60 61
61 1 61 62
62 1 62 63
63 1 63 64
64 1 64 65
65 1 65 66
66 1 66 67
67 1 67 68
68 1 68 69
69 1 69 70
70 1 70 71
71 1 71 72
72 1 72 73
73 1 73 74
74 1 74 75
75 1 75 76
76 1 76 77
77 1 77 78
78 1 78 79
79 1 79 80
80 1 80 81
81 1 81 82
82 1 82 83
83 1 83 84
84 1 84 85
85 1 85 86
86 1 86 87
87 1 87 88
88 1 88 89
89 1 89 90
90 1 90 91
91 1 91 92
92 1 92 93
93 1 93 94
94 1 94 95
95 1 95 96
96 1 96 97
97 1 97 98
98 1 98 99
99 1 99 100
100 1 100 101
101 1 101 102
102 1 102 103
103 1 103 104
104 1 104 105
105 1 105 106
106 1 106 107
107 1 107 108
108 1 108 109
109 1 109 110
110 1 110 111
111 1 111 112
112 1 112 113
113 1 113 114
114 1 114 115
115 1 115 116
116 1 116 117
117 1 117 118
118 1 118 119
119 1 119 120
120 1 120 121
121 1 121 122
122 1 122 123
123 1 123 124
124 1 124 125
125 1 125 126
126 1 126 127
127 1 127 128
128 1 128 129
129 1 129 130
130 1 130 131
131 1 131 132
132 1 132 133
133 1 133 134
134 1 134 135
135 1 135 136
136 1 136 137
137 1 137 138
138 1 138 139
139 1 139 140
140 1 140 141
141 1 141 142
142 1 142 143
143 1 143 144
144 1 144 145
145 1 145 146
146 1 146 147
147 1 147 148
148 1 148 149
149 1 149 150
150 1 150 151
151 1 151 152
152 1 152 153
153 1 153 154
154 1 154 155
155 1 155 156
156 1 156 157
157 1 157 158
158 1 158 159
159 1 159 160
160 1 160 161
161 1 161 162
162 1 162 163
163 1 163 164
164 1 164 165
165 1 165 166
166 1 166 167
167 1 167 168
168 1 168 169
169 1 169 170
170 1 170 171
171 1 171 172
172 1 172 173
173 1 173 174
174 1 174 175
175 1 175 176
176 1 176 177
177 1 177 178
178 1 178 179
179 1 179 180
180 1 180 181
181 1 181 182
182 1 182 183
183 1 183 184
184 1 184 185
185 1 185 186
186 1 186 187
187 1 187 188
188 1 188 189
189 1 189 190
190 1 190 191
191 1 191 192
192 1 192 193
193 1 193 194
194 1 194 195
195 1 195 196
196 1 196 197
197 1 197 198
198 1 198 199
199 1 199 200
200 1 200 201
201 1 201 202
202 1 202 203
203 1 203 204
204 1 204 205
205 1 205 206
206 1 206 207
207 1 207 208
208 1 208 209
209 1 209 210
210 1 210 211
211 1 211 212
212 1 212 213
213 1 213 214
214 1 214 215
215 1 215 216
216 1 216 217
217 1 217 218
218 1 218 219
219 1 219 220
220 1 220 221
221 1 221 222
222 1 222 223
223 1 223 224
224 1 224 225
225 1 225 226
226 1 226 227
227 1 227 228
228 1 228 229
229 1 229 230
230 1 230 231
231 1 231 232
232 1 232 233
233 1 233 234
234 1 234 235
235 1 235 236
236 1 236 237
237 1 237 238
238 1 238 239
239 1 239 240
240 1 240 241
241 1 241 242
242 1 242 243
243 1 243 244
244 1 244 245
245 1 245 246
246 1 246 247
247 1 247 248
248 1 248 249
249 1 249 250
250 1 250 251
251 1 251 252
252 1 252 253
253 1 253 254
254 1 254 255
255 1 255 256
256 1 256 257
257 1 257 258
258 1 258 259
259 1 259 260
260 1 260 261
261 1 261 262
262 1 262 263
263 1 263 264
264 1 264 265
265 1 265 266
266 1 266 267
267 1 267 268
268 1 268 269
269 1 269 270
270 1 270 271
271 1 271 272
272 1 272 273
273 1 273 274
274 1 274 275
275 1 275 276
276 1 276 277
277 1 277 278
278 1 278 279
279 1 279 280
280 1 280 281
281 1 281 282
282 1 282 283
283 1 283 284
284 1 284 285
285 1 285 286
286 1 286 287
287 1 287 288
288 1 288 289
289 1 289 290
290 1 290 291
291 1 291 292
292 1 292 293
293 1 293 294
294 1 294 295
295 1 295 296
296 1 296 297
297 1 297 298
298 1 298 299
299 1 299 300
300 1 300 301
301 1 301 302
302 1 302 303
303 1 303 304
304 1 304 305
305 1 305 306
306 1 306 307
307 1 307 308
308 1 308 309
309 1 309 310
310 1 310 311
311 1 311 312
312 1 312 313
313 1 313 314
314 1 314 315
315 1 315 316
316 1 316 317
317 1 317 318
318 1 318 319
319 1 319 320
320 1 320 321
321 1 321 322
322 1 322 323
323 1 323 324
324 1 324 325
325 1 325 326
326 1 326 327
327 1 327 328
328 1 328 329
329 1 329 330
330 1 330 331
331 1 331 332
332 1 332 333
333 1 333 334
334 1 334 335
335 1 335 336
336 1 336 337
337 1 337 338
338 1 338 339
339 1 339 340
340 1 340 341
341 1 341 342
342 1 342 343
343 1 343 344
344 1 344 345
345 1 345 346
346 1 346 347
347 1 347 348
348 1 348 349
349 1 349 350
350 1 350 351
351 1 351 352
352 1 352 353
353 1 353 354
354 1 354 355
355 1 355 356
356 1 356 357
357 1 357 358
358 1 358 359
359 1 359 360
360 1 360 361
361 1 361 362
362 1 362 363
363 1 363 364
364 1 364 365
365 1 365 366
366 1 366 367
367 1 367 368
368 1 368 369
369 1 369 370
370 1 370 371
371 1 371 372
372 1 372 373
373 1 373 374
374 1 374 375
375 1 375 376
376 1 376 377
377 1 377 378
378 1 378 379
379 1 379 380
380 1 380 381
381 1 381 382
382 1 382 383
383 1 383 384
384 1 384 385
385 1 385 386
386 1 386 387
387 1 387 388
388 1 388 389
389 1 389 390
390 1 390 391
391 1 391 392
392 1 392 393
393 1 393 394
394 1 394 395
395 1 395 396
396 1 396 397
397 1 397 398
398 1 398 399
399 1 399 400
400 1 400 401
401 1 401 402
402 1 402 403
403 1 403 404
404 1 404 405
405 1 405 406
406 1 406 407
407 1 407 408
408 1 408 409
409 1 409 410
410 1 410 411
411 1 411 412
412 1 412 413
413 1 413 414
414 1 414 415
415 1 415 416
416 1 416 417
417 1 417 418
418 1 418 419
419 1 419 420
420 1 420 421
421 1 421 422
422 1 422 423
423 1 423 424
424 1 424 425
425 1 425 426
426 1 426 427
427 1 427 428
428 1 428 429
429 1 429 430
430 1 430 431
431 1 431 432
432 1 432 433
433 1 433 434
434 1 434 435
435 1 435 436
436 1 436 437
437 1 437 438
438 1 438 439
439 1 439 440
440 1 440 441
441 1 441 442
442 1 442 443
443 1 443 444
444 1 444 445
445 1 445 446
446 1 446 447
447 1 447 448
448 1 448 449
449 1 449 450
450 1 450 451
451 1 451 452
452 1 452 453
453 1 453 454
454 1 454 455
455 1 455 456
456 1 456 457
457 1 457 458
458 1 458 459
459 1 459 460
460 1 460 461
461 1 461 462
462 1 462 463
463 1 463 464
464 1 464 465
465 1 465 466
466 1 466 467
467 1 467 468
468 1 468 469
469 1 469 470
470 1 470 471
471 1 471 472
472 1 472 473
473 1 473 474
474 1 474 475
475 1 475 476
476 1 476 477
477 1 477 478
478 1 478 479
479 1 479 480
480 1 480 481
481 1 481 482
482 1 482 483
483 1 483 484
484 1 484 485
485 1 485 486
486 1 486 487
487 1 487 488
488 1 488 489
489 1 489 490
490 1 490 491
491 1 491 492
492 1 492 493
493 1 493 494
494 1 494 495
495 1 495 496
496 1 496 497
497 1 497 498
498 1 498 499
499 1 499 500
500 1 500 501
501 1 501 502
502 1 502 503
503 1 503 504
504 1 504 505
505 1 505 506
506 1 506 507
507 1 507 508
508 1 508 509
509 1 509 510
510 1 510 511
511 1 511 512
512 1 512 513
513 1 513 514
514 1 514 515
515 1 515 516
516 1 516 517
517 1 517 518
518 1 518 519
519 1 519 520
520 1 520 521
521 1 521 522
522 1 522 523
523 1 523 524
524 1 524 525
525 1 525 526
526 1 526 527
527 1 527 528
528 1 528 529
529 1 529 530
530 1 530 531
531 1 531 532
532 1 532 533
533 1 533 534
534 1 534 535
535 1 535 536
536 1 536 537
537 1 537 538
538 1 538 539
539 1 539 540
540 1 540 541
541 1 541 542
542 1 542 543
543 1 543 544
544 1 544 545
545 1 545 546
546 1 546 547
547 1 547 548
548 1 548 549
549 1 549 550
550 1 550 551
551 1 551 552
552 1 552 553
553 1 553 554
554 1 554 555
555 1 555 556
556 1 556 557
557 1 557 558
558 1 558 559
559 1 559 560
560 1 560 561
561 1 561 562
562 1 562 563
563 1 563 564
564 1 564 565
565 1 565 566
566 1 566 567
567 1 567 568
568 1 568 569
569 1 569 570
570 1 570 571
571 1 571 572
572 1 572 573
573 1 573 574
574 1 574 575
575 1 575 576
576 1 576 577
577 1 577 578
578 1 578 579
579 1 579 580
580 1 580 581
581 1 581 582
582 1 582 583
583 1 583 584
584 1 584 585
585 1 585 586
586 1 586 587
587 1 587 588
588 1 588 589
589 1 589 590
590 1 590 591
591 1 591 592
592 1 592 593
593 1 593 594
594 1 594 595
595 1 595 596
596 1 596 597
597 1 597 598
598 1 598 599
599 1 599 600
600 1 600 601
601 1 601 602
602 1 602 603
603 1 603 604
604 1 604 605
605 1 605 606
606 1 606 607
607 1 607 608
608 1 608 609
609 1 609 610
610 1 610 611
611 1 611 612
612 1 612 613
613 1 613 614
614 1 614 615
615 1 615 616
616 1 616 617
617 1 617 618
618 1 618 619
619 1 619 620
620 1 620 621
621 1 621 622
622 1 622 623
623 1 623 624
624 1 624 625
625 1 625 626
626 1 626 627
627 1 627 628
628 1 628 629
629 1 629 630
630 1 630 631
631 1 631 632
632 1 632 633
633 1 633 634
634 1 634 635
635 1 635 636
636 1 636 637
637 1 637 638
638 1 638 639
639 1 639 640
640 1 640 641
641 1 641 642
642 1 642 643
643 1 643 644
644 1 644 645
645 1 645 646
646 1 646 647
647 1 647 648
648 1 648 649
649 1 649 650
650 1 650 651
651 1 651 652
652 1 652 653
653 1 653 654
654 1 654 655
655 1 655 656
656 1 656 657
657 1 657 658
658 1 658 659
659 1 659 660
660 1 660 661
661 1 661 662
662 1 662 663
663 1 663 664
664 1 664 665
665 1 665 666
666 1 666 667
667 1 667 668
668 1 668 669
669 1 669 670
670 1 670 671
671 1 671 672
672 1 672 673
673 1 673 674
674 1 674 675
675 1 675 676
676 1 676 677
677 1 677 678
678 1 678 679
679 1 679 680
680 1 680 681
681 1 681 682
682 1 682 683
683 1 683 684
684 1 684 685
685 1 685 686
686 1 686 687
687 1 687 688
688 1 688 689
689 1 689 690
690 1 690 691
691 1 691 692
692 1 692 693
693 1 693 694
694 1 694 695
695 1 695 696
696 1 696 697
697 1 697 698
698 1 698 699
699 1 699 700
700 1 700 701
701 1 701 702
702 1 702 703
703 1 703 704
704 1 704 705
705 1 705 706
706 1 706 707
707 1 707 708
708 1 708 709
709 1 709 710
710 1 710 711
711 1 711 712
712 1 712 713
713 1 713 714
714 1 714 715
715 1 715 716
716 1 716 717
717 1 717 718
718 1 718 719
719 1 719 720
720 1 720 721
721 1 721 722
722 1 722 723
723 1 723 724
724 1 724 725
725 1 725 726
726 1 726 727
727 1 727 728
728 1 728 729
729 1 729 730
730 1 730 731
731 1 731 732
732 1 732 733
733 1 733 734
734 1 734 735
735 1 735 736
736 1 736 737
737 1 737 738
738 1 738 739
739 1 739 740
740 1 740 741
741 1 741 742
742 1 742 743
743 1 743 744
744 1 744 745
745 1 745 746
746 1 746 747
747 1 747 748
748 1 748 749
749 1 749 750
750 1 750 751
751 1 751 752
752 1 752 753
753 1 753 754
754 1 754 755
755 1 755 756
756 1 756 757
757 1 757 758
758 1 758 759
759 1 759 760
760 1 760 761
761 1 761 762
762 1 762 763
763 1 763 764
764 1 764 765
765 1 765 766
766 1 766 767
767 1 767 768
768 1 768 769
769 1 769 770
770 1 770 771
771 1 771 772
772 1 772 773
773 1 773 774
774 1 774 775
775 1 775 776
776 1 776 777
777 1 777 778
778 1 778 779
779 1 779 780
780 1 780 781
781 1 781 782
782 1 782 783
783 1 783 784
784 1 784 785
785 1 785 786
786 1 786 787
787 1 787 788
788 1 788 789
789 1 789 790
790 1 790 791
791 1 791 792
792 1 792 793
793 1 793 794
794 1 794 795
795 1 795 796
796 1 796 797
797 1 797 798
798 1 798 799
799 1 799 800
800 1 800 801
801 1 801 802
802 1 802 803
803 1 803 804
804 1 804 805
805 1 805 806
806 1 806 807
807 1 807 808
808 1 808 809
809 1 809 810
810 1 810 811
811 1 811 812
812 1 812 813
813 1 813 814
814 1 814 815
815 1 815 816
816 1 816 817
817 1 817 818
818 1 818 819
819 1 819 820
820 1 820 821
821 1 821 822
822 1 822 823
823 1 823 824
824 1 824 825
825 1 825 826
826 1 826 827
827 1 827 828
828 1 828 829
829 1 829 830
830 1 830 831
831 1 831 832
832 1 832 833
833 1 833 834
834 1 834 835
835 1 835 836
836 1 836 837
837 1 837 838
838 1 838 839
839 1 839 840
840 1 840 841
841 1 841 842
842 1 842 843
843 1 843 844
844 1 844 845
845 1 845 846
846 1 846 847
847 1 847 848
848 1 848 849
849 1 849 850
850 1 850 851
851 1 851 852
852 1 852 853
853 1 853 854
854 1 854 855
855 1 855 856
856 1 856 857
857 1 857 858
858 1 858 859
859 1 859 860
860 1 860 861
861 1 861 862
862 1 862 863
863 1 863 864
864 1 864 865
865 1 865 866
866 1 866 867
867 1 867 868
868 1 868 869
869 1 869 870
870 1 870 871
871 1 871 872
872 1 872 873
873 1 873 874
874 1 874 875
875 1 875 876
876 1 876 877
877 1 877 878
878 1 878 879
879 1 879 880
880 1 880 881
881 1 881 882
882 1 882 883
883 1 883 884
884 1 884 885
885 1 885 886
886 1 886 887
887 1 887 888
888 1 888 889
889 1 889 890
890 1 890 891
891 1 891 892
892 1 892 893
893 1 893 894
894 1 894 895
895 1 895 896
896 1 896 897
897 1 897 898
898 1 898 899
899 1 899 900
900 1 900 901
901 1 901 902
902 1 902 903
903 1 903 904
904 1 904 905
905 1 905 906
906 1 906 907
907 1 907 908
908 1 908 909
909 1 909 910
910 1 910 911
911 1 911 912
912 1 912 913
913 1 913 914
914 1 914 915
915 1 915 916
916 1 916 917
917 1 917 918
918 1 918 919
919 1 919 920
920 1 920 921
921 1 921 922
922 1 922 923
923 1 923 924
924 1 924 925
925 1 925 926
926 1 926 927
927 1 927 928
928 1 928 929
929 1 929 930
930 1 930 931
931 1 931 932
932 1 932 933
933 1 933 934
934 1 934 935
935 1 935 936
936 1 936 937
937 1 937 938
938 1 938 939
939 1 939 940
940 1 940 941
941 1 941 942
942 1 942 943
943 1 943 944
944 1 944 945
945 1 945 946
946 1 946 947
947 1 947 948
948 1 948 949
949 1 949 950
950 1 950 951
951 1 951 952
952 1 952 953
953 1 953 954
954 1 954 955
955 1 955 956
956 1 956 957
957 1 957 958
958 1 958 959
959 1 959 960
960 1 960 961
961 1 961 962
962 1 962 963
963 1 963 964
964 1 964 965
965 1 965 966
966 1 966 967
967 1 967 968
968 1 968 969
969 1 969 970
970 1 970 971
971 1 971 972
972 1 972 973
973 1 973 974
974 1 974 975
975 1 975 976
976 1 976 977
977 1 977 978
978 1 978 979
979 1 979 980
980 1 980 981
981 1 981 982
982 1 982 983
983 1 983 984
984 1 984 985
985 1 985 986
986 1 986 987
987 1 987 988
988 1 988 989
989 1 989 990
990 1 990 991
991 1 991 992
992 1 992 993
993 1 993 994
994 1 994 995
995 1 995 996
996 1 996 997
997 1 997 998
998 1 998 999
999 1 999 1000
1000 1 1001 1002
1001 1 1002 1003
1002 1 1003 1004
1003 1 1004 1005
1004 1 1005 1006
1005 1 1006 1007
1006 1 1007 1008
1007 1 1008 1009
1008 1 1009 1010
1009 1 1010 1011
1010 1 1011 1012
1011 1 1012 1013
1012 1 1013 1014
1013 1 1014 1015
1014 1 1015 1016
1015 1 1016 1017
1016 1 1017 1018
1017 1 1018 1019
1018 1 1019 1020
1019 1 1020 1021
1020 1 1021 1022
1021 1 1022 1023
1022 1 1023 1024
1023 1 1024 1025
1024 1 1025 1026
1025 1 1026 1027
1026 1 1027 1028
1027 1 1028 1029
1028 1 1029 1030
1029 1 1030 1031
1030 1 1031 1032
1031 1 1032 1033
1032 1 1033 1034
1033 1 1034 1035
1034 1 1035 1036
1035 1 1036 1037
1036 1 1037 1038
1037 1 1038 1039
1038 1 1039 1040
1039 1 1040 1041
1040 1 1041 1042
1041 1 1042 1043
1042 1 1043 1044
1043 1 1044 1045
1044 1 1045 1046
1045 1 1046 1047
1046 1 1047 1048
1047 1 1048 1049
1048 1 1049 1050
1049 1 1050 1051
1050 1 1051 1052
1051 1 1052 1053
1052 1 1053 1054
1053 1 1054 1055
1054 1 1055 1056
1055 1 1056 1057
1056 1 1057 1058
1057 1 1058 1059
1058 1 1059 1060
1059 1 1060 1061
1060 1 1061 1062
1061 1 1062 1063
1062 1 1063 1064
1063 1 1064 1065
1064 1 1065 1066
1065 1 1066 1067
1066 1 1067 1068
1067 1 1068 1069
1068 1 1069 1070
1069 1 1070 1071
1070 1 1071 1072
1071 1 1072 1073
1072 1 1073 1074
1073 1 1074 1075
1074 1 1075 1076
1075 1 1076 1077
1076 1 1077 1078
1077 1 1078 1079
1078 1 1079 1080
1079 1 1080 1081
1080 1 1081 1082
1081 1 1082 1083
1082 1 1083 1084
1083 1 1084 1085
1084 1 1085 1086
1085 1 1086 1087
1086 1 1087 1088
1087 1 1088 1089
1088 1 1089 1090
1089 1 1090 1091
1090 1 1091 1092
1091 1 1092 1093
1092 1 1093 1094
1093 1 1094 1095
1094 1 1095 1096
1095 1 1096 1097
1096 1 1097 1098
1097 1 1098 1099
1098 1 1099 1100
1099 1 1100 1101
1100 1 1101 1102
1101 1 1102 1103
1102 1 1103 1104
1103 1 1104 1105
1104 1 1105 1106
1105 1 1106 1107
1106 1 1107 1108
1107 1 1108 1109
1108 1 1109 1110
1109 1 1110 1111
1110 1 1111 1112
1111 1 1112 1113
1112 1 1113 1114
1113 1 1114 1115
1114 1 1115 1116
1115 1 1116 1117
1116 1 1117 1118
1117 1 1118 1119
1118 1 1119 1120
1119 1 1120 1121
1120 1 1121 1122
1121 1 1122 1123
1122 1 1123 1124
1123 1 1124 1125
1124 1 1125 1126
1125 1 1126 1127
1126 1 1127 1128
1127 1 1128 1129
1128 1 1129 1130
1129 1 1130 1131
1130 1 1131 1132
1131 1 1132 1133
1132 1 1133 1134
1133 1 1134 1135
1134 1 1135 1136
1135 1 1136 1137
1136 1 1137 1138
1137 1 1138 1139
1138 1 1139 1140
1139 1 1140 1141
1140 1 1141 1142
1141 1 1142 1143
1142 1 1143 1144
1143 1 1144 1145
1144 1 1145 1146
1145 1 1146 1147
1146 1 1147 1148
1147 1 1148 1149
1148 1 1149 1150
1149 1 1150 1151
1150 1 1151 1152
1151 1 1152 1153
1152 1 1153 1154
1153 1 1154 1155
1154 1 1155 1156
1155 1 1156 1157
1156 1 1157 1158
1157 1 1158 1159
1158 1 1159 1160
1159 1 1160 1161
1160 1 1161 1162
1161 1 1162 1163
1162 1 1163 1164
1163 1 1164 1165
1164 1 1165 1166
1165 1 1166 1167
1166 1 1167 1168
1167 1 1168 1169
1168 1 1169 1170
1169 1 1170 1171
1170 1 1171 1172
1171 1 1172 1173
1172 1 1173 1174
1173 1 1174 1175
1174 1 1175 1176
1175 1 1176 1177
1176 1 1177 1178
1177 1 1178 1179
1178 1 1179 1180
1179 1 1180 1181
1180 1 1181 1182
1181 1 1182 1183
1182 1 1183 1184
1183 1 1184 1185
1184 1 1185 1186
1185 1 1186 1187
1186 1 1187 1188
1187 1 1188 1189
1188 1 1189 1190
1189 1 1190 1191
1190 1 1191 1192
1191 1 1192 1193
1192 1 1193 1194
1193 1 1194 1195
1194 1 1195 1196
1195 1 1196 1197
1196 1 1197 1198
1197 1 1198 1199
1198 1 1199 1200
1199 1 1200 1201
1200 1 1201 1202
1201 1 1202 1203
1202 1 1203 1204
1203 1 1204 1205
1204 1 1205 1206
1205 1 1206 1207
1206 1 1207 1208
1207 1 1208 1209
1208 1 1209 1210
1209 1 1210 1211
1210 1 1211 1212
1211 1 1212 1213
1212 1 1213 1214
1213 1 1214 1215
1214 1 1215 1216
1215 1 1216 1217
1216 1 1217 1218
1217 1 1218 1219
1218 1 1219 1220
1219 1 1220 1221
1220 1 1221 1222
1221 1 1222 1223
1222 1 1223 1224
1223 1 1224 1225
1224 1 1225 1226
1225 1 1226 1227
1226 1 1227 1228
1227 1 1228 1229
1228 1 1229 1230
1229 1 1230 1231
1230 1 1231 1232
1231 1 1232 1233
1232 1 1233 1234
1233 1 1234 1235
1234 1 1235 1236
1235 1 1236 1237
1236 1 1237 1238
1237 1 1238 1239
1238 1 1239 1240
1239 1 1240 1241
1240 1 1241 1242
1241 1 1242 1243
1242 1 1243 1244
1243 1 1244 1245
1244 1 1245 1246
1245 1 1246 1247
1246 1 1247 1248
1247 1 1248 1249
1248 1 1249 1250
1249 1 1250 1251
1250 1 1251 1252
1251 1 1252 1253
1252 1 1253 1254
1253 1 1254 1255
1254 1 1255 1256
1255 1 1256 1257
1256 1 1257 1258
1257 1 1258 1259
1258 1 1259 1260
1259 1 1260 1261
1260 1 1261 1262
1261 1 1262 1263
1262 1 1263 1264
1263 1 1264 1265
1264 1 1265 1266
1265 1 1266 1267
1266 1 1267 1268
1267 1 1268 1269
1268 1 1269 1270
1269 1 1270 1271
1270 1 1271 1272
1271 1 1272 1273
1272 1 1273 1274
1273 1 1274 1275
1274 1 1275 1276
1275 1 1276 1277
1276 1 1277 1278
1277 1 1278 1279
1278 1 1279 1280
1279 1 1280 1281
1280 1 1281 1282
1281 1 1282 1283
1282 1 1283 1284
1283 1 1284 1285
1284 1 1285 1286
1285 1 1286 1287
1286 1 1287 1288
1287 1 1288 1289
1288 1 1289 1290
1289 1 1290 1291
1290 1 1291 1292
1291 1 1292 1293
1292 1 1293 1294
1293 1 1294 1295
1294 1 1295 1296
1295 1 1296 1297
1296 1 1297 1298
1297 1 1298 1299
1298 1 1299 1300
1299 1 1300 1301
1300 1 1301 1302
1301 1 1302 1303
1302 1 1303 1304
1303 1 1304 1305
1304 1 1305 1306
1305 1 1306 1307
1306 1 1307 1308
1307 1 1308 1309
1308 1 1309 1310
1309 1 1310 1311
1310 1 1311 1312
1311 1 1312 1313
1312 1 1313 1314
1313 1 1314 1315
1314 1 1315 1316
1315 1 1316 1317
1316 1 1317 1318
1317 1 1318 1319
1318 1 1319 1320
1319 1 1320 1321
1320 1 1321 1322
1321 1 1322 1323
1322 1 1323 1324
1323 1 1324 1325
1324 1 1325 1326
1325 1 1326 1327
1326 1 1327 1328
1327 1 1328 1329
1328 1 1329 1330
1329 1 1330 1331
1330 1 1331 1332
1331 1 1332 1333
1332 1 1333 1334
1333 1 1334 1335
1334 1 1335 1336
1335 1 1336 1337
1336 1 1337 1338
1337 1 1338 1339
1338 1 1339 1340
1339 1 1340 1341
1340 1 1341 1342
1341 1 1342 1343
1342 1 1343 1344
1343 1 1344 1345
1344 1 1345 1346
1345 1 1346 1347
1346 1 1347 1348
1347 1 1348 1349
1348 1 1349 1350
1349 1 1350 1351
1350 1 1351 1352
1351 1 1352 1353
1352 1 1353 1354
1353 1 1354 1355
1354 1 1355 1356
1355 1 1356 1357
1356 1 1357 1358
1357 1 1358 1359
1358 1 1359 1360
1359 1 1360 1361
1360 1 1361 1362
1361 1 1362 1363
1362 1 1363 1364
1363 1 1364 1365
1364 1 1365 1366
1365 1 1366 1367
1366 1 1367 1368
1367 1 1368 1369
1368 1 1369 1370
1369 1 1370 1371
1370 1 1371 1372
1371 1 1372 1373
1372 1 1373 1374
1373 1 1374 1375
1374 1 1375 1376
1375 1 1376 1377
1376 1 1377 1378
1377 1 1378 1379
1378 1 1379 1380
1379 1 1380 1381
1380 1 1381 1382
1381 1 1382 1383
1382 1 1383 1384
1383 1 1384 1385
1384 1 1385 1386
1385 1 1386 1387
1386 1 1387 1388
1387 1 1388 1389
1388 1 1389 1390
1389 1 1390 1391
1390 1 1391 1392
1391 1 1392 1393
1392 1 1393 1394
1393 1 1394 1395
1394 1 1395 1396
1395 1 1396 1397
1396 1 1397 1398
1397 1 1398 1399
1398 1 1399 1400
1399 1 1400 1401
1400 1 1401 1402
1401 1 1402 1403
1402 1 1403 1404
1403 1 1404 1405
1404 1 1405 1406
1405 1 1406 1407
1406 1 1407 1408
1407 1 1408 1409
1408 1 1409 1410
1409 1 1410 1411
1410 1 1411 1412
1411 1 1412 1413
1412 1 1413 1414
1413 1 1414 1415
1414 1 1415 1416
1415 1 1416 1417
1416 1 1417 1418
1417 1 1418 1419
1418 1 1419 1420
1419 1 1420 1421
1420 1 1421 1422
1421 1 1422 1423
1422 1 1423 1424
1423 1 1424 1425
1424 1 1425 1426
1425 1 1426 1427
1426 1 1427 1428
1427 1 1428 1429
1428 1 1429 1430
1429 1 1430 1431
1430 1 1431 1432
1431 1 1432 1433
1432 1 1433 1434
1433 1 1434 1435
1434 1 1435 1436
1435 1 1436 1437
1436 1 1437 1438
1437 1 1438 1439
1438 1 1439 1440
1439 1 1440 1441
1440 1 1441 1442
1441 1 1442 1443
1442 1 1443 1444
1443 1 1444 1445
1444 1 1445 1446
1445 1 1446 1447
1446 1 1447 1448
1447 1 1448 1449
1448 1 1449 1450
1449 1 1450 1451
1450 1 1451 1452
1451 1 1452 1453
1452 1 1453 1454
1453 1 1454 1455
1454 1 1455 1456
1455 1 1456 1457
1456 1 1457 1458
1457 1 1458 1459
1458 1 1459 1460
1459 1 1460 1461
1460 1 1461 1462
1461 1 1462 1463
1462 1 1463 1464
1463 1 1464 1465
1464 1 1465 1466
1465 1 1466 1467
1466 1 1467 1468
1467 1 1468 1469
1468 1 1469 1470
1469 1 1470 1471
1470 1 1471 1472
1471 1 1472 1473
1472 1 1473 1474
1473 1 1474 1475
1474 1 1475 1476
1475 1 1476 1477
1476 1 1477 1478
1477 1 1478 1479
1478 1 1479 1480
1479 1 1480 1481
1480 1 1481 1482
1481 1 1482 1483
1482 1 1483 1484
1483 1 1484 1485
1484 1 1485 1486
1485 1 1486 1487
1486 1 1487 1488
1487 1 1488 1489
1488 1 1489 1490
1489 1 1490 1491
1490 1 1491 1492
1491 1 1492 1493
1492 1 1493 1494
1493 1 1494 1495
1494 1 1495 1496
1495 1 1496 1497
1496 1 1497 1498
1497 1 1498 1499
1498 1 1499 1500
1499 1 1500 1501
1500 1 1501 1502
1501 1 1502 1503
1502 1 1503 1504
1503 1 1504 1505
1504 1 1505 1506
1505 1 1506 1507
1506 1 1507 1508
1507 1 1508 1509
1508 1 1509 1510
1509 1 1510 1511
1510 1 1511 1512
1511 1 1512 1513
1512 1 1513 1514
1513 1 1514 1515
1514 1 1515 1516
1515 1 1516 1517
1516 1 1517 1518
1517 1 1518 1519
1518 1 1519 1520
1519 1 1520 1521
1520 1 1521 1522
1521 1 1522 1523
1522 1 1523 1524
1523 1 1524 1525
1524 1 1525 1526
1525 1 1526 1527
1526 1 1527 1528
1527 1 1528 1529
1528 1 1529 1530
1529 1 1530 1531
1530 1 1531 1532
1531 1 1532 1533
1532 1 1533 1534
1533 1 1534 1535
1534 1 1535 1536
1535 1 1536 1537
1536 1 1537 1538
1537 1 1538 1539
1538 1 1539 1540
1539 1 1540 1541
1540 1 1541 1542
1541 1 1542 1543
1542 1 1543 1544
1543 1 1544 1545
1544 1 1545 1546
1545 1 1546 1547
1546 1 1547 1548
1547 1 1548 1549
1548 1 1549 1550
1549 1 1550 1551
1550 1 1551 1552
1551 1 1552 1553
1552 1 1553 1554
1553 1 1554 1555
1554 1 1555 1556
1555 1 1556 1557
1556 1 1557 1558
1557 1 1558 1559
1558 1 1559 1560
1559 1 1560 1561
1560 1 1561 1562
1561 1 1562 1563
1562 1 1563 1564
1563 1 1564 1565
1564 1 1565 1566
1565 1 1566 1567
1566 1 1567 1568
1567 1 1568 1569
1568 1 1569 1570
1569 1 1570 1571
1570 1 1571 1572
1571 1 1572 1573
1572 1 1573 1574
1573 1 1574 1575
1574 1 1575 1576
1575 1 1576 1577
1576 1 1577 1578
1577 1 1578 1579
1578 1 1579 1580
1579 1 1580 1581
1580 1 1581 1582
1581 1 1582 1583
1582 1 1583 1584
1583 1 1584 1585
1584 1 1585 1586
1585 1 1586 1587
1586 1 1587 1588
1587 1 1588 1589
1588 1 1589 1590
1589 1 1590 1591
1590 1 1591 1592
1591 1 1592 1593
1592 1 1593 1594
1593 1 1594 1595
1594 1 1595 1596
1595 1 1596 1597
1596 1 1597 1598
1597 1 1598 1599
1598 1 1599 1600
1599 1 1600 1601
1600 1 1601 1602
1601 1 1602 1603
1602 1 1603 1604
1603 1 1604 1605
1604 1 1605 1606
1605 1 1606 1607
1606 1 1607 1608
1607 1 1608 1609
1608 1 1609 1610
1609 1 1610 1611
1610 1 1611 1612
1611 1 1612 1613
1612 1 1613 1614
1613 1 1614 1615
1614 1 1615 1616
1615 1 1616 1617
1616 1 1617 1618
1617 1 1618 1619
1618 1 1619 1620
1619 1 1620 1621
1620 1 1621 1622
1621 1 1622 1623
1622 1 1623 1624
1623 1 1624 1625
1624 1 1625 1626
1625 1 1626 1627
1626 1 1627 1628
1627 1 1628 1629
1628 1 1629 1630
1629 1 1630 1631
1630 1 1631 1632
1631 1 1632 1633
1632 1 1633 1634
1633 1 1634 1635
1634 1 1635 1636
1635 1 1636 1637
1636 1 1637 1638
1637 1 1638 1639
1638 1 1639 1640
1639 1 1640 1641
1640 1 1641 1642
1641 1 1642 1643
1642 1 1643 1644
1643 1 1644 1645
1644 1 1645 1646
1645 1 1646 1647
1646 1 1647 1648
1647 1 1648 1649
1648 1 1649 1650
1649 1 1650 1651
1650 1 1651 1652
1651 1 1652 1653
1652 1 1653 1654
1653 1 1654 1655
1654 1 1655 1656
1655 1 1656 1657
1656 1 1657 1658
1657 1 1658 1659
1658 1 1659 1660
1659 1 1660 1661
1660 1 1661 1662
1661 1 1662 1663
1662 1 1663 1664
1663 1 1664 1665
1664 1 1665 1666
1665 1 1666 1667
1666 1 1667 1668
1667 1 1668 1669
1668 1 1669 1670
1669 1 1670 1671
1670 1 1671 1672
1671 1 1672 1673
1672 1 1673 1674
1673 1 1674 1675
1674 1 1675 1676
1675 1 1676 1677
1676 1 1677 1678
1677 1 1678 1679
1678 1 1679 1680
1679 1 1680 1681
1680 1 1681 1682
1681 1 1682 1683
1682 1 1683 1684
1683 1 1684 1685
1684 1 1685 1686
1685 1 1686 1687
1686 1 1687 1688
1687 1 1688 1689
1688 1 1689 1690
1689 1 1690 1691
1690 1 1691 1692
1691 1 1692 1693
1692 1 1693 1694
1693 1 1694 1695
1694 1 1695 1696
1695 1 1696 1697
1696 1 1697 1698
1697 1 1698 1699
1698 1 1699 1700
1699 1 1700 1701
1700 1 1701 1702
1701 1 1702 1703
1702 1 1703 1704
1703 1 1704 1705
1704 1 1705 1706
1705 1 1706 1707
1706 1 1707 1708
1707 1 1708 1709
1708 1 1709 1710
1709 1 1710 1711
1710 1 1711 1712
1711 1 1712 1713
1712 1 1713 1714
1713 1 1714 1715
1714 1 1715 1716
1715 1 1716 1717
1716 1 1717 1718
1717 1 1718 1719
1718 1 1719 1720
1719 1 1720 1721
1720 1 1721 1722
1721 1 1722 1723
1722 1 1723 1724
1723 1 1724 1725
1724 1 1725 1726
1725 1 1726 1727
1726 1 1727 1728
1727 1 1728 1729
1728 1 1729 1730
1729 1 1730 1731
1730 1 1731 1732
1731 1 1732 1733
1732 1 1733 1734
1733 1 1734 1735
1734 1 1735 1736
1735 1 1736 1737
1736 1 1737 1738
1737 1 1738 1739
1738 1 1739 1740
1739 1 1740 1741
1740 1 1741 1742
1741 1 1742 1743
1742 1 1743 1744
1743 1 1744 1745
1744 1 1745 1746
1745 1 1746 1747
1746 1 1747 1748
1747 1 1748 1749
1748 1 1749 1750
1749 1 1750 1751
1750 1 1751 1752
1751 1 1752 1753
1752 1 1753 1754
1753 1 1754 1755
1754 1 1755 1756
1755 1 1756 1757
1756 1 1757 1758
1757 1 1758 1759
1758 1 1759 1760
1759 1 1760 1761
1760 1 1761 1762
1761 1 1762 1763
1762 1 1763 1764
1763 1 1764 1765
1764 1 1765 1766
1765 1 1766 1767
1766 1 1767 1768
1767 1 1768 1769
1768 1 1769 1770
1769 1 1770 1771
1770 1 1771 1772
1771 1 1772 1773
1772 1 1773 1774
1773 1 1774 1775
1774 1 1775 1776
1775 1 1776 1777
1776 1 1777 1778
1777 1 1778 1779
1778 1 1779 1780
1779 1 1780 1781
1780 1 1781 1782
1781 1 1782 1783
1782 1 1783 1784
1783 1 1784 1785
1784 1 1785 1786
1785 1 1786 1787
1786 1 1787 1788
1787 1 1788 1789
1788 1 1789 1790
1789 1 1790 1791
1790 1 1791 1792
1791 1 1792 1793
1792 1 1793 1794
1793 1 1794 1795
1794 1 1795 1796
1795 1 1796 1797
1796 1 1797 1798
1797 1 1798 1799
1798 1 1799 1800
1799 1 1800 1801
1800 1 1801 1802
1801 1 1802 1803
1802 1 1803 1804
1803 1 1804 1805
1804 1 1805 1806
1805 1 1806 1807
1806 1 1807 1808
1807 1 1808 1809
1808 1 1809 1810
1809 1 1810 1811
1810 1 1811 1812
1811 1 1812 1813
1812 1 1813 1814
1813 1 1814 1815
1814 1 1815 1816
1815 1 1816 1817
1816 1 1817 1818
1817 1 1818 1819
1818 1 1819 1820
1819 1 1820 1821
1820 1 1821 1822
1821 1 1822 1823
1822 1 1823 1824
1823 1 1824 1825
1824 1 1825 1826
1825 1 1826 1827
1826 1 1827 1828
1827 1 1828 1829
1828 1 1829 1830
1829 1 1830 1831
1830 1 1831 1832
1831 1 1832 1833
1832 1 1833 1834
1833 1 1834 1835
1834 1 1835 1836
1835 1 1836 1837
1836 1 1837 1838
1837 1 1838 1839
1838 1 1839 1840
1839 1 1840 1841
1840 1 1841 1842
1841 1 1842 1843
1842 1 1843 1844
1843 1 1844 1845
1844 1 1845 1846
1845 1 1846 1847
1846 1 1847 1848
1847 1 1848 1849
1848 1 1849 1850
1849 1 1850 1851
1850 1 1851 1852
1851 1 1852 1853
1852 1 1853 1854
1853 1 1854 1855
1854 1 1855 1856
1855 1 1856 1857
1856 1 1857 1858
1857 1 1858 1859
1858 1 1859 1860
1859 1 1860 1861
1860 1 1861 1862
1861 1 1862 1863
1862 1 1863 1864
1863 1 1864 1865
1864 1 1865 1866
1865 1 1866 1867
1866 1 1867 1868
1867 1 1868 1869
1868 1 1869 1870
1869 1 1870 1871
1870 1 1871 1872
1871 1 1872 1873
1872 1 1873 1874
1873 1 1874 1875
1874 1 1875 1876
1875 1 1876 1877
1876 1 1877 1878
1877 1 1878 1879
1878 1 1879 1880
1879 1 1880 1881
1880 1 1881 1882
1881 1 1882 1883
1882 1 1883 1884
1883 1 1884 1885
1884 1 1885 1886
1885 1 1886 1887
1886 1 1887 1888
1887 1 1888 1889
1888 1 1889 1890
1889 1 1890 1891
1890 1 1891 1892
1891 1 1892 1893
1892 1 1893 1894
1893 1 1894 1895
1894 1 1895 1896
1895 1 1896 1897
1896 1 1897 1898
1897 1 1898 1899
1898 1 1899 1900
1899 1 1900 1901
1900 1 1901 1902
1901 1 1902 1903
1902 1 1903 1904
1903 1 1904 1905
1904 1 1905 1906
1905 1 1906 1907
1906 1 1907 1908
1907 1 1908 1909
1908 1 1909 1910
1909 1 1910 1911
1910 1 1911 1912
1911 1 1912 1913
1912 1 1913 1914
1913 1 1914 1915
1914 1 1915 1916
1915 1 1916 1917
1916 1 1917 1918
1917 1 1918 1919
1918 1 1919 1920
1919 1 1920 1921
1920 1 1921 1922
1921 1 1922 1923
1922 1 1923 1924
1923 1 1924 1925
1924 1 1925 1926
1925 1 1926 1927
1926 1 1927 1928
1927 1 1928 1929
1928 1 1929 1930
1929 1 1930 1931
1930 1 1931 1932
1931 1 1932 1933
1932 1 1933 1934
1933 1 1934 1935
1934 1 1935 1936
1935 1 1936 1937
1936 1 1937 1938
1937 1 1938 1939
1938 1 1939 1940
1939 1 1940 1941
1940 1 1941 1942
1941 1 1942 1943
1942 1 1943 1944
1943 1 1944 1945
1944 1 1945 1946
1945 1 1946 1947
1946 1 1947 1948
1947 1 1948 1949
1948 1 1949 1950
1949 1 1950 1951
1950 1 1951 1952
1951 1 1952 1953
1952 1 1953 1954
1953 1 1954 1955
1954 1 1955 1956
1955 1 1956 1957
1956 1 1957 1958
1957 1 1958 1959
1958 1 1959 1960
1959 1 1960 1961
1960 1 1961 1962
1961 1 1962 1963
1962 1 1963 1964
1963 1 1964 1965
1964 1 1965 1966
1965 1 1966 1967
1966 1 1967 1968
1967 1 1968 1969
1968 1 1969 1970
1969 1 1970 1971
1970 1 1971 1972
1971 1 1972 1973
1972 1 1973 1974
1973 1 1974 1975
1974 1 1975 1976
1975 1 1976 1977
1976 1 1977 1978
1977 1 1978 1979
1978 1 1979 1980
1979 1 1980 1981
1980 1 1981 1982
1981 1 1982 1983
1982 1 1983 1984
1983 1 1984 1985
1984 1 1985 1986
1985 1 1986 1987
1986 1 1987 1988
1987 1 1988 1989
1988 1 1989 1990
1989 1 1990 1991
1990 1 1991 1992
1991 1 1992 1993
1992 1 1993 1994
1993 1 1994 1995
1994 1 1995 1996
1995 1 1996 1997
1996 1 1997 1998
1997 1 1998 1999
1998 1 1999 2000
1999 1 2001 2002
2000 1 2002 2003
2001 1 2003 2004
2002 1 2004 2005
2003 1 2005 2006
2004 1 2006 2007
2005 1 2007 2008
2006 1 2008 2009
2007 1 2009 2010
2008 1 2010 2011
2009 1 2011 2012
2010 1 2012 2013
2011 1 2013 2014
2012 1 2014 2015
2013 1 2015 2016
2014 1 2016 2017
2015 1 2017 2018
2016 1 2018 2019
2017 1 2019 2020
2018 1 2020 2021
2019 1 2021 2022
2020 1 2022 2023
2021 1 2023 2024
2022 1 2024 2025
2023 1 2025 2026
2024 1 2026 2027
2025 1 2027 2028
2026 1 2028 2029
2027 1 2029 2030
2028 1 2030 2031
2029 1 2031 2032
2030 1 2032 2033
2031 1 2033 2034
2032 1 2034 2035
2033 1 2035 2036
2034 1 2036 2037
2035 1 2037 2038
2036 1 2038 2039
2037 1 2039 2040
2038 1 2040 2041
2039 1 2041 2042
2040 1 2042 2043
2041 1 2043 2044
2042 1 2044 2045
2043 1 2045 2046
2044 1 2046 2047
2045 1 2047 2048
2046 1 2048 2049
2047 1 2049 2050
2048 1 2050 2051
2049 1 2051 2052
2050 1 2052 2053
2051 1 2053 2054
2052 1 2054 2055
2053 1 2055 2056
2054 1 2056 2057
2055 1 2057 2058
2056 1 2058 2059
2057 1 2059 2060
2058 1 2060 2061
2059 1 2061 2062
2060 1 2062 2063
2061 1 2063 2064
2062 1 2064 2065
2063 1 2065 2066
2064 1 2066 2067
2065 1 2067 2068
2066 1 2068 2069
2067 1 2069 2070
2068 1 2070 2071
2069 1 2071 2072
2070 1 2072 2073
2071 1 2073 2074
2072 1 2074 2075
2073 1 2075 2076
2074 1 2076 2077
2075 1 2077 2078
2076 1 2078 2079
2077 1 2079 2080
2078 1 2080 2081
2079 1 2081 2082
2080 1 2082 2083
2081 1 2083 2084
2082 1 2084 2085
2083 1 2085 2086
2084 1 2086 2087
2085 1 2087 2088
2086 1 2088 2089
2087 1 2089 2090
2088 1 2090 2091
2089 1 2091 2092
2090 1 2092 2093
2091 1 2093 2094
2092 1 2094 2095
2093 1 2095 2096
2094 1 2096 2097
2095 1 2097 2098
2096 1 2098 2099
2097 1 2099 2100
2098 1 2100 2101
2099 1 2101 2102
2100 1 2102 2103
2101 1 2103 2104
2102 1 2104 2105
2103 1 2105 2106
2104 1 2106 2107
2105 1 2107 2108
2106 1 2108 2109
2107 1 2109 2110
2108 1 2110 2111
2109 1 2111 2112
2110 1 2112 2113
2111 1 2113 2114
2112 1 2114 2115
2113 1 2115 2116
2114 1 2116 2117
2115 1 2117 2118
2116 1 2118 2119
2117 1 2119 2120
2118 1 2120 2121
2119 1 2121 2122
2120 1 2122 2123
2121 1 2123 2124
2122 1 2124 2125
2123 1 2125 2126
2124 1 2126 2127
2125 1 2127 2128
2126 1 2128 2129
2127 1 2129 2130
2128 1 2130 2131
2129 1 2131 2132
2130 1 2132 2133
2131 1 2133 2134
2132 1 2134 2135
2133 1 2135 2136
2134 1 2136 2137
2135 1 2137 2138
2136 1 2138 2139
2137 1 2139 2140
2138 1 2140 2141
2139 1 2141 2142
2140 1 2142 2143
2141 1 2143 2144
2142 1 2144 2145
2143 1 2145 2146
2144 1 2146 2147
2145 1 2147 2148
2146 1 2148 2149
2147 1 2149 2150
2148 1 2150 2151
2149 1 2151 2152
2150 1 2152 2153
2151 1 2153 2154
2152 1 2154 2155
2153 1 2155 2156
2154 1 2156 2157
2155 1 2157 2158
2156 1 2158 2159
2157 1 2159 2160
2158 1 2160 2161
2159 1 2161 2162
2160 1 2162 2163
2161 1 2163 2164
2162 1 2164 2165
2163 1 2165 2166
2164 1 2166 2167
2165 1 2167 2168
2166 1 2168 2169
2167 1 2169 2170
2168 1 2170 2171
2169 1 2171 2172
2170 1 2172 2173
2171 1 2173 2174
2172 1 2174 2175
2173 1 2175 2176
2174 1 2176 2177
2175 1 2177 2178
2176 1 2178 2179
2177 1 2179 2180
2178 1 2180 2181
2179 1 2181 2182
2180 1 2182 2183
2181 1 2183 2184
2182 1 2184 2185
2183 1 2185 2186
2184 1 2186 2187
2185 1 2187 2188
2186 1 2188 2189
2187 1 2189 2190
2188 1 2190 2191
2189 1 2191 2192
2190 1 2192 2193
2191 1 2193 2194
2192 1 2194 2195
2193 1 2195 2196
2194 1 2196 2197
2195 1 2197 2198
2196 1 2198 2199
2197 1 2199 2200
2198 1 2200 2201
2199 1 2201 2202
2200 1 2202 2203
2201 1 2203 2204
2202 1 2204 2205
2203 1 2205 2206
2204 1 2206 2207
2205 1 2207 2208
2206 1 2208 2209
2207 1 2209 2210
2208 1 2210 2211
2209 1 2211 2212
2210 1 2212 2213
2211 1 2213 2214
2212 1 2214 2215
2213 1 2215 2216
2214 1 2216 2217
2215 1 2217 2218
2216 1 2218 2219
2217 1 2219 2220
2218 1 2220 2221
2219 1 2221 2222
2220 1 2222 2223
2221 1 2223 2224
2222 1 2224 2225
2223 1 2225 2226
2224 1 2226 2227
2225 1 2227 2228
2226 1 2228 2229
2227 1 2229 2230
2228 1 2230 2231
2229 1 2231 2232
2230 1 2232 2233
2231 1 2233 2234
2232 1 2234 2235
2233 1 2235 2236
2234 1 2236 2237
2235 1 2237 2238
2236 1 2238 2239
2237 1 2239 2240
2238 1 2240 2241
2239 1 2241 2242
2240 1 2242 2243
2241 1 2243 2244
2242 1 2244 2245
2243 1 2245 2246
2244 1 2246 2247
2245 1 2247 2248
2246 1 2248 2249
2247 1 2249 2250
2248 1 2250 2251
2249 1 2251 2252
2250 1 2252 2253
2251 1 2253 2254
2252 1 2254 2255
2253 1 2255 2256
2254 1 2256 2257
2255 1 2257 2258
2256 1 2258 2259
2257 1 2259 2260
2258 1 2260 2261
2259 1 2261 2262
2260 1 2262 2263
2261 1 2263 2264
2262 1 2264 2265
2263 1 2265 2266
2264 1 2266 2267
2265 1 2267 2268
2266 1 2268 2269
2267 1 2269 2270
2268 1 2270 2271
2269 1 2271 2272
2270 1 2272 2273
2271 1 2273 2274
2272 1 2274 2275
2273 1 2275 2276
2274 1 2276 2277
2275 1 2277 2278
2276 1 2278 2279
2277 1 2279 2280
2278 1 2280 2281
2279 1 2281 2282
2280 1 2282 2283
2281 1 2283 2284
2282 1 2284 2285
2283 1 2285 2286
2284 1 2286 2287
2285 1 2287 2288
2286 1 2288 2289
2287 1 2289 2290
2288 1 2290 2291
2289 1 2291 2292
2290 1 2292 2293
2291 1 2293 2294
2292 1 2294 2295
2293 1 2295 2296
2294 1 2296 2297
2295 1 2297 2298
2296 1 2298 2299
2297 1 2299 2300
2298 1 2300 2301
2299 1 2301 2302
2300 1 2302 2303
2301 1 2303 2304
2302 1 2304 2305
2303 1 2305 2306
2304 1 2306 2307
2305 1 2307 2308
2306 1 2308 2309
2307 1 2309 2310
2308 1 2310 2311
2309 1 2311 2312
2310 1 2312 2313
2311 1 2313 2314
2312 1 2314 2315
2313 1 2315 2316
2314 1 2316 2317
2315 1 2317 2318
2316 1 2318 2319
2317 1 2319 2320
2318 1 2320 2321
2319 1 2321 2322
2320 1 2322 2323
2321 1 2323 2324
2322 1 2324 2325
2323 1 2325 2326
2324 1 2326 2327
2325 1 2327 2328
2326 1 2328 2329
2327 1 2329 2330
2328 1 2330 2331
2329 1 2331 2332
2330 1 2332 2333
2331 1 2333 2334
2332 1 2334 2335
2333 1 2335 2336
2334 1 2336 2337
2335 1 2337 2338
2336 1 2338 2339
2337 1 2339 2340
2338 1 2340 2341
2339 1 2341 2342
2340 1 2342 2343
2341 1 2343 2344
2342 1 2344 2345
2343 1 2345 2346
2344 1 2346 2347
2345 1 2347 2348
2346 1 2348 2349
2347 1 2349 2350
2348 1 2350 2351
2349 1 2351 2352
2350 1 2352 2353
2351 1 2353 2354
2352 1 2354 2355
2353 1 2355 2356
2354 1 2356 2357
2355 1 2357 2358
2356 1 2358 2359
2357 1 2359 2360
2358 1 2360 2361
2359 1 2361 2362
2360 1 2362 2363
2361 1 2363 2364
2362 1 2364 2365
2363 1 2365 2366
2364 1 2366 2367
2365 1 2367 2368
2366 1 2368 2369
2367 1 2369 2370
2368 1 2370 2371
2369 1 2371 2372
2370 1 2372 2373
2371 1 2373 2374
2372 1 2374 2375
2373 1 2375 2376
2374 1 2376 2377
2375 1 2377 2378
2376 1 2378 2379
2377 1 2379 2380
2378 1 2380 2381
2379 1 2381 2382
2380 1 2382 2383
2381 1 2383 2384
2382 1 2384 2385
2383 1 2385 2386
2384 1 2386 2387
2385 1 2387 2388
2386 1 2388 2389
2387 1 2389 2390
2388 1 2390 2391
2389 1 2391 2392
2390 1 2392 2393
2391 1 2393 2394
2392 1 2394 2395
2393 1 2395 2396
2394 1 2396 2397
2395 1 2397 2398
2396 1 2398 2399
2397 1 2399 2400
2398 1 2400 2401
2399 1 2401 2402
2400 1 2402 2403
2401 1 2403 2404
2402 1 2404 2405
2403 1 2405 2406
2404 1 2406 2407
2405 1 2407 2408
2406 1 2408 2409
2407 1 2409 2410
2408 1 2410 2411
2409 1 2411 2412
2410 1 2412 2413
2411 1 2413 2414
2412 1 2414 2415
2413 1 2415 2416
2414 1 2416 2417
2415 1 2417 2418
2416 1 2418 2419
2417 1 2419 2420
2418 1 2420 2421
2419 1 2421 2422
2420 1 2422 2423
2421 1 2423 2424
2422 1 2424 2425
2423 1 2425 2426
2424 1 2426 2427
2425 1 2427 2428
2426 1 2428 2429
2427 1 2429 2430
2428 1 2430 2431
2429 1 2431 2432
2430 1 2432 2433
2431 1 2433 2434
2432 1 2434 2435
2433 1 2435 2436
2434 1 2436 2437
2435 1 2437 2438
2436 1 2438 2439
2437 1 2439 2440
2438 1 2440 2441
2439 1 2441 2442
2440 1 2442 2443
2441 1 2443 2444
2442 1 2444 2445
2443 1 2445 2446
2444 1 2446 2447
2445 1 2447 2448
2446 1 2448 2449
2447 1 2449 2450
2448 1 2450 2451
2449 1 2451 2452
2450 1 2452 2453
2451 1 2453 2454
2452 1 2454 2455
2453 1 2455 2456
2454 1 2456 2457
2455 1 2457 2458
2456 1 2458 2459
2457 1 2459 2460
2458 1 2460 2461
2459 1 2461 2462
2460 1 2462 2463
2461 1 2463 2464
2462 1 2464 2465
2463 1 2465 2466
2464 1 2466 2467
2465 1 2467 2468
2466 1 2468 2469
2467 1 2469 2470
2468 1 2470 2471
2469 1 2471 2472
2470 1 2472 2473
2471 1 2473 2474
2472 1 2474 2475
2473 1 2475 2476
2474 1 2476 2477
2475 1 2477 2478
2476 1 2478 2479
2477 1 2479 2480
2478 1 2480 2481
2479 1 2481 2482
2480 1 2482 2483
2481 1 2483 2484
2482 1 2484 2485
2483 1 2485 2486
2484 1 2486 2487
2485 1 2487 2488
2486 1 2488 2489
2487 1 2489 2490
2488 1 2490 2491
2489 1 2491 2492
2490 1 2492 2493
2491 1 2493 2494
2492 1 2494 2495
2493 1 2495 2496
2494 1 2496 2497
2495 1 2497 2498
2496 1 2498 2499
2497 1 2499 2500
2498 1 2500 2501
2499 1 2501 2502
2500 1 2502 2503
2501 1 2503 2504
2502 1 2504 2505
2503 1 2505 2506
2504 1 2506 2507
2505 1 2507 2508
2506 1 2508 2509
2507 1 2509 2510
2508 1 2510 2511
2509 1 2511 2512
2510 1 2512 2513
2511 1 2513 2514
2512 1 2514 2515
2513 1 2515 2516
2514 1 2516 2517
2515 1 2517 2518
2516 1 2518 2519
2517 1 2519 2520
2518 1 2520 2521
2519 1 2521 2522
2520 1 2522 2523
2521 1 2523 2524
2522 1 2524 2525
2523 1 2525 2526
2524 1 2526 2527
2525 1 2527 2528
2526 1 2528 2529
2527 1 2529 2530
2528 1 2530 2531
2529 1 2531 2532
2530 1 2532 2533
2531 1 2533 2534
2532 1 2534 2535
2533 1 2535 2536
2534 1 2536 2537
2535 1 2537 2538
2536 1 2538 2539
2537 1 2539 2540
2538 1 2540 2541
2539 1 2541 2542
2540 1 2542 2543
2541 1 2543 2544
2542 1 2544 2545
2543 1 2545 2546
2544 1 2546 2547
2545 1 2547 2548
2546 1 2548 2549
2547 1 2549 2550
2548 1 2550 2551
2549 1 2551 2552
2550 1 2552 2553
2551 1 2553 2554
2552 1 2554 2555
2553 1 2555 2556
2554 1 2556 2557
2555 1 2557 2558
2556 1 2558 2559
2557 1 2559 2560
2558 1 2560 2561
2559 1 2561 2562
2560 1 2562 2563
2561 1 2563 2564
2562 1 2564 2565
2563 1 2565 2566
2564 1 2566 2567
2565 1 2567 2568
2566 1 2568 2569
2567 1 2569 2570
2568 1 2570 2571
2569 1 2571 2572
2570 1 2572 2573
2571 1 2573 2574
2572 1 2574 2575
2573 1 2575 2576
2574 1 2576 2577
2575 1 2577 2578
2576 1 2578 2579
2577 1 2579 2580
2578 1 2580 2581
2579 1 2581 2582
2580 1 2582 2583
2581 1 2583 2584
2582 1 2584 2585
2583 1 2585 2586
2584 1 2586 2587
2585 1 2587 2588
2586 1 2588 2589
2587 1 2589 2590
2588 1 2590 2591
2589 1 2591 2592
2590 1 2592 2593
2591 1 2593 2594
2592 1 2594 2595
2593 1 2595 2596
2594 1 2596 2597
2595 1 2597 2598
2596 1 2598 2599
2597 1 2599 2600
2598 1 2600 2601
2599 1 2601 2602
2600 1 2602 2603
2601 1 2603 2604
2602 1 2604 2605
2603 1 2605 2606
2604 1 2606 2607
2605 1 2607 2608
2606 1 2608 2609
2607 1 2609 2610
2608 1 2610 2611
2609 1 2611 2612
2610 1 2612 2613
2611 1 2613 2614
2612 1 2614 2615
2613 1 2615 2616
2614 1 2616 2617
2615 1 2617 2618
2616 1 2618 2619
2617 1 2619 2620
2618 1 2620 2621
2619 1 2621 2622
2620 1 2622 2623
2621 1 2623 2624
2622 1 2624 2625
2623 1 2625 2626
2624 1 2626 2627
2625 1 2627 2628
2626 1 2628 2629
2627 1 2629 2630
2628 1 2630 2631
2629 1 2631 2632
2630 1 2632 2633
2631 1 2633 2634
2632 1 2634 2635
2633 1 2635 2636
2634 1 2636 2637
2635 1 2637 2638
2636 1 2638 2639
2637 1 2639 2640
2638 1 2640 2641
2639 1 2641 2642
2640 1 2642 2643
2641 1 2643 2644
2642 1 2644 2645
2643 1 2645 2646
2644 1 2646 2647
2645 1 2647 2648
2646 1 2648 2649
2647 1 2649 2650
2648 1 2650 2651
2649 1 2651 2652
2650 1 2652 2653
2651 1 2653 2654
2652 1 2654 2655
2653 1 2655 2656
2654 1 2656 2657
2655 1 2657 2658
2656 1 2658 2659
2657 1 2659 2660
2658 1 2660 2661
2659 1 2661 2662
2660 1 2662 2663
2661 1 2663 2664
2662 1 2664 2665
2663 1 2665 2666
2664 1 2666 2667
2665 1 2667 2668
2666 1 2668 2669
2667 1 2669 2670
2668 1 2670 2671
2669 1 2671 2672
2670 1 2672 2673
2671 1 2673 2674
2672 1 2674 2675
2673 1 2675 2676
2674 1 2676 2677
2675 1 2677 2678
2676 1 2678 2679
2677 1 2679 2680
2678 1 2680 2681
2679 1 2681 2682
2680 1 2682 2683
2681 1 2683 2684
2682 1 2684 2685
2683 1 2685 2686
2684 1 2686 2687
2685 1 2687 2688
2686 1 2688 2689
2687 1 2689 2690
2688 1 2690 2691
2689 1 2691 2692
2690 1 2692 2693
2691 1 2693 2694
2692 1 2694 2695
2693 1 2695 2696
2694 1 2696 2697
2695 1 2697 2698
2696 1 2698 2699
2697 1 2699 2700
2698 1 2700 2701
2699 1 2701 2702
2700 1 2702 2703
2701 1 2703 2704
2702 1 2704 2705
2703 1 2705 2706
2704 1 2706 2707
2705 1 2707 2708
2706 1 2708 2709
2707 1 2709 2710
2708 1 2710 2711
2709 1 2711 2712
2710 1 2712 2713
2711 1 2713 2714
2712 1 2714 2715
2713 1 2715 2716
2714 1 2716 2717
2715 1 2717 2718
2716 1 2718 2719
2717 1 2719 2720
2718 1 2720 2721
2719 1 2721 2722
2720 1 2722 2723
2721 1 2723 2724
2722 1 2724 2725
2723 1 2725 2726
2724 1 2726 2727
2725 1 2727 2728
2726 1 2728 2729
2727 1 2729 2730
2728 1 2730 2731
2729 1 2731 2732
2730 1 2732 2733
2731 1 2733 2734
2732 1 2734 2735
2733 1 2735 2736
2734 1 2736 2737
2735 1 2737 2738
2736 1 2738 2739
2737 1 2739 2740
2738 1 2740 2741
2739 1 2741 2742
2740 1 2742 2743
2741 1 2743 2744
2742 1 2744 2745
2743 1 2745 2746
2744 1 2746 2747
2745 1 2747 2748
2746 1 2748 2749
2747 1 2749 2750
2748 1 2750 2751
2749 1 2751 2752
2750 1 2752 2753
2751 1 2753 2754
2752 1 2754 2755
2753 1 2755 2756
2754 1 2756 2757
2755 1 2757 2758
2756 1 2758 2759
2757 1 2759 2760
2758 1 2760 2761
2759 1 2761 2762
2760 1 2762 2763
2761 1 2763 2764
2762 1 2764 2765
2763 1 2765 2766
2764 1 2766 2767
2765 1 2767 2768
2766 1 2768 2769
2767 1 2769 2770
2768 1 2770 2771
2769 1 2771 2772
2770 1 2772 2773
2771 1 2773 2774
2772 1 2774 2775
2773 1 2775 2776
2774 1 2776 2777
2775 1 2777 2778
2776 1 2778 2779
2777 1 2779 2780
2778 1 2780 2781
2779 1 2781 2782
2780 1 2782 2783
2781 1 2783 2784
2782 1 2784 2785
2783 1 2785 2786
2784 1 2786 2787
2785 1 2787 2788
2786 1 2788 2789
2787 1 2789 2790
2788 1 2790 2791
2789 1 2791 2792
2790 1 2792 2793
2791 1 2793 2794
2792 1 2794 2795
2793 1 2795 2796
2794 1 2796 2797
2795 1 2797 2798
2796 1 2798 2799
2797 1 2799 2800
2798 1 2800 2801
2799 1 2801 2802
2800 1 2802 2803
2801 1 2803 2804
2802 1 2804 2805
2803 1 2805 2806
2804 1 2806 2807
2805 1 2807 2808
2806 1 2808 2809
2807 1 2809 2810
2808 1 2810 2811
2809 1 2811 2812
2810 1 2812 2813
2811 1 2813 2814
2812 1 2814 2815
2813 1 2815 2816
2814 1 2816 2817
2815 1 2817 2818
2816 1 2818 2819
2817 1 2819 2820
2818 1 2820 2821
2819 1 2821 2822
2820 1 2822 2823
2821 1 2823 2824
2822 1 2824 2825
2823 1 2825 2826
2824 1 2826 2827
2825 1 2827 2828
2826 1 2828 2829
2827 1 2829 2830
2828 1 2830 2831
2829 1 2831 2832
2830 1 2832 2833
2831 1 2833 2834
2832 1 2834 2835
2833 1 2835 2836
2834 1 2836 2837
2835 1 2837 2838
2836 1 2838 2839
2837 1 2839 2840
2838 1 2840 2841
2839 1 2841 2842
2840 1 2842 2843
2841 1 2843 2844
2842 1 2844 2845
2843 1 2845 2846
2844 1 2846 2847
2845 1 2847 2848
2846 1 2848 2849
2847 1 2849 2850
2848 1 2850 2851
2849 1 2851 2852
2850 1 2852 2853
2851 1 2853 2854
2852 1 2854 2855
2853 1 2855 2856
2854 1 2856 2857
2855 1 2857 2858
2856 1 2858 2859
2857 1 2859 2860
2858 1 2860 2861
2859 1 2861 2862
2860 1 2862 2863
2861 1 2863 2864
2862 1 2864 2865
2863 1 2865 2866
2864 1 2866 2867
2865 1 2867 2868
2866 1 2868 2869
2867 1 2869 2870
2868 1 2870 2871
2869 1 2871 2872
2870 1 2872 2873
2871 1 2873 2874
2872 1 2874 2875
2873 1 2875 2876
2874 1 2876 2877
2875 1 2877 2878
2876 1 2878 2879
2877 1 2879 2880
2878 1 2880 2881
2879 1 2881 2882
2880 1 2882 2883
2881 1 2883 2884
2882 1 2884 2885
2883 1 2885 2886
2884 1 2886 2887
2885 1 2887 2888
2886 1 2888 2889
2887 1 2889 2890
2888 1 2890 2891
2889 1 2891 2892
2890 1 2892 2893
2891 1 2893 2894
2892 1 2894 2895
2893 1 2895 2896
2894 1 2896 2897
2895 1 2897 2898
2896 1 2898 2899
2897 1 2899 2900
2898 1 2900 2901
2899 1 2901 2902
2900 1 2902 2903
2901 1 2903 2904
2902 1 2904 2905
2903 1 2905 2906
2904 1 2906 2907
2905 1 2907 2908
2906 1 2908 2909
2907 1 2909 2910
2908 1 2910 2911
2909 1 2911 2912
2910 1 2912 2913
2911 1 2913 2914
2912 1 2914 2915
2913 1 2915 2916
2914 1 2916 2917
2915 1 2917 2918
2916 1 2918 2919
2917 1 2919 2920
2918 1 2920 2921
2919 1 2921 2922
2920 1 2922 2923
2921 1 2923 2924
2922 1 2924 2925
2923 1 2925 2926
2924 1 2926 2927
2925 1 2927 2928
2926 1 2928 2929
2927 1 2929 2930
2928 1 2930 2931
2929 1 2931 2932
2930 1 2932 2933
2931 1 2933 2934
2932 1 2934 2935
2933 1 2935 2936
2934 1 2936 2937
2935 1 2937 2938
2936 1 2938 2939
2937 1 2939 2940
2938 1 2940 2941
2939 1 2941 2942
2940 1 2942 2943
2941 1 2943 2944
2942 1 2944 2945
2943 1 2945 2946
2944 1 2946 2947
2945 1 2947 2948
2946 1 2948 2949
2947 1 2949 2950
2948 1 2950 2951
2949 1 2951 2952
2950 1 2952 2953
2951 1 2953 2954
2952 1 2954 2955
2953 1 2955 2956
2954 1 2956 2957
2955 1 2957 2958
2956 1 2958 2959
2957 1 2959 2960
2958 1 2960 2961
2959 1 2961 2962
2960 1 2962 2963
2961 1 2963 2964
2962 1 2964 2965
2963 1 2965 2966
2964 1 2966 2967
2965 1 2967 2968
2966 1 2968 2969
2967 1 2969 2970
2968 1 2970 2971
2969 1 2971 2972
2970 1 2972 2973
2971 1 2973 2974
2972 1 2974 2975
2973 1 2975 2976
2974 1 2976 2977
2975 1 2977 2978
2976 1 2978 2979
2977 1 2979 2980
2978 1 2980 2981
2979 1 2981 2982
2980 1 2982 2983
2981 1 2983 2984
2982 1 2984 2985
2983 1 2985 2986
2984 1 2986 2987
2985 1 2987 2988
2986 1 2988 2989
2987 1 2989 2990
2988 1 2990 2991
2989 1 2991 2992
2990 1 2992 2993
2991 1 2993 2994
2992 1 2994 2995
2993 1 2995 2996
2994 1 2996 2997
2995 1 2997 2998
2996 1 2998 2999
2997 1 2999 3000
2998 1 3001 3002
2999 1 3002 3003
3000 1 3003 3004
3001 1 3004 3005
3002 1 3005 3006
3003 1 3006 3007
3004 1 3007 3008
3005 1 3008 3009
3006 1 3009 3010
3007 1 3010 3011
3008 1 3011 3012
3009 1 3012 3013
3010 1 3013 3014
3011 1 3014 3015
3012 1 3015 3016
3013 1 3016 3017
3014 1 3017 3018
3015 1 3018 3019
3016 1 3019 3020
3017 1 3020 3021
3018 1 3021 3022
3019 1 3022 3023
3020 1 3023 3024
3021 1 3024 3025
3022 1 3025 3026
3023 1 3026 3027
3024 1 3027 3028
3025 1 3028 3029
3026 1 3029 3030
3027 1 3030 3031
3028 1 3031 3032
3029 1 3032 3033
3030 1 3033 3034
3031 1 3034 3035
3032 1 3035 3036
3033 1 3036 3037
3034 1 3037 3038
3035 1 3038 3039
3036 1 3039 3040
3037 1 3040 3041
3038 1 3041 3042
3039 1 3042 3043
3040 1 3043 3044
3041 1 3044 3045
3042 1 3045 3046
3043 1 3046 3047
3044 1 3047 3048
3045 1 3048 3049
3046 1 3049 3050
3047 1 3050 3051
3048 1 3051 3052
3049 1 3052 3053
3050 1 3053 3054
3051 1 3054 3055
3052 1 3055 3056
3053 1 3056 3057
3054 1 3057 3058
3055 1 3058 3059
3056 1 3059 3060
3057 1 3060 3061
3058 1 3061 3062
3059 1 3062 3063
3060 1 3063 3064
3061 1 3064 3065
3062 1 3065 3066
3063 1 3066 3067
3064 1 3067 3068
3065 1 3068 3069
3066 1 3069 3070
3067 1 3070 3071
3068 1 3071 3072
3069 1 3072 3073
3070 1 3073 3074
3071 1 3074 3075
3072 1 3075 3076
3073 1 3076 3077
3074 1 3077 3078
3075 1 3078 3079
3076 1 3079 3080
3077 1 3080 3081
3078 1 3081 3082
3079 1 3082 3083
3080 1 3083 3084
3081 1 3084 3085
3082 1 3085 3086
3083 1 3086 3087
3084 1 3087 3088
3085 1 3088 3089
3086 1 3089 3090
3087 1 3090 3091
3088 1 3091 3092
3089 1 3092 3093
3090 1 3093 3094
3091 1 3094 3095
3092 1 3095 3096
3093 1 3096 3097
3094 1 3097 3098
3095 1 3098 3099
3096 1 3099 3100
3097 1 3100 3101
3098 1 3101 3102
3099 1 3102 3103
3100 1 3103 3104
3101 1 3104 3105
3102 1 3105 3106
3103 1 3106 3107
3104 1 3107 3108
3105 1 3108 3109
3106 1 3109 3110
3107 1 3110 3111
3108 1 3111 3112
3109 1 3112 3113
3110 1 3113 3114
3111 1 3114 3115
3112 1 3115 3116
3113 1 3116 3117
3114 1 3117 3118
3115 1 3118 3119
3116 1 3119 3120
3117 1 3120 3121
3118 1 3121 3122
3119 1 3122 3123
3120 1 3123 3124
3121 1 3124 3125
3122 1 3125 3126
3123 1 3126 3127
3124 1 3127 3128
3125 1 3128 3129
3126 1 3129 3130
3127 1 3130 3131
3128 1 3131 3132
3129 1 3132 3133
3130 1 3133 3134
3131 1 3134 3135
3132 1 3135 3136
3133 1 3136 3137
3134 1 3137 3138
3135 1 3138 3139
3136 1 3139 3140
3137 1 3140 3141
3138 1 3141 3142
3139 1 3142 3143
3140 1 3143 3144
3141 1 3144 3145
3142 1 3145 3146
3143 1 3146 3147
3144 1 3147 3148
3145 1 3148 3149
3146 1 3149 3150
3147 1 3150 3151
3148 1 3151 3152
3149 1 3152 3153
3150 1 3153 3154
3151 1 3154 3155
3152 1 3155 3156
3153 1 3156 3157
3154 1 3157 3158
3155 1 3158 3159
3156 1 3159 3160
3157 1 3160 3161
3158 1 3161 3162
3159 1 3162 3163
3160 1 3163 3164
3161 1 3164 3165
3162 1 3165 3166
3163 1 3166 3167
3164 1 3167 3168
3165 1 3168 3169
3166 1 3169 3170
3167 1 3170 3171
3168 1 3171 3172
3169 1 3172 3173
3170 1 3173 3174
3171 1 3174 3175
3172 1 3175 3176
3173 1 3176 3177
3174 1 3177 3178
3175 1 3178 3179
3176 1 3179 3180
3177 1 3180 3181
3178 1 3181 3182
3179 1 3182 3183
3180 1 3183 3184
3181 1 3184 3185
3182 1 3185 3186
3183 1 3186 3187
3184 1 3187 3188
3185 1 3188 3189
3186 1 3189 3190
3187 1 3190 3191
3188 1 3191 3192
3189 1 3192 3193
3190 1 3193 3194
3191 1 3194 3195
3192 1 3195 3196
3193 1 3196 3197
3194 1 3197 3198
3195 1 3198 3199
3196 1 3199 3200
3197 1 3200 3201
3198 1 3201 3202
3199 1 3202 3203
3200 1 3203 3204
3201 1 3204 3205
3202 1 3205 3206
3203 1 3206 3207
3204 1 3207 3208
3205 1 3208 3209
3206 1 3209 3210
3207 1 3210 3211
3208 1 3211 3212
3209 1 3212 3213
3210 1 3213 3214
3211 1 3214 3215
3212 1 3215 3216
3213 1 3216 3217
3214 1 3217 3218
3215 1 3218 3219
3216 1 3219 3220
3217 1 3220 3221
3218 1 3221 3222
3219 1 3222 3223
3220 1 3223 3224
3221 1 3224 3225
3222 1 3225 3226
3223 1 3226 3227
3224 1 3227 3228
3225 1 3228 3229
3226 1 3229 3230
3227 1 3230 3231
3228 1 3231 3232
3229 1 3232 3233
3230 1 3233 3234
3231 1 3234 3235
3232 1 3235 3236
3233 1 3236 3237
3234 1 3237 3238
3235 1 3238 3239
3236 1 3239 3240
3237 1 3240 3241
3238 1 3241 3242
3239 1 3242 3243
3240 1 3243 3244
3241 1 3244 3245
3242 1 3245 3246
3243 1 3246 3247
3244 1 3247 3248
3245 1 3248 3249
3246 1 3249 3250
3247 1 3250 3251
3248 1 3251 3252
3249 1 3252 3253
3250 1 3253 3254
3251 1 3254 3255
3252 1 3255 3256
3253 1 3256 3257
3254 1 3257 3258
3255 1 3258 3259
3256 1 3259 3260
3257 1 3260 3261
3258 1 3261 3262
3259 1 3262 3263
3260 1 3263 3264
3261 1 3264 3265
3262 1 3265 3266
3263 1 3266 3267
3264 1 3267 3268
3265 1 3268 3269
3266 1 3269 3270
3267 1 3270 3271
3268 1 3271 3272
3269 1 3272 3273
3270 1 3273 3274
3271 1 3274 3275
3272 1 3275 3276
3273 1 3276 3277
3274 1 3277 3278
3275 1 3278 3279
3276 1 3279 3280
3277 1 3280 3281
3278 1 3281 3282
3279 1 3282 3283
3280 1 3283 3284
3281 1 3284 3285
3282 1 3285 3286
3283 1 3286 3287
3284 1 3287 3288
3285 1 3288 3289
3286 1 3289 3290
3287 1 3290 3291
3288 1 3291 3292
3289 1 3292 3293
3290 1 3293 3294
3291 1 3294 3295
3292 1 3295 3296
3293 1 3296 3297
3294 1 3297 3298
3295 1 3298 3299
3296 1 3299 3300
3297 1 3300 3301
3298 1 3301 3302
3299 1 3302 3303
3300 1 3303 3304
3301 1 3304 3305
3302 1 3305 3306
3303 1 3306 3307
3304 1 3307 3308
3305 1 3308 3309
3306 1 3309 3310
3307 1 3310 3311
3308 1 3311 3312
3309 1 3312 3313
3310 1 3313 3314
3311 1 3314 3315
3312 1 3315 3316
3313 1 3316 3317
3314 1 3317 3318
3315 1 3318 3319
3316 1 3319 3320
3317 1 3320 3321
3318 1 3321 3322
3319 1 3322 3323
3320 1 3323 3324
3321 1 3324 3325
3322 1 3325 3326
3323 1 3326 3327
3324 1 3327 3328
3325 1 3328 3329
3326 1 3329 3330
3327 1 3330 3331
3328 1 3331 3332
3329 1 3332 3333
3330 1 3333 3334
3331 1 3334 3335
3332 1 3335 3336
3333 1 3336 3337
3334 1 3337 3338
3335 1 3338 3339
3336 1 3339 3340
3337 1 3340 3341
3338 1 3341 3342
3339 1 3342 3343
3340 1 3343 3344
3341 1 3344 3345
3342 1 3345 3346
3343 1 3346 3347
3344 1 3347 3348
3345 1 3348 3349
3346 1 3349 3350
3347 1 3350 3351
3348 1 3351 3352
3349 1 3352 3353
3350 1 3353 3354
3351 1 3354 3355
3352 1 3355 3356
3353 1 3356 3357
3354 1 3357 3358
3355 1 3358 3359
3356 1 3359 3360
3357 1 3360 3361
3358 1 3361 3362
3359 1 3362 3363
3360 1 3363 3364
3361 1 3364 3365
3362 1 3365 3366
3363 1 3366 3367
3364 1 3367 3368
3365 1 3368 3369
3366 1 3369 3370
3367 1 3370 3371
3368 1 3371 3372
3369 1 3372 3373
3370 1 3373 3374
3371 1 3374 3375
3372 1 3375 3376
3373 1 3376 3377
3374 1 3377 3378
3375 1 3378 3379
3376 1 3379 3380
3377 1 3380 3381
3378 1 3381 3382
3379 1 3382 3383
3380 1 3383 3384
3381 1 3384 3385
3382 1 3385 3386
3383 1 3386 3387
3384 1 3387 3388
3385 1 3388 3389
3386 1 3389 3390
3387 1 3390 3391
3388 1 3391 3392
3389 1 3392 3393
3390 1 3393 3394
3391 1 3394 3395
3392 1 3395 3396
3393 1 3396 3397
3394 1 3397 3398
3395 1 3398 3399
3396 1 3399 3400
3397 1 3400 3401
3398 1 3401 3402
3399 1 3402 3403
3400 1 3403 3404
3401 1 3404 3405
3402 1 3405 3406
3403 1 3406 3407
3404 1 3407 3408
3405 1 3408 3409
3406 1 3409 3410
3407 1 3410 3411
3408 1 3411 3412
3409 1 3412 3413
3410 1 3413 3414
3411 1 3414 3415
3412 1 3415 3416
3413 1 3416 3417
3414 1 3417 3418
3415 1 3418 3419
3416 1 3419 3420
3417 1 3420 3421
3418 1 3421 3422
3419 1 3422 3423
3420 1 3423 3424
3421 1 3424 3425
3422 1 3425 3426
3423 1 3426 3427
3424 1 3427 3428
3425 1 3428 3429
3426 1 3429 3430
3427 1 3430 3431
3428 1 3431 3432
3429 1 3432 3433
3430 1 3433 3434
3431 1 3434 3435
3432 1 3435 3436
3433 1 3436 3437
3434 1 3437 3438
3435 1 3438 3439
3436 1 3439 3440
3437 1 3440 3441
3438 1 3441 3442
3439 1 3442 3443
3440 1 3443 3444
3441 1 3444 3445
3442 1 3445 3446
3443 1 3446 3447
3444 1 3447 3448
3445 1 3448 3449
3446 1 3449 3450
3447 1 3450 3451
3448 1 3451 3452
3449 1 3452 3453
3450 1 3453 3454
3451 1 3454 3455
3452 1 3455 3456
3453 1 3456 3457
3454 1 3457 3458
3455 1 3458 3459
3456 1 3459 3460
3457 1 3460 3461
3458 1 3461 3462
3459 1 3462 3463
3460 1 3463 3464
3461 1 3464 3465
3462 1 3465 3466
3463 1 3466 3467
3464 1 3467 3468
3465 1 3468 3469
3466 1 3469 3470
3467 1 3470 3471
3468 1 3471 3472
3469 1 3472 3473
3470 1 3473 3474
3471 1 3474 3475
3472 1 3475 3476
3473 1 3476 3477
3474 1 3477 3478
3475 1 3478 3479
3476 1 3479 3480
3477 1 3480 3481
3478 1 3481 3482
3479 1 3482 3483
3480 1 3483 3484
3481 1 3484 3485
3482 1 3485 3486
3483 1 3486 3487
3484 1 3487 3488
3485 1 3488 3489
3486 1 3489 3490
3487 1 3490 3491
3488 1 3491 3492
3489 1 3492 3493
3490 1 3493 3494
3491 1 3494 3495
3492 1 3495 3496
3493 1 3496 3497
3494 1 3497 3498
3495 1 3498 3499
3496 1 3499 3500
3497 1 3500 3501
3498 1 3501 3502
3499 1 3502 3503
3500 1 3503 3504
3501 1 3504 3505
3502 1 3505 3506
3503 1 3506 3507
3504 1 3507 3508
3505 1 3508 3509
3506 1 3509 3510
3507 1 3510 3511
3508 1 3511 3512
3509 1 3512 3513
3510 1 3513 3514
3511 1 3514 3515
3512 1 3515 3516
3513 1 3516 3517
3514 1 3517 3518
3515 1 3518 3519
3516 1 3519 3520
3517 1 3520 3521
3518 1 3521 3522
3519 1 3522 3523
3520 1 3523 3524
3521 1 3524 3525
3522 1 3525 3526
3523 1 3526 3527
3524 1 3527 3528
3525 1 3528 3529
3526 1 3529 3530
3527 1 3530 3531
3528 1 3531 3532
3529 1 3532 3533
3530 1 3533 3534
3531 1 3534 3535
3532 1 3535 3536
3533 1 3536 3537
3534 1 3537 3538
3535 1 3538 3539
3536 1 3539 3540
3537 1 3540 3541
3538 1 3541 3542
3539 1 3542 3543
3540 1 3543 3544
3541 1 3544 3545
3542 1 3545 3546
3543 1 3546 3547
3544 1 3547 3548
3545 1 3548 3549
3546 1 3549 3550
3547 1 3550 3551
3548 1 3551 3552
3549 1 3552 3553
3550 1 3553 3554
3551 1 3554 3555
3552 1 3555 3556
3553 1 3556 3557
3554 1 3557 3558
3555 1 3558 3559
3556 1 3559 3560
3557 1 3560 3561
3558 1 3561 3562
3559 1 3562 3563
3560 1 3563 3564
3561 1 3564 3565
3562 1 3565 3566
3563 1 3566 3567
3564 1 3567 3568
3565 1 3568 3569
3566 1 3569 3570
3567 1 3570 3571
3568 1 3571 3572
3569 1 3572 3573
3570 1 3573 3574
3571 1 3574 3575
3572 1 3575 3576
3573 1 3576 3577
3574 1 3577 3578
3575 1 3578 3579
3576 1 3579 3580
3577 1 3580 3581
3578 1 3581 3582
3579 1 3582 3583
3580 1 3583 3584
3581 1 3584 3585
3582 1 3585 3586
3583 1 3586 3587
3584 1 3587 3588
3585 1 3588 3589
3586 1 3589 3590
3587 1 3590 3591
3588 1 3591 3592
3589 1 3592 3593
3590 1 3593 3594
3591 1 3594 3595
3592 1 3595 3596
3593 1 3596 3597
3594 1 3597 3598
3595 1 3598 3599
3596 1 3599 3600
3597 1 3600 3601
3598 1 3601 3602
3599 1 3602 3603
3600 1 3603 3604
3601 1 3604 3605
3602 1 3605 3606
3603 1 3606 3607
3604 1 3607 3608
3605 1 3608 3609
3606 1 3609 3610
3607 1 3610 3611
3608 1 3611 3612
3609 1 3612 3613
3610 1 3613 3614
3611 1 3614 3615
3612 1 3615 3616
3613 1 3616 3617
3614 1 3617 3618
3615 1 3618 3619
3616 1 3619 3620
3617 1 3620 3621
3618 1 3621 3622
3619 1 3622 3623
3620 1 3623 3624
3621 1 3624 3625
3622 1 3625 3626
3623 1 3626 3627
3624 1 3627 3628
3625 1 3628 3629
3626 1 3629 3630
3627 1 3630 3631
3628 1 3631 3632
3629 1 3632 3633
3630 1 3633 3634
3631 1 3634 3635
3632 1 3635 3636
3633 1 3636 3637
3634 1 3637 3638
3635 1 3638 3639
3636 1 3639 3640
3637 1 3640 3641
3638 1 3641 3642
3639 1 3642 3643
3640 1 3643 3644
3641 1 3644 3645
3642 1 3645 3646
3643 1 3646 3647
3644 1 3647 3648
3645 1 3648 3649
3646 1 3649 3650
3647 1 3650 3651
3648 1 3651 3652
3649 1 3652 3653
3650 1 3653 3654
3651 1 3654 3655
3652 1 3655 3656
3653 1 3656 3657
3654 1 3657 3658
3655 1 3658 3659
3656 1 3659 3660
3657 1 3660 3661
3658 1 3661 3662
3659 1 3662 3663
3660 1 3663 3664
3661 1 3664 3665
3662 1 3665 3666
3663 1 3666 3667
3664 1 3667 3668
3665 1 3668 3669
3666 1 3669 3670
3667 1 3670 3671
3668 1 3671 3672
3669 1 3672 3673
3670 1 3673 3674
3671 1 3674 3675
3672 1 3675 3676
3673 1 3676 3677
3674 1 3677 3678
3675 1 3678 3679
3676 1 3679 3680
3677 1 3680 3681
3678 1 3681 3682
3679 1 3682 3683
3680 1 3683 3684
3681 1 3684 3685
3682 1 3685 3686
3683 1 3686 3687
3684 1 3687 3688
3685 1 3688 3689
3686 1 3689 3690
3687 1 3690 3691
3688 1 3691 3692
3689 1 3692 3693
3690 1 3693 3694
3691 1 3694 3695
3692 1 3695 3696
3693 1 3696 3697
3694 1 3697 3698
3695 1 3698 3699
3696 1 3699 3700
3697 1 3700 3701
3698 1 3701 3702
3699 1 3702 3703
3700 1 3703 3704
3701 1 3704 3705
3702 1 3705 3706
3703 1 3706 3707
3704 1 3707 3708
3705 1 3708 3709
3706 1 3709 3710
3707 1 3710 3711
3708 1 3711 3712
3709 1 3712 3713
3710 1 3713 3714
3711 1 3714 3715
3712 1 3715 3716
3713 1 3716 3717
3714 1 3717 3718
3715 1 3718 3719
3716 1 3719 3720
3717 1 3720 3721
3718 1 3721 3722
3719 1 3722 3723
3720 1 3723 3724
3721 1 3724 3725
3722 1 3725 3726
3723 1 3726 3727
3724 1 3727 3728
3725 1 3728 3729
3726 1 3729 3730
3727 1 3730 3731
3728 1 3731 3732
3729 1 3732 3733
3730 1 3733 3734
3731 1 3734 3735
3732 1 3735 3736
3733 1 3736 3737
3734 1 3737 3738
3735 1 3738 3739
3736 1 3739 3740
3737 1 3740 3741
3738 1 3741 3742
3739 1 3742 3743
3740 1 3743 3744
3741 1 3744 3745
3742 1 3745 3746
3743 1 3746 3747
3744 1 3747 3748
3745 1 3748 3749
3746 1 3749 3750
3747 1 3750 3751
3748 1 3751 3752
3749 1 3752 3753
3750 1 3753 3754
3751 1 3754 3755
3752 1 3755 3756
3753 1 3756 3757
3754 1 3757 3758
3755 1 3758 3759
3756 1 3759 3760
3757 1 3760 3761
3758 1 3761 3762
3759 1 3762 3763
3760 1 3763 3764
3761 1 3764 3765
3762 1 3765 3766
3763 1 3766 3767
3764 1 3767 3768
3765 1 3768 3769
3766 1 3769 3770
3767 1 3770 3771
3768 1 3771 3772
3769 1 3772 3773
3770 1 3773 3774
3771 1 3774 3775
3772 1 3775 3776
3773 1 3776 3777
3774 1 3777 3778
3775 1 3778 3779
3776 1 3779 3780
3777 1 3780 3781
3778 1 3781 3782
3779 1 3782 3783
3780 1 3783 3784
3781 1 3784 3785
3782 1 3785 3786
3783 1 3786 3787
3784 1 3787 3788
3785 1 3788 3789
3786 1 3789 3790
3787 1 3790 3791
3788 1 3791 3792
3789 1 3792 3793
3790 1 3793 3794
3791 1 3794 3795
3792 1 3795 3796
3793 1 3796 3797
3794 1 3797 3798
3795 1 3798 3799
3796 1 3799 3800
3797 1 3800 3801
3798 1 3801 3802
3799 1 3802 3803
3800 1 3803 3804
3801 1 3804 3805
3802 1 3805 3806
3803 1 3806 3807
3804 1 3807 3808
3805 1 3808 3809
3806 1 3809 3810
3807 1 3810 3811
3808 1 3811 3812
3809 1 3812 3813
3810 1 3813 3814
3811 1 3814 3815
3812 1 3815 3816
3813 1 3816 3817
3814 1 3817 3818
3815 1 3818 3819
3816 1 3819 3820
3817 1 3820 3821
3818 1 3821 3822
3819 1 3822 3823
3820 1 3823 3824
3821 1 3824 3825
3822 1 3825 3826
3823 1 3826 3827
3824 1 3827 3828
3825 1 3828 3829
3826 1 3829 3830
3827 1 3830 3831
3828 1 3831 3832
3829 1 3832 3833
3830 1 3833 3834
3831 1 3834 3835
3832 1 3835 3836
3833 1 3836 3837
3834 1 3837 3838
3835 1 3838 3839
3836 1 3839 3840
3837 1 3840 3841
3838 1 3841 3842
3839 1 3842 3843
3840 1 3843 3844
3841 1 3844 3845
3842 1 3845 3846
3843 1 3846 3847
3844 1 3847 3848
3845 1 3848 3849
3846 1 3849 3850
3847 1 3850 3851
3848 1 3851 3852
3849 1 3852 3853
3850 1 3853 3854
3851 1 3854 3855
3852 1 3855 3856
3853 1 3856 3857
3854 1 3857 3858
3855 1 3858 3859
3856 1 3859 3860
3857 1 3860 3861
3858 1 3861 3862
3859 1 3862 3863
3860 1 3863 3864
3861 1 3864 3865
3862 1 3865 3866
3863 1 3866 3867
3864 1 3867 3868
3865 1 3868 3869
3866 1 3869 3870
3867 1 3870 3871
3868 1 3871 3872
3869 1 3872 3873
3870 1 3873 3874
3871 1 3874 3875
3872 1 3875 3876
3873 1 3876 3877
3874 1 3877 3878
3875 1 3878 3879
3876 1 3879 3880
3877 1 3880 3881
3878 1 3881 3882
3879 1 3882 3883
3880 1 3883 3884
3881 1 3884 3885
3882 1 3885 3886
3883 1 3886 3887
3884 1 3887 3888
3885 1 3888 3889
3886 1 3889 3890
3887 1 3890 3891
3888 1 3891 3892
3889 1 3892 3893
3890 1 3893 3894
3891 1 3894 3895
3892 1 3895 3896
3893 1 3896 3897
3894 1 3897 3898
3895 1 3898 3899
3896 1 3899 3900
3897 1 3900 3901
3898 1 3901 3902
3899 1 3902 3903
3900 1 3903 3904
3901 1 3904 3905
3902 1 3905 3906
3903 1 3906 3907
3904 1 3907 3908
3905 1 3908 3909
3906 1 3909 3910
3907 1 3910 3911
3908 1 3911 3912
3909 1 3912 3913
3910 1 3913 3914
3911 1 3914 3915
3912 1 3915 3916
3913 1 3916 3917
3914 1 3917 3918
3915 1 3918 3919
3916 1 3919 3920
3917 1 3920 3921
3918 1 3921 3922
3919 1 3922 3923
3920 1 3923 3924
3921 1 3924 3925
3922 1 3925 3926
3923 1 3926 3927
3924 1 3927 3928
3925 1 3928 3929
3926 1 3929 3930
3927 1 3930 3931
3928 1 3931 3932
3929 1 3932 3933
3930 1 3933 3934
3931 1 3934 3935
3932 1 3935 3936
3933 1 3936 3937
3934 1 3937 3938
3935 1 3938 3939
3936 1 3939 3940
3937 1 3940 3941
3938 1 3941 3942
3939 1 3942 3943
3940 1 3943 3944
3941 1 3944 3945
3942 1 3945 3946
3943 1 3946 3947
3944 1 3947 3948
3945 1 3948 3949
3946 1 3949 3950
3947 1 3950 3951
3948 1 3951 3952
3949 1 3952 3953
3950 1 3953 3954
3951 1 3954 3955
3952 1 3955 3956
3953 1 3956 3957
3954 1 3957 3958
3955 1 3958 3959
3956 1 3959 3960
3957 1 3960 3961
3958 1 3961 3962
3959 1 3962 3963
3960 1 3963 3964
3961 1 3964 3965
3962 1 3965 3966
3963 1 3966 3967
3964 1 3967 3968
3965 1 3968 3969
3966 1 3969 3970
3967 1 3970 3971
3968 1 3971 3972
3969 1 3972 3973
3970 1 3973 3974
3971 1 3974 3975
3972 1 3975 3976
3973 1 3976 3977
3974 1 3977 3978
3975 1 3978 3979
3976 1 3979 3980
3977 1 3980 3981
3978 1 3981 3982
3979 1 3982 3983
3980 1 3983 3984
3981 1 3984 3985
3982 1 3985 3986
3983 1 3986 3987
3984 1 3987 3988
3985 1 3988 3989
3986 1 3989 3990
3987 1 3990 3991
3988 1 3991 3992
3989 1 3992 3993
3990 1 3993 3994
3991 1 3994 3995
3992 1 3995 3996
3993 1 3996 3997
3994 1 3997 3998
3995 1 3998 3999
3996 1 3999 4000
3997 1 4001 4002
3998 1 4002 4003
3999 1 4003 4004
4000 1 4004 4005
4001 1 4005 4006
4002 1 4006 4007
4003 1 4007 4008
4004 1 4008 4009
4005 1 4009 4010
4006 1 4010 4011
4007 1 4011 4012
4008 1 4012 4013
4009 1 4013 4014
4010 1 4014 4015
4011 1 4015 4016
4012 1 4016 4017
4013 1 4017 4018
4014 1 4018 4019
4015 1 4019 4020
4016 1 4020 4021
4017 1 4021 4022
4018 1 4022 4023
4019 1 4023 4024
4020 1 4024 4025
4021 1 4025 4026
4022 1 4026 4027
4023 1 4027 4028
4024 1 4028 4029
4025 1 4029 4030
4026 1 4030 4031
4027 1 4031 4032
4028 1 4032 4033
4029 1 4033 4034
4030 1 4034 4035
4031 1 4035 4036
4032 1 4036 4037
4033 1 4037 4038
4034 1 4038 4039
4035 1 4039 4040
4036 1 4040 4041
4037 1 4041 4042
4038 1 4042 4043
4039 1 4043 4044
4040 1 4044 4045
4041 1 4045 4046
4042 1 4046 4047
4043 1 4047 4048
4044 1 4048 4049
4045 1 4049 4050
4046 1 4050 4051
4047 1 4051 4052
4048 1 4052 4053
4049 1 4053 4054
4050 1 4054 4055
4051 1 4055 4056
4052 1 4056 4057
4053 1 4057 4058
4054 1 4058 4059
4055 1 4059 4060
4056 1 4060 4061
4057 1 4061 4062
4058 1 4062 4063
4059 1 4063 4064
4060 1 4064 4065
4061 1 4065 4066
4062 1 4066 4067
4063 1 4067 4068
4064 1 4068 4069
4065 1 4069 4070
4066 1 4070 4071
4067 1 4071 4072
4068 1 4072 4073
4069 1 4073 4074
4070 1 4074 4075
4071 1 4075 4076
4072 1 4076 4077
4073 1 4077 4078
4074 1 4078 4079
4075 1 4079 4080
4076 1 4080 4081
4077 1 4081 4082
4078 1 4082 4083
4079 1 4083 4084
4080 1 4084 4085
4081 1 4085 4086
4082 1 4086 4087
4083 1 4087 4088
4084 1 4088 4089
4085 1 4089 4090
4086 1 4090 4091
4087 1 4091 4092
4088 1 4092 4093
4089 1 4093 4094
4090 1 4094 4095
4091 1 4095 4096
4092 1 4096 4097
4093 1 4097 4098
4094 1 4098 4099
4095 1 4099 4100
4096 1 4100 4101
4097 1 4101 4102
4098 1 4102 4103
4099 1 4103 4104
4100 1 4104 4105
4101 1 4105 4106
4102 1 4106 4107
4103 1 4107 4108
4104 1 4108 4109
4105 1 4109 4110
4106 1 4110 4111
4107 1 4111 4112
4108 1 4112 4113
4109 1 4113 4114
4110 1 4114 4115
4111 1 4115 4116
4112 1 4116 4117
4113 1 4117 4118
4114 1 4118 4119
4115 1 4119 4120
4116 1 4120 4121
4117 1 4121 4122
4118 1 4122 4123
4119 1 4123 4124
4120 1 4124 4125
4121 1 4125 4126
4122 1 4126 4127
4123 1 4127 4128
4124 1 4128 4129
4125 1 4129 4130
4126 1 4130 4131
4127 1 4131 4132
4128 1 4132 4133
4129 1 4133 4134
4130 1 4134 4135
4131 1 4135 4136
4132 1 4136 4137
4133 1 4137 4138
4134 1 4138 4139
4135 1 4139 4140
4136 1 4140 4141
4137 1 4141 4142
4138 1 4142 4143
4139 1 4143 4144
4140 1 4144 4145
4141 1 4145 4146
4142 1 4146 4147
4143 1 4147 4148
4144 1 4148 4149
4145 1 4149 4150
4146 1 4150 4151
4147 1 4151 4152
4148 1 4152 4153
4149 1 4153 4154
4150 1 4154 4155
4151 1 4155 4156
4152 1 4156 4157
4153 1 4157 4158
4154 1 4158 4159
4155 1 4159 4160
4156 1 4160 4161
4157 1 4161 4162
4158 1 4162 4163
4159 1 4163 4164
4160 1 4164 4165
4161 1 4165 4166
4162 1 4166 4167
4163 1 4167 4168
4164 1 4168 4169
4165 1 4169 4170
4166 1 4170 4171
4167 1 4171 4172
4168 1 4172 4173
4169 1 4173 4174
4170 1 4174 4175
4171 1 4175 4176
4172 1 4176 4177
4173 1 4177 4178
4174 1 4178 4179
4175 1 4179 4180
4176 1 4180 4181
4177 1 4181 4182
4178 1 4182 4183
4179 1 4183 4184
4180 1 4184 4185
4181 1 4185 4186
4182 1 4186 4187
4183 1 4187 4188
4184 1 4188 4189
4185 1 4189 4190
4186 1 4190 4191
4187 1 4191 4192
4188 1 4192 4193
4189 1 4193 4194
4190 1 4194 4195
4191 1 4195 4196
4192 1 4196 4197
4193 1 4197 4198
4194 1 4198 4199
4195 1 4199 4200
4196 1 4200 4201
4197 1 4201 4202
4198 1 4202 4203
4199 1 4203 4204
4200 1 4204 4205
4201 1 4205 4206
4202 1 4206 4207
4203 1 4207 4208
4204 1 4208 4209
4205 1 4209 4210
4206 1 4210 4211
4207 1 4211 4212
4208 1 4212 4213
4209 1 4213 4214
4210 1 4214 4215
4211 1 4215 4216
4212 1 4216 4217
4213 1 4217 4218
4214 1 4218 4219
4215 1 4219 4220
4216 1 4220 4221
4217 1 4221 4222
4218 1 4222 4223
4219 1 4223 4224
4220 1 4224 4225
4221 1 4225 4226
4222 1 4226 4227
4223 1 4227 4228
4224 1 4228 4229
4225 1 4229 4230
4226 1 4230 4231
4227 1 4231 4232
4228 1 4232 4233
4229 1 4233 4234
4230 1 4234 4235
4231 1 4235 4236
4232 1 4236 4237
4233 1 4237 4238
4234 1 4238 4239
4235 1 4239 4240
4236 1 4240 4241
4237 1 4241 4242
4238 1 4242 4243
4239 1 4243 4244
4240 1 4244 4245
4241 1 4245 4246
4242 1 4246 4247
4243 1 4247 4248
4244 1 4248 4249
4245 1 4249 4250
4246 1 4250 4251
4247 1 4251 4252
4248 1 4252 4253
4249 1 4253 4254
4250 1 4254 4255
4251 1 4255 4256
4252 1 4256 4257
4253 1 4257 4258
4254 1 4258 4259
4255 1 4259 4260
4256 1 4260 4261
4257 1 4261 4262
4258 1 4262 4263
4259 1 4263 4264
4260 1 4264 4265
4261 1 4265 4266
4262 1 4266 4267
4263 1 4267 4268
4264 1 4268 4269
4265 1 4269 4270
4266 1 4270 4271
4267 1 4271 4272
4268 1 4272 4273
4269 1 4273 4274
4270 1 4274 4275
4271 1 4275 4276
4272 1 4276 4277
4273 1 4277 4278
4274 1 4278 4279
4275 1 4279 4280
4276 1 4280 4281
4277 1 4281 4282
4278 1 4282 4283
4279 1 4283 4284
4280 1 4284 4285
4281 1 4285 4286
4282 1 4286 4287
4283 1 4287 4288
4284 1 4288 4289
4285 1 4289 4290
4286 1 4290 4291
4287 1 4291 4292
4288 1 4292 4293
4289 1 4293 4294
4290 1 4294 4295
4291 1 4295 4296
4292 1 4296 4297
4293 1 4297 4298
4294 1 4298 4299
4295 1 4299 4300
4296 1 4300 4301
4297 1 4301 4302
4298 1 4302 4303
4299 1 4303 4304
4300 1 4304 4305
4301 1 4305 4306
4302 1 4306 4307
4303 1 4307 4308
4304 1 4308 4309
4305 1 4309 4310
4306 1 4310 4311
4307 1 4311 4312
4308 1 4312 4313
4309 1 4313 4314
4310 1 4314 4315
4311 1 4315 4316
4312 1 4316 4317
4313 1 4317 4318
4314 1 4318 4319
4315 1 4319 4320
4316 1 4320 4321
4317 1 4321 4322
4318 1 4322 4323
4319 1 4323 4324
4320 1 4324 4325
4321 1 4325 4326
4322 1 4326 4327
4323 1 4327 4328
4324 1 4328 4329
4325 1 4329 4330
4326 1 4330 4331
4327 1 4331 4332
4328 1 4332 4333
4329 1 4333 4334
4330 1 4334 4335
4331 1 4335 4336
4332 1 4336 4337
4333 1 4337 4338
4334 1 4338 4339
4335 1 4339 4340
4336 1 4340 4341
4337 1 4341 4342
4338 1 4342 4343
4339 1 4343 4344
4340 1 4344 4345
4341 1 4345 4346
4342 1 4346 4347
4343 1 4347 4348
4344 1 4348 4349
4345 1 4349 4350
4346 1 4350 4351
4347 1 4351 4352
4348 1 4352 4353
4349 1 4353 4354
4350 1 4354 4355
4351 1 4355 4356
4352 1 4356 4357
4353 1 4357 4358
4354 1 4358 4359
4355 1 4359 4360
4356 1 4360 4361
4357 1 4361 4362
4358 1 4362 4363
4359 1 4363 4364
4360 1 4364 4365
4361 1 4365 4366
4362 1 4366 4367
4363 1 4367 4368
4364 1 4368 4369
4365 1 4369 4370
4366 1 4370 4371
4367 1 4371 4372
4368 1 4372 4373
4369 1 4373 4374
4370 1 4374 4375
4371 1 4375 4376
4372 1 4376 4377
4373 1 4377 4378
4374 1 4378 4379
4375 1 4379 4380
4376 1 4380 4381
4377 1 4381 4382
4378 1 4382 4383
4379 1 4383 4384
4380 1 4384 4385
4381 1 4385 4386
4382 1 4386 4387
4383 1 4387 4388
4384 1 4388 4389
4385 1 4389 4390
4386 1 4390 4391
4387 1 4391 4392
4388 1 4392 4393
4389 1 4393 4394
4390 1 4394 4395
4391 1 4395 4396
4392 1 4396 4397
4393 1 4397 4398
4394 1 4398 4399
4395 1 4399 4400
4396 1 4400 4401
4397 1 4401 4402
4398 1 4402 4403
4399 1 4403 4404
4400 1 4404 4405
4401 1 4405 4406
4402 1 4406 4407
4403 1 4407 4408
4404 1 4408 4409
4405 1 4409 4410
4406 1 4410 4411
4407 1 4411 4412
4408 1 4412 4413
4409 1 4413 4414
4410 1 4414 4415
4411 1 4415 4416
4412 1 4416 4417
4413 1 4417 4418
4414 1 4418 4419
4415 1 4419 4420
4416 1 4420 4421
4417 1 4421 4422
4418 1 4422 4423
4419 1 4423 4424
4420 1 4424 4425
4421 1 4425 4426
4422 1 4426 4427
4423 1 4427 4428
4424 1 4428 4429
4425 1 4429 4430
4426 1 4430 4431
4427 1 4431 4432
4428 1 4432 4433
4429 1 4433 4434
4430 1 4434 4435
4431 1 4435 4436
4432 1 4436 4437
4433 1 4437 4438
4434 1 4438 4439
4435 1 4439 4440
4436 1 4440 4441
4437 1 4441 4442
4438 1 4442 4443
4439 1 4443 4444
4440 1 4444 4445
4441 1 4445 4446
4442 1 4446 4447
4443 1 4447 4448
4444 1 4448 4449
4445 1 4449 4450
4446 1 4450 4451
4447 1 4451 4452
4448 1 4452 4453
4449 1 4453 4454
4450 1 4454 4455
4451 1 4455 4456
4452 1 4456 4457
4453 1 4457 4458
4454 1 4458 4459
4455 1 4459 4460
4456 1 4460 4461
4457 1 4461 4462
4458 1 4462 4463
4459 1 4463 4464
4460 1 4464 4465
4461 1 4465 4466
4462 1 4466 4467
4463 1 4467 4468
4464 1 4468 4469
4465 1 4469 4470
4466 1 4470 4471
4467 1 4471 4472
4468 1 4472 4473
4469 1 4473 4474
4470 1 4474 4475
4471 1 4475 4476
4472 1 4476 4477
4473 1 4477 4478
4474 1 4478 4479
4475 1 4479 4480
4476 1 4480 4481
4477 1 4481 4482
4478 1 4482 4483
4479 1 4483 4484
4480 1 4484 4485
4481 1 4485 4486
4482 1 4486 4487
4483 1 4487 4488
4484 1 4488 4489
4485 1 4489 4490
4486 1 4490 4491
4487 1 4491 4492
4488 1 4492 4493
4489 1 4493 4494
4490 1 4494 4495
4491 1 4495 4496
4492 1 4496 4497
4493 1 4497 4498
4494 1 4498 4499
4495 1 4499 4500
4496 1 4500 4501
4497 1 4501 4502
4498 1 4502 4503
4499 1 4503 4504
4500 1 4504 4505
4501 1 4505 4506
4502 1 4506 4507
4503 1 4507 4508
4504 1 4508 4509
4505 1 4509 4510
4506 1 4510 4511
4507 1 4511 4512
4508 1 4512 4513
4509 1 4513 4514
4510 1 4514 4515
4511 1 4515 4516
4512 1 4516 4517
4513 1 4517 4518
4514 1 4518 4519
4515 1 4519 4520
4516 1 4520 4521
4517 1 4521 4522
4518 1 4522 4523
4519 1 4523 4524
4520 1 4524 4525
4521 1 4525 4526
4522 1 4526 4527
4523 1 4527 4528
4524 1 4528 4529
4525 1 4529 4530
4526 1 4530 4531
4527 1 4531 4532
4528 1 4532 4533
4529 1 4533 4534
4530 1 4534 4535
4531 1 4535 4536
4532 1 4536 4537
4533 1 4537 4538
4534 1 4538 4539
4535 1 4539 4540
4536 1 4540 4541
4537 1 4541 4542
4538 1 4542 4543
4539 1 4543 4544
4540 1 4544 4545
4541 1 4545 4546
4542 1 4546 4547
4543 1 4547 4548
4544 1 4548 4549
4545 1 4549 4550
4546 1 4550 4551
4547 1 4551 4552
4548 1 4552 4553
4549 1 4553 4554
4550 1 4554 4555
4551 1 4555 4556
4552 1 4556 4557
4553 1 4557 4558
4554 1 4558 4559
4555 1 4559 4560
4556 1 4560 4561
4557 1 4561 4562
4558 1 4562 4563
4559 1 4563 4564
4560 1 4564 4565
4561 1 4565 4566
4562 1 4566 4567
4563 1 4567 4568
4564 1 4568 4569
4565 1 4569 4570
4566 1 4570 4571
4567 1 4571 4572
4568 1 4572 4573
4569 1 4573 4574
4570 1 4574 4575
4571 1 4575 4576
4572 1 4576 4577
4573 1 4577 4578
4574 1 4578 4579
4575 1 4579 4580
4576 1 4580 4581
4577 1 4581 4582
4578 1 4582 4583
4579 1 4583 4584
4580 1 4584 4585
4581 1 4585 4586
4582 1 4586 4587
4583 1 4587 4588
4584 1 4588 4589
4585 1 4589 4590
4586 1 4590 4591
4587 1 4591 4592
4588 1 4592 4593
4589 1 4593 4594
4590 1 4594 4595
4591 1 4595 4596
4592 1 4596 4597
4593 1 4597 4598
4594 1 4598 4599
4595 1 4599 4600
4596 1 4600 4601
4597 1 4601 4602
4598 1 4602 4603
4599 1 4603 4604
4600 1 4604 4605
4601 1 4605 4606
4602 1 4606 4607
4603 1 4607 4608
4604 1 4608 4609
4605 1 4609 4610
4606 1 4610 4611
4607 1 4611 4612
4608 1 4612 4613
4609 1 4613 4614
4610 1 4614 4615
4611 1 4615 4616
4612 1 4616 4617
4613 1 4617 4618
4614 1 4618 4619
4615 1 4619 4620
4616 1 4620 4621
4617 1 4621 4622
4618 1 4622 4623
4619 1 4623 4624
4620 1 4624 4625
4621 1 4625 4626
4622 1 4626 4627
4623 1 4627 4628
4624 1 4628 4629
4625 1 4629 4630
4626 1 4630 4631
4627 1 4631 4632
4628 1 4632 4633
4629 1 4633 4634
4630 1 4634 4635
4631 1 4635 4636
4632 1 4636 4637
4633 1 4637 4638
4634 1 4638 4639
4635 1 4639 4640
4636 1 4640 4641
4637 1 4641 4642
4638 1 4642 4643
4639 1 4643 4644
4640 1 4644 4645
4641 1 4645 4646
4642 1 4646 4647
4643 1 4647 4648
4644 1 4648 4649
4645 1 4649 4650
4646 1 4650 4651
4647 1 4651 4652
4648 1 4652 4653
4649 1 4653 4654
4650 1 4654 4655
4651 1 4655 4656
4652 1 4656 4657
4653 1 4657 4658
4654 1 4658 4659
4655 1 4659 4660
4656 1 4660 4661
4657 1 4661 4662
4658 1 4662 4663
4659 1 4663 4664
4660 1 4664 4665
4661 1 4665 4666
4662 1 4666 4667
4663 1 4667 4668
4664 1 4668 4669
4665 1 4669 4670
4666 1 4670 4671
4667 1 4671 4672
4668 1 4672 4673
4669 1 4673 4674
4670 1 4674 4675
4671 1 4675 4676
4672 1 4676 4677
4673 1 4677 4678
4674 1 4678 4679
4675 1 4679 4680
4676 1 4680 4681
4677 1 4681 4682
4678 1 4682 4683
4679 1 4683 4684
4680 1 4684 4685
4681 1 4685 4686
4682 1 4686 4687
4683 1 4687 4688
4684 1 4688 4689
4685 1 4689 4690
4686 1 4690 4691
4687 1 4691 4692
4688 1 4692 4693
4689 1 4693 4694
4690 1 4694 4695
4691 1 4695 4696
4692 1 4696 4697
4693 1 4697 4698
4694 1 4698 4699
4695 1 4699 4700
4696 1 4700 4701
4697 1 4701 4702
4698 1 4702 4703
4699 1 4703 4704
4700 1 4704 4705
4701 1 4705 4706
4702 1 4706 4707
4703 1 4707 4708
4704 1 4708 4709
4705 1 4709 4710
4706 1 4710 4711
4707 1 4711 4712
4708 1 4712 4713
4709 1 4713 4714
4710 1 4714 4715
4711 1 4715 4716
4712 1 4716 4717
4713 1 4717 4718
4714 1 4718 4719
4715 1 4719 4720
4716 1 4720 4721
4717 1 4721 4722
4718 1 4722 4723
4719 1 4723 4724
4720 1 4724 4725
4721 1 4725 4726
4722 1 4726 4727
4723 1 4727 4728
4724 1 4728 4729
4725 1 4729 4730
4726 1 4730 4731
4727 1 4731 4732
4728 1 4732 4733
4729 1 4733 4734
4730 1 4734 4735
4731 1 4735 4736
4732 1 4736 4737
4733 1 4737 4738
4734 1 4738 4739
4735 1 4739 4740
4736 1 4740 4741
4737 1 4741 4742
4738 1 4742 4743
4739 1 4743 4744
4740 1 4744 4745
4741 1 4745 4746
4742 1 4746 4747
4743 1 4747 4748
4744 1 4748 4749
4745 1 4749 4750
4746 1 4750 4751
4747 1 4751 4752
4748 1 4752 4753
4749 1 4753 4754
4750 1 4754 4755
4751 1 4755 4756
4752 1 4756 4757
4753 1 4757 4758
4754 1 4758 4759
4755 1 4759 4760
4756 1 4760 4761
4757 1 4761 4762
4758 1 4762 4763
4759 1 4763 4764
4760 1 4764 4765
4761 1 4765 4766
4762 1 4766 4767
4763 1 4767 4768
4764 1 4768 4769
4765 1 4769 4770
4766 1 4770 4771
4767 1 4771 4772
4768 1 4772 4773
4769 1 4773 4774
4770 1 4774 4775
4771 1 4775 4776
4772 1 4776 4777
4773 1 4777 4778
4774 1 4778 4779
4775 1 4779 4780
4776 1 4780 4781
4777 1 4781 4782
4778 1 4782 4783
4779 1 4783 4784
4780 1 4784 4785
4781 1 4785 4786
4782 1 4786 4787
4783 1 4787 4788
4784 1 4788 4789
4785 1 4789 4790
4786 1 4790 4791
4787 1 4791 4792
4788 1 4792 4793
4789 1 4793 4794
4790 1 4794 4795
4791 1 4795 4796
4792 1 4796 4797
4793 1 4797 4798
4794 1 4798 4799
4795 1 4799 4800
4796 1 4800 4801
4797 1 4801 4802
4798 1 4802 4803
4799 1 4803 4804
4800 1 4804 4805
4801 1 4805 4806
4802 1 4806 4807
4803 1 4807 4808
4804 1 4808 4809
4805 1 4809 4810
4806 1 4810 4811
4807 1 4811 4812
4808 1 4812 4813
4809 1 4813 4814
4810 1 4814 4815
4811 1 4815 4816
4812 1 4816 4817
4813 1 4817 4818
4814 1 4818 4819
4815 1 4819 4820
4816 1 4820 4821
4817 1 4821 4822
4818 1 4822 4823
4819 1 4823 4824
4820 1 4824 4825
4821 1 4825 4826
4822 1 4826 4827
4823 1 4827 4828
4824 1 4828 4829
4825 1 4829 4830
4826 1 4830 4831
4827 1 4831 4832
4828 1 4832 4833
4829 1 4833 4834
4830 1 4834 4835
4831 1 4835 4836
4832 1 4836 4837
4833 1 4837 4838
4834 1 4838 4839
4835 1 4839 4840
4836 1 4840 4841
4837 1 4841 4842
4838 1 4842 4843
4839 1 4843 4844
4840 1 4844 4845
4841 1 4845 4846
4842 1 4846 4847
4843 1 4847 4848
4844 1 4848 4849
4845 1 4849 4850
4846 1 4850 4851
4847 1 4851 4852
4848 1 4852 4853
4849 1 4853 4854
4850 1 4854 4855
4851 1 4855 4856
4852 1 4856 4857
4853 1 4857 4858
4854 1 4858 4859
4855 1 4859 4860
4856 1 4860 4861
4857 1 4861 4862
4858 1 4862 4863
4859 1 4863 4864
4860 1 4864 4865
4861 1 4865 4866
4862 1 4866 4867
4863 1 4867 4868
4864 1 4868 4869
4865 1 4869 4870
4866 1 4870 4871
4867 1 4871 4872
4868 1 4872 4873
4869 1 4873 4874
4870 1 4874 4875
4871 1 4875 4876
4872 1 4876 4877
4873 1 4877 4878
4874 1 4878 4879
4875 1 4879 4880
4876 1 4880 4881
4877 1 4881 4882
4878 1 4882 4883
4879 1 4883 4884
4880 1 4884 4885
4881 1 4885 4886
4882 1 4886 4887
4883 1 4887 4888
4884 1 4888 4889
4885 1 4889 4890
4886 1 4890 4891
4887 1 4891 4892
4888 1 4892 4893
4889 1 4893 4894
4890 1 4894 4895
4891 1 4895 4896
4892 1 4896 4897
4893 1 4897 4898
4894 1 4898 4899
4895 1 4899 4900
4896 1 4900 4901
4897 1 4901 4902
4898 1 4902 4903
4899 1 4903 4904
4900 1 4904 4905
4901 1 4905 4906
4902 1 4906 4907
4903 1 4907 4908
4904 1 4908 4909
4905 1 4909 4910
4906 1 4910 4911
4907 1 4911 4912
4908 1 4912 4913
4909 1 4913 4914
4910 1 4914 4915
4911 1 4915 4916
4912 1 4916 4917
4913 1 4917 4918
4914 1 4918 4919
4915 1 4919 4920
4916 1 4920 4921
4917 1 4921 4922
4918 1 4922 4923
4919 1 4923 4924
4920 1 4924 4925
4921 1 4925 4926
4922 1 4926 4927
4923 1 4927 4928
4924 1 4928 4929
4925 1 4929 4930
4926 1 4930 4931
4927 1 4931 4932
4928 1 4932 4933
4929 1 4933 4934
4930 1 4934 4935
4931 1 4935 4936
4932 1 4936 4937
4933 1 4937 4938
4934 1 4938 4939
4935 1 4939 4940
4936 1 4940 4941
4937 1 4941 4942
4938 1 4942 4943
4939 1 4943 4944
4940 1 4944 4945
4941 1 4945 4946
4942 1 4946 4947
4943 1 4947 4948
4944 1 4948 4949
4945 1 4949 4950
4946 1 4950 4951
4947 1 4951 4952
4948 1 4952 4953
4949 1 4953 4954
4950 1 4954 4955
4951 1 4955 4956
4952 1 4956 4957
4953 1 4957 4958
4954 1 4958 4959
4955 1 4959 4960
4956 1 4960 4961
4957 1 4961 4962
4958 1 4962 4963
4959 1 4963 4964
4960 1 4964 4965
4961 1 4965 4966
4962 1 4966 4967
4963 1 4967 4968
4964 1 4968 4969
4965 1 4969 4970
4966 1 4970 4971
4967 1 4971 4972
4968 1 4972 4973
4969 1 4973 4974
4970 1 4974 4975
4971 1 4975 4976
4972 1 4976 4977
4973 1 4977 4978
4974 1 4978 4979
4975 1 4979 4980
4976 1 4980 4981
4977 1 4981 4982
4978 1 4982 4983
4979 1 4983 4984
4980 1 4984 4985
4981 1 4985 4986
4982 1 4986 4987
4983 1 4987 4988
4984 1 4988 4989
4985 1 4989 4990
4986 1 4990 4991
4987 1 4991 4992
4988 1 4992 4993
4989 1 4993 4994
4990 1 4994 4995
4991 1 4995 4996
4992 1 4996 4997
4993 1 4997 4998
4994 1 4998 4999
4995 1 4999 5000
4996 1 5001 5002
4997 1 5002 5003
4998 1 5003 5004
4999 1 5004 5005
5000 1 5005 5006
5001 1 5006 5007
5002 1 5007 5008
5003 1 5008 5009
5004 1 5009 5010
5005 1 5010 5011
5006 1 5011 5012
5007 1 5012 5013
5008 1 5013 5014
5009 1 5014 5015
5010 1 5015 5016
5011 1 5016 5017
5012 1 5017 5018
5013 1 5018 5019
5014 1 5019 5020
5015 1 5020 5021
5016 1 5021 5022
5017 1 5022 5023
5018 1 5023 5024
5019 1 5024 5025
5020 1 5025 5026
5021 1 5026 5027
5022 1 5027 5028
5023 1 5028 5029
5024 1 5029 5030
5025 1 5030 5031
5026 1 5031 5032
5027 1 5032 5033
5028 1 5033 5034
5029 1 5034 5035
5030 1 5035 5036
5031 1 5036 5037
5032 1 5037 5038
5033 1 5038 5039
5034 1 5039 5040
5035 1 5040 5041
5036 1 5041 5042
5037 1 5042 5043
5038 1 5043 5044
5039 1 5044 5045
5040 1 5045 5046
5041 1 5046 5047
5042 1 5047 5048
5043 1 5048 5049
5044 1 5049 5050
5045 1 5050 5051
5046 1 5051 5052
5047 1 5052 5053
5048 1 5053 5054
5049 1 5054 5055
5050 1 5055 5056
5051 1 5056 5057
5052 1 5057 5058
5053 1 5058 5059
5054 1 5059 5060
5055 1 5060 5061
5056 1 5061 5062
5057 1 5062 5063
5058 1 5063 5064
5059 1 5064 5065
5060 1 5065 5066
5061 1 5066 5067
5062 1 5067 5068
5063 1 5068 5069
5064 1 5069 5070
5065 1 5070 5071
5066 1 5071 5072
5067 1 5072 5073
5068 1 5073 5074
5069 1 5074 5075
5070 1 5075 5076
5071 1 5076 5077
5072 1 5077 5078
5073 1 5078 5079
5074 1 5079 5080
5075 1 5080 5081
5076 1 5081 5082
5077 1 5082 5083
5078 1 5083 5084
5079 1 5084 5085
5080 1 5085 5086
5081 1 5086 5087
5082 1 5087 5088
5083 1 5088 5089
5084 1 5089 5090
5085 1 5090 5091
5086 1 5091 5092
5087 1 5092 5093
5088 1 5093 5094
5089 1 5094 5095
5090 1 5095 5096
5091 1 5096 5097
5092 1 5097 5098
5093 1 5098 5099
5094 1 5099 5100
5095 1 5100 5101
5096 1 5101 5102
5097 1 5102 5103
5098 1 5103 5104
5099 1 5104 5105
5100 1 5105 5106
5101 1 5106 5107
5102 1 5107 5108
5103 1 5108 5109
5104 1 5109 5110
5105 1 5110 5111
5106 1 5111 5112
5107 1 5112 5113
5108 1 5113 5114
5109 1 5114 5115
5110 1 5115 5116
5111 1 5116 5117
5112 1 5117 5118
5113 1 5118 5119
5114 1 5119 5120
5115 1 5120 5121
5116 1 5121 5122
5117 1 5122 5123
5118 1 5123 5124
5119 1 5124 5125
5120 1 5125 5126
5121 1 5126 5127
5122 1 5127 5128
5123 1 5128 5129
5124 1 5129 5130
5125 1 5130 5131
5126 1 5131 5132
5127 1 5132 5133
5128 1 5133 5134
5129 1 5134 5135
5130 1 5135 5136
5131 1 5136 5137
5132 1 5137 5138
5133 1 5138 5139
5134 1 5139 5140
5135 1 5140 5141
5136 1 5141 5142
5137 1 5142 5143
5138 1 5143 5144
5139 1 5144 5145
5140 1 5145 5146
5141 1 5146 5147
5142 1 5147 5148
5143 1 5148 5149
5144 1 5149 5150
5145 1 5150 5151
5146 1 5151 5152
5147 1 5152 5153
5148 1 5153 5154
5149 1 5154 5155
5150 1 5155 5156
5151 1 5156 5157
5152 1 5157 5158
5153 1 5158 5159
5154 1 5159 5160
5155 1 5160 5161
5156 1 5161 5162
5157 1 5162 5163
5158 1 5163 5164
5159 1 5164 5165
5160 1 5165 5166
5161 1 5166 5167
5162 1 5167 5168
5163 1 5168 5169
5164 1 5169 5170
5165 1 5170 5171
5166 1 5171 5172
5167 1 5172 5173
5168 1 5173 5174
5169 1 5174 5175
5170 1 5175 5176
5171 1 5176 5177
5172 1 5177 5178
5173 1 5178 5179
5174 1 5179 5180
5175 1 5180 5181
5176 1 5181 5182
5177 1 5182 5183
5178 1 5183 5184
5179 1 5184 5185
5180 1 5185 5186
5181 1 5186 5187
5182 1 5187 5188
5183 1 5188 5189
5184 1 5189 5190
5185 1 5190 5191
5186 1 5191 5192
5187 1 5192 5193
5188 1 5193 5194
5189 1 5194 5195
5190 1 5195 5196
5191 1 5196 5197
5192 1 5197 5198
5193 1 5198 5199
5194 1 5199 5200
5195 1 5200 5201
5196 1 5201 5202
5197 1 5202 5203
5198 1 5203 5204
5199 1 5204 5205
5200 1 5205 5206
5201 1 5206 5207
5202 1 5207 5208
5203 1 5208 5209
5204 1 5209 5210
5205 1 5210 5211
5206 1 5211 5212
5207 1 5212 5213
5208 1 5213 5214
5209 1 5214 5215
5210 1 5215 5216
5211 1 5216 5217
5212 1 5217 5218
5213 1 5218 5219
5214 1 5219 5220
5215 1 5220 5221
5216 1 5221 5222
5217 1 5222 5223
5218 1 5223 5224
5219 1 5224 5225
5220 1 5225 5226
5221 1 5226 5227
5222 1 5227 5228
5223 1 5228 5229
5224 1 5229 5230
5225 1 5230 5231
5226 1 5231 5232
5227 1 5232 5233
5228 1 5233 5234
5229 1 5234 5235
5230 1 5235 5236
5231 1 5236 5237
5232 1 5237 5238
5233 1 5238 5239
5234 1 5239 5240
5235 1 5240 5241
5236 1 5241 5242
5237 1 5242 5243
5238 1 5243 5244
5239 1 5244 5245
5240 1 5245 5246
5241 1 5246 5247
5242 1 5247 5248
5243 1 5248 5249
5244 1 5249 5250
5245 1 5250 5251
5246 1 5251 5252
5247 1 5252 5253
5248 1 5253 5254
5249 1 5254 5255
5250 1 5255 5256
5251 1 5256 5257
5252 1 5257 5258
5253 1 5258 5259
5254 1 5259 5260
5255 1 5260 5261
5256 1 5261 5262
5257 1 5262 5263
5258 1 5263 5264
5259 1 5264 5265
5260 1 5265 5266
5261 1 5266 5267
5262 1 5267 5268
5263 1 5268 5269
5264 1 5269 5270
5265 1 5270 5271
5266 1 5271 5272
5267 1 5272 5273
5268 1 5273 5274
5269 1 5274 5275
5270 1 5275 5276
5271 1 5276 5277
5272 1 5277 5278
5273 1 5278 5279
5274 1 5279 5280
5275 1 5280 5281
5276 1 5281 5282
5277 1 5282 5283
5278 1 5283 5284
5279 1 5284 5285
5280 1 5285 5286
5281 1 5286 5287
5282 1 5287 5288
5283 1 5288 5289
5284 1 5289 5290
5285 1 5290 5291
5286 1 5291 5292
5287 1 5292 5293
5288 1 5293 5294
5289 1 5294 5295
5290 1 5295 5296
5291 1 5296 5297
5292 1 5297 5298
5293 1 5298 5299
5294 1 5299 5300
5295 1 5300 5301
5296 1 5301 5302
5297 1 5302 5303
5298 1 5303 5304
5299 1 5304 5305
5300 1 5305 5306
5301 1 5306 5307
5302 1 5307 5308
5303 1 5308 5309
5304 1 5309 5310
5305 1 5310 5311
5306 1 5311 5312
5307 1 5312 5313
5308 1 5313 5314
5309 1 5314 5315
5310 1 5315 5316
5311 1 5316 5317
5312 1 5317 5318
5313 1 5318 5319
5314 1 5319 5320
5315 1 5320 5321
5316 1 5321 5322
5317 1 5322 5323
5318 1 5323 5324
5319 1 5324 5325
5320 1 5325 5326
5321 1 5326 5327
5322 1 5327 5328
5323 1 5328 5329
5324 1 5329 5330
5325 1 5330 5331
5326 1 5331 5332
5327 1 5332 5333
5328 1 5333 5334
5329 1 5334 5335
5330 1 5335 5336
5331 1 5336 5337
5332 1 5337 5338
5333 1 5338 5339
5334 1 5339 5340
5335 1 5340 5341
5336 1 5341 5342
5337 1 5342 5343
5338 1 5343 5344
5339 1 5344 5345
5340 1 5345 5346
5341 1 5346 5347
5342 1 5347 5348
5343 1 5348 5349
5344 1 5349 5350
5345 1 5350 5351
5346 1 5351 5352
5347 1 5352 5353
5348 1 5353 5354
5349 1 5354 5355
5350 1 5355 5356
5351 1 5356 5357
5352 1 5357 5358
5353 1 5358 5359
5354 1 5359 5360
5355 1 5360 5361
5356 1 5361 5362
5357 1 5362 5363
5358 1 5363 5364
5359 1 5364 5365
5360 1 5365 5366
5361 1 5366 5367
5362 1 5367 5368
5363 1 5368 5369
5364 1 5369 5370
5365 1 5370 5371
5366 1 5371 5372
5367 1 5372 5373
5368 1 5373 5374
5369 1 5374 5375
5370 1 5375 5376
5371 1 5376 5377
5372 1 5377 5378
5373 1 5378 5379
5374 1 5379 5380
5375 1 5380 5381
5376 1 5381 5382
5377 1 5382 5383
5378 1 5383 5384
5379 1 5384 5385
5380 1 5385 5386
5381 1 5386 5387
5382 1 5387 5388
5383 1 5388 5389
5384 1 5389 5390
5385 1 5390 5391
5386 1 5391 5392
5387 1 5392 5393
5388 1 5393 5394
5389 1 5394 5395
5390 1 5395 5396
5391 1 5396 5397
5392 1 5397 5398
5393 1 5398 5399
5394 1 5399 5400
5395 1 5400 5401
5396 1 5401 5402
5397 1 5402 5403
5398 1 5403 5404
5399 1 5404 5405
5400 1 5405 5406
5401 1 5406 5407
5402 1 5407 5408
5403 1 5408 5409
5404 1 5409 5410
5405 1 5410 5411
5406 1 5411 5412
5407 1 5412 5413
5408 1 5413 5414
5409 1 5414 5415
5410 1 5415 5416
5411 1 5416 5417
5412 1 5417 5418
5413 1 5418 5419
5414 1 5419 5420
5415 1 5420 5421
5416 1 5421 5422
5417 1 5422 5423
5418 1 5423 5424
5419 1 5424 5425
5420 1 5425 5426
5421 1 5426 5427
5422 1 5427 5428
5423 1 5428 5429
5424 1 5429 5430
5425 1 5430 5431
5426 1 5431 5432
5427 1 5432 5433
5428 1 5433 5434
5429 1 5434 5435
5430 1 5435 5436
5431 1 5436 5437
5432 1 5437 5438
5433 1 5438 5439
5434 1 5439 5440
5435 1 5440 5441
5436 1 5441 5442
5437 1 5442 5443
5438 1 5443 5444
5439 1 5444 5445
5440 1 5445 5446
5441 1 5446 5447
5442 1 5447 5448
5443 1 5448 5449
5444 1 5449 5450
5445 1 5450 5451
5446 1 5451 5452
5447 1 5452 5453
5448 1 5453 5454
5449 1 5454 5455
5450 1 5455 5456
5451 1 5456 5457
5452 1 5457 5458
5453 1 5458 5459
5454 1 5459 5460
5455 1 5460 5461
5456 1 5461 5462
5457 1 5462 5463
5458 1 5463 5464
5459 1 5464 5465
5460 1 5465 5466
5461 1 5466 5467
5462 1 5467 5468
5463 1 5468 5469
5464 1 5469 5470
5465 1 5470 5471
5466 1 5471 5472
5467 1 5472 5473
5468 1 5473 5474
5469 1 5474 5475
5470 1 5475 5476
5471 1 5476 5477
5472 1 5477 5478
5473 1 5478 5479
5474 1 5479 5480
5475 1 5480 5481
5476 1 5481 5482
5477 1 5482 5483
5478 1 5483 5484
5479 1 5484 5485
5480 1 5485 5486
5481 1 5486 5487
5482 1 5487 5488
5483 1 5488 5489
5484 1 5489 5490
5485 1 5490 5491
5486 1 5491 5492
5487 1 5492 5493
5488 1 5493 5494
5489 1 5494 5495
5490 1 5495 5496
5491 1 5496 5497
5492 1 5497 5498
5493 1 5498 5499
5494 1 5499 5500
5495 1 5500 5501
5496 1 5501 5502
5497 1 5502 5503
5498 1 5503 5504
5499 1 5504 5505
5500 1 5505 5506
5501 1 5506 5507
5502 1 5507 5508
5503 1 5508 5509
5504 1 5509 5510
5505 1 5510 5511
5506 1 5511 5512
5507 1 5512 5513
5508 1 5513 5514
5509 1 5514 5515
5510 1 5515 5516
5511 1 5516 5517
5512 1 5517 5518
5513 1 5518 5519
5514 1 5519 5520
5515 1 5520 5521
5516 1 5521 5522
5517 1 5522 5523
5518 1 5523 5524
5519 1 5524 5525
5520 1 5525 5526
5521 1 5526 5527
5522 1 5527 5528
5523 1 5528 5529
5524 1 5529 5530
5525 1 5530 5531
5526 1 5531 5532
5527 1 5532 5533
5528 1 5533 5534
5529 1 5534 5535
5530 1 5535 5536
5531 1 5536 5537
5532 1 5537 5538
5533 1 5538 5539
5534 1 5539 5540
5535 1 5540 5541
5536 1 5541 5542
5537 1 5542 5543
5538 1 5543 5544
5539 1 5544 5545
5540 1 5545 5546
5541 1 5546 5547
5542 1 5547 5548
5543 1 5548 5549
5544 1 5549 5550
5545 1 5550 5551
5546 1 5551 5552
5547 1 5552 5553
5548 1 5553 5554
5549 1 5554 5555
5550 1 5555 5556
5551 1 5556 5557
5552 1 5557 5558
5553 1 5558 5559
5554 1 5559 5560
5555 1 5560 5561
5556 1 5561 5562
5557 1 5562 5563
5558 1 5563 5564
5559 1 5564 5565
5560 1 5565 5566
5561 1 5566 5567
5562 1 5567 5568
5563 1 5568 5569
5564 1 5569 5570
5565 1 5570 5571
5566 1 5571 5572
5567 1 5572 5573
5568 1 5573 5574
5569 1 5574 5575
5570 1 5575 5576
5571 1 5576 5577
5572 1 5577 5578
5573 1 5578 5579
5574 1 5579 5580
5575 1 5580 5581
5576 1 5581 5582
5577 1 5582 5583
5578 1 5583 5584
5579 1 5584 5585
5580 1 5585 5586
5581 1 5586 5587
5582 1 5587 5588
5583 1 5588 5589
5584 1 5589 5590
5585 1 5590 5591
5586 1 5591 5592
5587 1 5592 5593
5588 1 5593 5594
5589 1 5594 5595
5590 1 5595 5596
5591 1 5596 5597
5592 1 5597 5598
5593 1 5598 5599
5594 1 5599 5600
5595 1 5600 5601
5596 1 5601 5602
5597 1 5602 5603
5598 1 5603 5604
5599 1 5604 5605
5600 1 5605 5606
5601 1 5606 5607
5602 1 5607 5608
5603 1 5608 5609
5604 1 5609 5610
5605 1 5610 5611
5606 1 5611 5612
5607 1 5612 5613
5608 1 5613 5614
5609 1 5614 5615
5610 1 5615 5616
5611 1 5616 5617
5612 1 5617 5618
5613 1 5618 5619
5614 1 5619 5620
5615 1 5620 5621
5616 1 5621 5622
5617 1 5622 5623
5618 1 5623 5624
5619 1 5624 5625
5620 1 5625 5626
5621 1 5626 5627
5622 1 5627 5628
5623 1 5628 5629
5624 1 5629 5630
5625 1 5630 5631
5626 1 5631 5632
5627 1 5632 5633
5628 1 5633 5634
5629 1 5634 5635
5630 1 5635 5636
5631 1 5636 5637
5632 1 5637 5638
5633 1 5638 5639
5634 1 5639 5640
5635 1 5640 5641
5636 1 5641 5642
5637 1 5642 5643
5638 1 5643 5644
5639 1 5644 5645
5640 1 5645 5646
5641 1 5646 5647
5642 1 5647 5648
5643 1 5648 5649
5644 1 5649 5650
5645 1 5650 5651
5646 1 5651 5652
5647 1 5652 5653
5648 1 5653 5654
5649 1 5654 5655
5650 1 5655 5656
5651 1 5656 5657
5652 1 5657 5658
5653 1 5658 5659
5654 1 5659 5660
5655 1 5660 5661
5656 1 5661 5662
5657 1 5662 5663
5658 1 5663 5664
5659 1 5664 5665
5660 1 5665 5666
5661 1 5666 5667
5662 1 5667 5668
5663 1 5668 5669
5664 1 5669 5670
5665 1 5670 5671
5666 1 5671 5672
5667 1 5672 5673
5668 1 5673 5674
5669 1 5674 5675
5670 1 5675 5676
5671 1 5676 5677
5672 1 5677 5678
5673 1 5678 5679
5674 1 5679 5680
5675 1 5680 5681
5676 1 5681 5682
5677 1 5682 5683
5678 1 5683 5684
5679 1 5684 5685
5680 1 5685 5686
5681 1 5686 5687
5682 1 5687 5688
5683 1 5688 5689
5684 1 5689 5690
5685 1 5690 5691
5686 1 5691 5692
5687 1 5692 5693
5688 1 5693 5694
5689 1 5694 5695
5690 1 5695 5696
5691 1 5696 5697
5692 1 5697 5698
5693 1 5698 5699
5694 1 5699 5700
5695 1 5700 5701
5696 1 5701 5702
5697 1 5702 5703
5698 1 5703 5704
5699 1 5704 5705
5700 1 5705 5706
5701 1 5706 5707
5702 1 5707 5708
5703 1 5708 5709
5704 1 5709 5710
5705 1 5710 5711
5706 1 5711 5712
5707 1 5712 5713
5708 1 5713 5714
5709 1 5714 5715
5710 1 5715 5716
5711 1 5716 5717
5712 1 5717 5718
5713 1 5718 5719
5714 1 5719 5720
5715 1 5720 5721
5716 1 5721 5722
5717 1 5722 5723
5718 1 5723 5724
5719 1 5724 5725
5720 1 5725 5726
5721 1 5726 5727
5722 1 5727 5728
5723 1 5728 5729
5724 1 5729 5730
5725 1 5730 5731
5726 1 5731 5732
5727 1 5732 5733
5728 1 5733 5734
5729 1 5734 5735
5730 1 5735 5736
5731 1 5736 5737
5732 1 5737 5738
5733 1 5738 5739
5734 1 5739 5740
5735 1 5740 5741
5736 1 5741 5742
5737 1 5742 5743
5738 1 5743 5744
5739 1 5744 5745
5740 1 5745 5746
5741 1 5746 5747
5742 1 5747 5748
5743 1 5748 5749
5744 1 5749 5750
5745 1 5750 5751
5746 1 5751 5752
5747 1 5752 5753
5748 1 5753 5754
5749 1 5754 5755
5750 1 5755 5756
5751 1 5756 5757
5752 1 5757 5758
5753 1 5758 5759
5754 1 5759 5760
5755 1 5760 5761
5756 1 5761 5762
5757 1 5762 5763
5758 1 5763 5764
5759 1 5764 5765
5760 1 5765 5766
5761 1 5766 5767
5762 1 5767 5768
5763 1 5768 5769
5764 1 5769 5770
5765 1 5770 5771
5766 1 5771 5772
5767 1 5772 5773
5768 1 5773 5774
5769 1 5774 5775
5770 1 5775 5776
5771 1 5776 5777
5772 1 5777 5778
5773 1 5778 5779
5774 1 5779 5780
5775 1 5780 5781
5776 1 5781 5782
5777 1 5782 5783
5778 1 5783 5784
5779 1 5784 5785
5780 1 5785 5786
5781 1 5786 5787
5782 1 5787 5788
5783 1 5788 5789
5784 1 5789 5790
5785 1 5790 5791
5786 1 5791 5792
5787 1 5792 5793
5788 1 5793 5794
5789 1 5794 5795
5790 1 5795 5796
5791 1 5796 5797
5792 1 5797 5798
5793 1 5798 5799
5794 1 5799 5800
5795 1 5800 5801
5796 1 5801 5802
5797 1 5802 5803
5798 1 5803 5804
5799 1 5804 5805
5800 1 5805 5806
5801 1 5806 5807
5802 1 5807 5808
5803 1 5808 5809
5804 1 5809 5810
5805 1 5810 5811
5806 1 5811 5812
5807 1 5812 5813
5808 1 5813 5814
5809 1 5814 5815
5810 1 5815 5816
5811 1 5816 5817
5812 1 5817 5818
5813 1 5818 5819
5814 1 5819 5820
5815 1 5820 5821
5816 1 5821 5822
5817 1 5822 5823
5818 1 5823 5824
5819 1 5824 5825
5820 1 5825 5826
5821 1 5826 5827
5822 1 5827 5828
5823 1 5828 5829
5824 1 5829 5830
5825 1 5830 5831
5826 1 5831 5832
5827 1 5832 5833
5828 1 5833 5834
5829 1 5834 5835
5830 1 5835 5836
5831 1 5836 5837
5832 1 5837 5838
5833 1 5838 5839
5834 1 5839 5840
5835 1 5840 5841
5836 1 5841 5842
5837 1 5842 5843
5838 1 5843 5844
5839 1 5844 5845
5840 1 5845 5846
5841 1 5846 5847
5842 1 5847 5848
5843 1 5848 5849
5844 1 5849 5850
5845 1 5850 5851
5846 1 5851 5852
5847 1 5852 5853
5848 1 5853 5854
5849 1 5854 5855
5850 1 5855 5856
5851 1 5856 5857
5852 1 5857 5858
5853 1 5858 5859
5854 1 5859 5860
5855 1 5860 5861
5856 1 5861 5862
5857 1 5862 5863
5858 1 5863 5864
5859 1 5864 5865
5860 1 5865 5866
5861 1 5866 5867
5862 1 5867 5868
5863 1 5868 5869
5864 1 5869 5870
5865 1 5870 5871
5866 1 5871 5872
5867 1 5872 5873
5868 1 5873 5874
5869 1 5874 5875
5870 1 5875 5876
5871 1 5876 5877
5872 1 5877 5878
5873 1 5878 5879
5874 1 5879 5880
5875 1 5880 5881
5876 1 5881 5882
5877 1 5882 5883
5878 1 5883 5884
5879 1 5884 5885
5880 1 5885 5886
5881 1 5886 5887
5882 1 5887 5888
5883 1 5888 5889
5884 1 5889 5890
5885 1 5890 5891
5886 1 5891 5892
5887 1 5892 5893
5888 1 5893 5894
5889 1 5894 5895
5890 1 5895 5896
5891 1 5896 5897
5892 1 5897 5898
5893 1 5898 5899
5894 1 5899 5900
5895 1 5900 5901
5896 1 5901 5902
5897 1 5902 5903
5898 1 5903 5904
5899 1 5904 5905
5900 1 5905 5906
5901 1 5906 5907
5902 1 5907 5908
5903 1 5908 5909
5904 1 5909 5910
5905 1 5910 5911
5906 1 5911 5912
5907 1 5912 5913
5908 1 5913 5914
5909 1 5914 5915
5910 1 5915 5916
5911 1 5916 5917
5912 1 5917 5918
5913 1 5918 5919
5914 1 5919 5920
5915 1 5920 5921
5916 1 5921 5922
5917 1 5922 5923
5918 1 5923 5924
5919 1 5924 5925
5920 1 5925 5926
5921 1 5926 5927
5922 1 5927 5928
5923 1 5928 5929
5924 1 5929 5930
5925 1 5930 5931
5926 1 5931 5932
5927 1 5932 5933
5928 1 5933 5934
5929 1 5934 5935
5930 1 5935 5936
5931 1 5936 5937
5932 1 5937 5938
5933 1 5938 5939
5934 1 5939 5940
5935 1 5940 5941
5936 1 5941 5942
5937 1 5942 5943
5938 1 5943 5944
5939 1 5944 5945
5940 1 5945 5946
5941 1 5946 5947
5942 1 5947 5948
5943 1 5948 5949
5944 1 5949 5950
5945 1 5950 5951
5946 1 5951 5952
5947 1 5952 5953
5948 1 5953 5954
5949 1 5954 5955
5950 1 5955 5956
5951 1 5956 5957
5952 1 5957 5958
5953 1 5958 5959
5954 1 5959 5960
5955 1 5960 5961
5956 1 5961 5962
5957 1 5962 5963
5958 1 5963 5964
5959 1 5964 5965
5960 1 5965 5966
5961 1 5966 5967
5962 1 5967 5968
5963 1 5968 5969
5964 1 5969 5970
5965 1 5970 5971
5966 1 5971 5972
5967 1 5972 5973
5968 1 5973 5974
5969 1 5974 5975
5970 1 5975 5976
5971 1 5976 5977
5972 1 5977 5978
5973 1 5978 5979
5974 1 5979 5980
5975 1 5980 5981
5976 1 5981 5982
5977 1 5982 5983
5978 1 5983 5984
5979 1 5984 5985
5980 1 5985 5986
5981 1 5986 5987
5982 1 5987 5988
5983 1 5988 5989
5984 1 5989 5990
5985 1 5990 5991
5986 1 5991 5992
5987 1 5992 5993
5988 1 5993 5994
5989 1 5994 5995
5990 1 5995 5996
5991 1 5996 5997
5992 1 5997 5998
5993 1 5998 5999
5994 1 5999 6000
5995 1 6001 6002
5996 1 6002 6003
5997 1 6003 6004
5998 1 6004 6005
5999 1 6005 6006
6000 1 6006 6007
6001 1 6007 6008
6002 1 6008 6009
6003 1 6009 6010
6004 1 6010 6011
6005 1 6011 6012
6006 1 6012 6013
6007 1 6013 6014
6008 1 6014 6015
6009 1 6015 6016
6010 1 6016 6017
6011 1 6017 6018
6012 1 6018 6019
6013 1 6019 6020
6014 1 6020 6021
6015 1 6021 6022
6016 1 6022 6023
6017 1 6023 6024
6018 1 6024 6025
6019 1 6025 6026
6020 1 6026 6027
6021 1 6027 6028
6022 1 6028 6029
6023 1 6029 6030
6024 1 6030 6031
6025 1 6031 6032
6026 1 6032 6033
6027 1 6033 6034
6028 1 6034 6035
6029 1 6035 6036
6030 1 6036 6037
6031 1 6037 6038
6032 1 6038 6039
6033 1 6039 6040
6034 1 6040 6041
6035 1 6041 6042
6036 1 6042 6043
6037 1 6043 6044
6038 1 6044 6045
6039 1 6045 6046
6040 1 6046 6047
6041 1 6047 6048
6042 1 6048 6049
6043 1 6049 6050
6044 1 6050 6051
6045 1 6051 6052
6046 1 6052 6053
6047 1 6053 6054
6048 1 6054 6055
6049 1 6055 6056
6050 1 6056 6057
6051 1 6057 6058
6052 1 6058 6059
6053 1 6059 6060
6054 1 6060 6061
6055 1 6061 6062
6056 1 6062 6063
6057 1 6063 6064
6058 1 6064 6065
6059 1 6065 6066
6060 1 6066 6067
6061 1 6067 6068
6062 1 6068 6069
6063 1 6069 6070
6064 1 6070 6071
6065 1 6071 6072
6066 1 6072 6073
6067 1 6073 6074
6068 1 6074 6075
6069 1 6075 6076
6070 1 6076 6077
6071 1 6077 6078
6072 1 6078 6079
6073 1 6079 6080
6074 1 6080 6081
6075 1 6081 6082
6076 1 6082 6083
6077 1 6083 6084
6078 1 6084 6085
6079 1 6085 6086
6080 1 6086 6087
6081 1 6087 6088
6082 1 6088 6089
6083 1 6089 6090
6084 1 6090 6091
6085 1 6091 6092
6086 1 6092 6093
6087 1 6093 6094
6088 1 6094 6095
6089 1 6095 6096
6090 1 6096 6097
6091 1 6097 6098
6092 1 6098 6099
6093 1 6099 6100
6094 1 6100 6101
6095 1 6101 6102
6096 1 6102 6103
6097 1 6103 6104
6098 1 6104 6105
6099 1 6105 6106
6100 1 6106 6107
6101 1 6107 6108
6102 1 6108 6109
6103 1 6109 6110
6104 1 6110 6111
6105 1 6111 6112
6106 1 6112 6113
6107 1 6113 6114
6108 1 6114 6115
6109 1 6115 6116
6110 1 6116 6117
6111 1 6117 6118
6112 1 6118 6119
6113 1 6119 6120
6114 1 6120 6121
6115 1 6121 6122
6116 1 6122 6123
6117 1 6123 6124
6118 1 6124 6125
6119 1 6125 6126
6120 1 6126 6127
6121 1 6127 6128
6122 1 6128 6129
6123 1 6129 6130
6124 1 6130 6131
6125 1 6131 6132
6126 1 6132 6133
6127 1 6133 6134
6128 1 6134 6135
6129 1 6135 6136
6130 1 6136 6137
6131 1 6137 6138
6132 1 6138 6139
6133 1 6139 6140
6134 1 6140 6141
6135 1 6141 6142
6136 1 6142 6143
6137 1 6143 6144
6138 1 6144 6145
6139 1 6145 6146
6140 1 6146 6147
6141 1 6147 6148
6142 1 6148 6149
6143 1 6149 6150
6144 1 6150 6151
6145 1 6151 6152
6146 1 6152 6153
6147 1 6153 6154
6148 1 6154 6155
6149 1 6155 6156
6150 1 6156 6157
6151 1 6157 6158
6152 1 6158 6159
6153 1 6159 6160
6154 1 6160 6161
6155 1 6161 6162
6156 1 6162 6163
6157 1 6163 6164
6158 1 6164 6165
6159 1 6165 6166
6160 1 6166 6167
6161 1 6167 6168
6162 1 6168 6169
6163 1 6169 6170
6164 1 6170 6171
6165 1 6171 6172
6166 1 6172 6173
6167 1 6173 6174
6168 1 6174 6175
6169 1 6175 6176
6170 1 6176 6177
6171 1 6177 6178
6172 1 6178 6179
6173 1 6179 6180
6174 1 6180 6181
6175 1 6181 6182
6176 1 6182 6183
6177 1 6183 6184
6178 1 6184 6185
6179 1 6185 6186
6180 1 6186 6187
6181 1 6187 6188
6182 1 6188 6189
6183 1 6189 6190
6184 1 6190 6191
6185 1 6191 6192
6186 1 6192 6193
6187 1 6193 6194
6188 1 6194 6195
6189 1 6195 6196
6190 1 6196 6197
6191 1 6197 6198
6192 1 6198 6199
6193 1 6199 6200
6194 1 6200 6201
6195 1 6201 6202
6196 1 6202 6203
6197 1 6203 6204
6198 1 6204 6205
6199 1 6205 6206
6200 1 6206 6207
6201 1 6207 6208
6202 1 6208 6209
6203 1 6209 6210
6204 1 6210 6211
6205 1 6211 6212
6206 1 6212 6213
6207 1 6213 6214
6208 1 6214 6215
6209 1 6215 6216
6210 1 6216 6217
6211 1 6217 6218
6212 1 6218 6219
6213 1 6219 6220
6214 1 6220 6221
6215 1 6221 6222
6216 1 6222 6223
6217 1 6223 6224
6218 1 6224 6225
6219 1 6225 6226
6220 1 6226 6227
6221 1 6227 6228
6222 1 6228 6229
6223 1 6229 6230
6224 1 6230 6231
6225 1 6231 6232
6226 1 6232 6233
6227 1 6233 6234
6228 1 6234 6235
6229 1 6235 6236
6230 1 6236 6237
6231 1 6237 6238
6232 1 6238 6239
6233 1 6239 6240
6234 1 6240 6241
6235 1 6241 6242
6236 1 6242 6243
6237 1 6243 6244
6238 1 6244 6245
6239 1 6245 6246
6240 1 6246 6247
6241 1 6247 6248
6242 1 6248 6249
6243 1 6249 6250
6244 1 6250 6251
6245 1 6251 6252
6246 1 6252 6253
6247 1 6253 6254
6248 1 6254 6255
6249 1 6255 6256
6250 1 6256 6257
6251 1 6257 6258
6252 1 6258 6259
6253 1 6259 6260
6254 1 6260 6261
6255 1 6261 6262
6256 1 6262 6263
6257 1 6263 6264
6258 1 6264 6265
6259 1 6265 6266
6260 1 6266 6267
6261 1 6267 6268
6262 1 6268 6269
6263 1 6269 6270
6264 1 6270 6271
6265 1 6271 6272
6266 1 6272 6273
6267 1 6273 6274
6268 1 6274 6275
6269 1 6275 6276
6270 1 6276 6277
6271 1 6277 6278
6272 1 6278 6279
6273 1 6279 6280
6274 1 6280 6281
6275 1 6281 6282
6276 1 6282 6283
6277 1 6283 6284
6278 1 6284 6285
6279 1 6285 6286
6280 1 6286 6287
6281 1 6287 6288
6282 1 6288 6289
6283 1 6289 6290
6284 1 6290 6291
6285 1 6291 6292
6286 1 6292 6293
6287 1 6293 6294
6288 1 6294 6295
6289 1 6295 6296
6290 1 6296 6297
6291 1 6297 6298
6292 1 6298 6299
6293 1 6299 6300
6294 1 6300 6301
6295 1 6301 6302
6296 1 6302 6303
6297 1 6303 6304
6298 1 6304 6305
6299 1 6305 6306
6300 1 6306 6307
6301 1 6307 6308
6302 1 6308 6309
6303 1 6309 6310
6304 1 6310 6311
6305 1 6311 6312
6306 1 6312 6313
6307 1 6313 6314
6308 1 6314 6315
6309 1 6315 6316
6310 1 6316 6317
6311 1 6317 6318
6312 1 6318 6319
6313 1 6319 6320
6314 1 6320 6321
6315 1 6321 6322
6316 1 6322 6323
6317 1 6323 6324
6318 1 6324 6325
6319 1 6325 6326
6320 1 6326 6327
6321 1 6327 6328
6322 1 6328 6329
6323 1 6329 6330
6324 1 6330 6331
6325 1 6331 6332
6326 1 6332 6333
6327 1 6333 6334
6328 1 6334 6335
6329 1 6335 6336
6330 1 6336 6337
6331 1 6337 6338
6332 1 6338 6339
6333 1 6339 6340
6334 1 6340 6341
6335 1 6341 6342
6336 1 6342 6343
6337 1 6343 6344
6338 1 6344 6345
6339 1 6345 6346
6340 1 6346 6347
6341 1 6347 6348
6342 1 6348 6349
6343 1 6349 6350
6344 1 6350 6351
6345 1 6351 6352
6346 1 6352 6353
6347 1 6353 6354
6348 1 6354 6355
6349 1 6355 6356
6350 1 6356 6357
6351 1 6357 6358
6352 1 6358 6359
6353 1 6359 6360
6354 1 6360 6361
6355 1 6361 6362
6356 1 6362 6363
6357 1 6363 6364
6358 1 6364 6365
6359 1 6365 6366
6360 1 6366 6367
6361 1 6367 6368
6362 1 6368 6369
6363 1 6369 6370
6364 1 6370 6371
6365 1 6371 6372
6366 1 6372 6373
6367 1 6373 6374
6368 1 6374 6375
6369 1 6375 6376
6370 1 6376 6377
6371 1 6377 6378
6372 1 6378 6379
6373 1 6379 6380
6374 1 6380 6381
6375 1 6381 6382
6376 1 6382 6383
6377 1 6383 6384
6378 1 6384 6385
6379 1 6385 6386
6380 1 6386 6387
6381 1 6387 6388
6382 1 6388 6389
6383 1 6389 6390
6384 1 6390 6391
6385 1 6391 6392
6386 1 6392 6393
6387 1 6393 6394
6388 1 6394 6395
6389 1 6395 6396
6390 1 6396 6397
6391 1 6397 6398
6392 1 6398 6399
6393 1 6399 6400
6394 1 6400 6401
6395 1 6401 6402
6396 1 6402 6403
6397 1 6403 6404
6398 1 6404 6405
6399 1 6405 6406
6400 1 6406 6407
6401 1 6407 6408
6402 1 6408 6409
6403 1 6409 6410
6404 1 6410 6411
6405 1 6411 6412
6406 1 6412 6413
6407 1 6413 6414
6408 1 6414 6415
6409 1 6415 6416
6410 1 6416 6417
6411 1 6417 6418
6412 1 6418 6419
6413 1 6419 6420
6414 1 6420 6421
6415 1 6421 6422
6416 1 6422 6423
6417 1 6423 6424
6418 1 6424 6425
6419 1 6425 6426
6420 1 6426 6427
6421 1 6427 6428
6422 1 6428 6429
6423 1 6429 6430
6424 1 6430 6431
6425 1 6431 6432
6426 1 6432 6433
6427 1 6433 6434
6428 1 6434 6435
6429 1 6435 6436
6430 1 6436 6437
6431 1 6437 6438
6432 1 6438 6439
6433 1 6439 6440
6434 1 6440 6441
6435 1 6441 6442
6436 1 6442 6443
6437 1 6443 6444
6438 1 6444 6445
6439 1 6445 6446
6440 1 6446 6447
6441 1 6447 6448
6442 1 6448 6449
6443 1 6449 6450
6444 1 6450 6451
6445 1 6451 6452
6446 1 6452 6453
6447 1 6453 6454
6448 1 6454 6455
6449 1 6455 6456
6450 1 6456 6457
6451 1 6457 6458
6452 1 6458 6459
6453 1 6459 6460
6454 1 6460 6461
6455 1 6461 6462
6456 1 6462 6463
6457 1 6463 6464
6458 1 6464 6465
6459 1 6465 6466
6460 1 6466 6467
6461 1 6467 6468
6462 1 6468 6469
6463 1 6469 6470
6464 1 6470 6471
6465 1 6471 6472
6466 1 6472 6473
6467 1 6473 6474
6468 1 6474 6475
6469 1 6475 6476
6470 1 6476 6477
6471 1 6477 6478
6472 1 6478 6479
6473 1 6479 6480
6474 1 6480 6481
6475 1 6481 6482
6476 1 6482 6483
6477 1 6483 6484
6478 1 6484 6485
6479 1 6485 6486
6480 1 6486 6487
6481 1 6487 6488
6482 1 6488 6489
6483 1 6489 6490
6484 1 6490 6491
6485 1 6491 6492
6486 1 6492 6493
6487 1 6493 6494
6488 1 6494 6495
6489 1 6495 6496
6490 1 6496 6497
6491 1 6497 6498
6492 1 6498 6499
6493 1 6499 6500
6494 1 6500 6501
6495 1 6501 6502
6496 1 6502 6503
6497 1 6503 6504
6498 1 6504 6505
6499 1 6505 6506
6500 1 6506 6507
6501 1 6507 6508
6502 1 6508 6509
6503 1 6509 6510
6504 1 6510 6511
6505 1 6511 6512
6506 1 6512 6513
6507 1 6513 6514
6508 1 6514 6515
6509 1 6515 6516
6510 1 6516 6517
6511 1 6517 6518
6512 1 6518 6519
6513 1 6519 6520
6514 1 6520 6521
6515 1 6521 6522
6516 1 6522 6523
6517 1 6523 6524
6518 1 6524 6525
6519 1 6525 6526
6520 1 6526 6527
6521 1 6527 6528
6522 1 6528 6529
6523 1 6529 6530
6524 1 6530 6531
6525 1 6531 6532
6526 1 6532 6533
6527 1 6533 6534
6528 1 6534 6535
6529 1 6535 6536
6530 1 6536 6537
6531 1 6537 6538
6532 1 6538 6539
6533 1 6539 6540
6534 1 6540 6541
6535 1 6541 6542
6536 1 6542 6543
6537 1 6543 6544
6538 1 6544 6545
6539 1 6545 6546
6540 1 6546 6547
6541 1 6547 6548
6542 1 6548 6549
6543 1 6549 6550
6544 1 6550 6551
6545 1 6551 6552
6546 1 6552 6553
6547 1 6553 6554
6548 1 6554 6555
6549 1 6555 6556
6550 1 6556 6557
6551 1 6557 6558
6552 1 6558 6559
6553 1 6559 6560
6554 1 6560 6561
6555 1 6561 6562
6556 1 6562 6563
6557 1 6563 6564
6558 1 6564 6565
6559 1 6565 6566
6560 1 6566 6567
6561 1 6567 6568
6562 1 6568 6569
6563 1 6569 6570
6564 1 6570 6571
6565 1 6571 6572
6566 1 6572 6573
6567 1 6573 6574
6568 1 6574 6575
6569 1 6575 6576
6570 1 6576 6577
6571 1 6577 6578
6572 1 6578 6579
6573 1 6579 6580
6574 1 6580 6581
6575 1 6581 6582
6576 1 6582 6583
6577 1 6583 6584
6578 1 6584 6585
6579 1 6585 6586
6580 1 6586 6587
6581 1 6587 6588
6582 1 6588 6589
6583 1 6589 6590
6584 1 6590 6591
6585 1 6591 6592
6586 1 6592 6593
6587 1 6593 6594
6588 1 6594 6595
6589 1 6595 6596
6590 1 6596 6597
6591 1 6597 6598
6592 1 6598 6599
6593 1 6599 6600
6594 1 6600 6601
6595 1 6601 6602
6596 1 6602 6603
6597 1 6603 6604
6598 1 6604 6605
6599 1 6605 6606
6600 1 6606 6607
6601 1 6607 6608
6602 1 6608 6609
6603 1 6609 6610
6604 1 6610 6611
6605 1 6611 6612
6606 1 6612 6613
6607 1 6613 6614
6608 1 6614 6615
6609 1 6615 6616
6610 1 6616 6617
6611 1 6617 6618
6612 1 6618 6619
6613 1 6619 6620
6614 1 6620 6621
6615 1 6621 6622
6616 1 6622 6623
6617 1 6623 6624
6618 1 6624 6625
6619 1 6625 6626
6620 1 6626 6627
6621 1 6627 6628
6622 1 6628 6629
6623 1 6629 6630
6624 1 6630 6631
6625 1 6631 6632
6626 1 6632 6633
6627 1 6633 6634
6628 1 6634 6635
6629 1 6635 6636
6630 1 6636 6637
6631 1 6637 6638
6632 1 6638 6639
6633 1 6639 6640
6634 1 6640 6641
6635 1 6641 6642
6636 1 6642 6643
6637 1 6643 6644
6638 1 6644 6645
6639 1 6645 6646
6640 1 6646 6647
6641 1 6647 6648
6642 1 6648 6649
6643 1 6649 6650
6644 1 6650 6651
6645 1 6651 6652
6646 1 6652 6653
6647 1 6653 6654
6648 1 6654 6655
6649 1 6655 6656
6650 1 6656 6657
6651 1 6657 6658
6652 1 6658 6659
6653 1 6659 6660
6654 1 6660 6661
6655 1 6661 6662
6656 1 6662 6663
6657 1 6663 6664
6658 1 6664 6665
6659 1 6665 6666
6660 1 6666 6667
6661 1 6667 6668
6662 1 6668 6669
6663 1 6669 6670
6664 1 6670 6671
6665 1 6671 6672
6666 1 6672 6673
6667 1 6673 6674
6668 1 6674 6675
6669 1 6675 6676
6670 1 6676 6677
6671 1 6677 6678
6672 1 6678 6679
6673 1 6679 6680
6674 1 6680 6681
6675 1 6681 6682
6676 1 6682 6683
6677 1 6683 6684
6678 1 6684 6685
6679 1 6685 6686
6680 1 6686 6687
6681 1 6687 6688
6682 1 6688 6689
6683 1 6689 6690
6684 1 6690 6691
6685 1 6691 6692
6686 1 6692 6693
6687 1 6693 6694
6688 1 6694 6695
6689 1 6695 6696
6690 1 6696 6697
6691 1 6697 6698
6692 1 6698 6699
6693 1 6699 6700
6694 1 6700 6701
6695 1 6701 6702
6696 1 6702 6703
6697 1 6703 6704
6698 1 6704 6705
6699 1 6705 6706
6700 1 6706 6707
6701 1 6707 6708
6702 1 6708 6709
6703 1 6709 6710
6704 1 6710 6711
6705 1 6711 6712
6706 1 6712 6713
6707 1 6713 6714
6708 1 6714 6715
6709 1 6715 6716
6710 1 6716 6717
6711 1 6717 6718
6712 1 6718 6719
6713 1 6719 6720
6714 1 6720 6721
6715 1 6721 6722
6716 1 6722 6723
6717 1 6723 6724
6718 1 6724 6725
6719 1 6725 6726
6720 1 6726 6727
6721 1 6727 6728
6722 1 6728 6729
6723 1 6729 6730
6724 1 6730 6731
6725 1 6731 6732
6726 1 6732 6733
6727 1 6733 6734
6728 1 6734 6735
6729 1 6735 6736
6730 1 6736 6737
6731 1 6737 6738
6732 1 6738 6739
6733 1 6739 6740
6734 1 6740 6741
6735 1 6741 6742
6736 1 6742 6743
6737 1 6743 6744
6738 1 6744 6745
6739 1 6745 6746
6740 1 6746 6747
6741 1 6747 6748
6742 1 6748 6749
6743 1 6749 6750
6744 1 6750 6751
6745 1 6751 6752
6746 1 6752 6753
6747 1 6753 6754
6748 1 6754 6755
6749 1 6755 6756
6750 1 6756 6757
6751 1 6757 6758
6752 1 6758 6759
6753 1 6759 6760
6754 1 6760 6761
6755 1 6761 6762
6756 1 6762 6763
6757 1 6763 6764
6758 1 6764 6765
6759 1 6765 6766
6760 1 6766 6767
6761 1 6767 6768
6762 1 6768 6769
6763 1 6769 6770
6764 1 6770 6771
6765 1 6771 6772
6766 1 6772 6773
6767 1 6773 6774
6768 1 6774 6775
6769 1 6775 6776
6770 1 6776 6777
6771 1 6777 6778
6772 1 6778 6779
6773 1 6779 6780
6774 1 6780 6781
6775 1 6781 6782
6776 1 6782 6783
6777 1 6783 6784
6778 1 6784 6785
6779 1 6785 6786
6780 1 6786 6787
6781 1 6787 6788
6782 1 6788 6789
6783 1 6789 6790
6784 1 6790 6791
6785 1 6791 6792
6786 1 6792 6793
6787 1 6793 6794
6788 1 6794 6795
6789 1 6795 6796
6790 1 6796 6797
6791 1 6797 6798
6792 1 6798 6799
6793 1 6799 6800
6794 1 6800 6801
6795 1 6801 6802
6796 1 6802 6803
6797 1 6803 6804
6798 1 6804 6805
6799 1 6805 6806
6800 1 6806 6807
6801 1 6807 6808
6802 1 6808 6809
6803 1 6809 6810
6804 1 6810 6811
6805 1 6811 6812
6806 1 6812 6813
6807 1 6813 6814
6808 1 6814 6815
6809 1 6815 6816
6810 1 6816 6817
6811 1 6817 6818
6812 1 6818 6819
6813 1 6819 6820
6814 1 6820 6821
6815 1 6821 6822
6816 1 6822 6823
6817 1 6823 6824
6818 1 6824 6825
6819 1 6825 6826
6820 1 6826 6827
6821 1 6827 6828
6822 1 6828 6829
6823 1 6829 6830
6824 1 6830 6831
6825 1 6831 6832
6826 1 6832 6833
6827 1 6833 6834
6828 1 6834 6835
6829 1 6835 6836
6830 1 6836 6837
6831 1 6837 6838
6832 1 6838 6839
6833 1 6839 6840
6834 1 6840 6841
6835 1 6841 6842
6836 1 6842 6843
6837 1 6843 6844
6838 1 6844 6845
6839 1 6845 6846
6840 1 6846 6847
6841 1 6847 6848
6842 1 6848 6849
6843 1 6849 6850
6844 1 6850 6851
6845 1 6851 6852
6846 1 6852 6853
6847 1 6853 6854
6848 1 6854 6855
6849 1 6855 6856
6850 1 6856 6857
6851 1 6857 6858
6852 1 6858 6859
6853 1 6859 6860
6854 1 6860 6861
6855 1 6861 6862
6856 1 6862 6863
6857 1 6863 6864
6858 1 6864 6865
6859 1 6865 6866
6860 1 6866 6867
6861 1 6867 6868
6862 1 6868 6869
6863 1 6869 6870
6864 1 6870 6871
6865 1 6871 6872
6866 1 6872 6873
6867 1 6873 6874
6868 1 6874 6875
6869 1 6875 6876
6870 1 6876 6877
6871 1 6877 6878
6872 1 6878 6879
6873 1 6879 6880
6874 1 6880 6881
6875 1 6881 6882
6876 1 6882 6883
6877 1 6883 6884
6878 1 6884 6885
6879 1 6885 6886
6880 1 6886 6887
6881 1 6887 6888
6882 1 6888 6889
6883 1 6889 6890
6884 1 6890 6891
6885 1 6891 6892
6886 1 6892 6893
6887 1 6893 6894
6888 1 6894 6895
6889 1 6895 6896
6890 1 6896 6897
6891 1 6897 6898
6892 1 6898 6899
6893 1 6899 6900
6894 1 6900 6901
6895 1 6901 6902
6896 1 6902 6903
6897 1 6903 6904
6898 1 6904 6905
6899 1 6905 6906
6900 1 6906 6907
6901 1 6907 6908
6902 1 6908 6909
6903 1 6909 6910
6904 1 6910 6911
6905 1 6911 6912
6906 1 6912 6913
6907 1 6913 6914
6908 1 6914 6915
6909 1 6915 6916
6910 1 6916 6917
6911 1 6917 6918
6912 1 6918 6919
6913 1 6919 6920
6914 1 6920 6921
6915 1 6921 6922
6916 1 6922 6923
6917 1 6923 6924
6918 1 6924 6925
6919 1 6925 6926
6920 1 6926 6927
6921 1 6927 6928
6922 1 6928 6929
6923 1 6929 6930
6924 1 6930 6931
6925 1 6931 6932
6926 1 6932 6933
6927 1 6933 6934
6928 1 6934 6935
6929 1 6935 6936
6930 1 6936 6937
6931 1 6937 6938
6932 1 6938 6939
6933 1 6939 6940
6934 1 6940 6941
6935 1 6941 6942
6936 1 6942 6943
6937 1 6943 6944
6938 1 6944 6945
6939 1 6945 6946
6940 1 6946 6947
6941 1 6947 6948
6942 1 6948 6949
6943 1 6949 6950
6944 1 6950 6951
6945 1 6951 6952
6946 1 6952 6953
6947 1 6953 6954
6948 1 6954 6955
6949 1 6955 6956
6950 1 6956 6957
6951 1 6957 6958
6952 1 6958 6959
6953 1 6959 6960
6954 1 6960 6961
6955 1 6961 6962
6956 1 6962 6963
6957 1 6963 6964
6958 1 6964 6965
6959 1 6965 6966
6960 1 6966 6967
6961 1 6967 6968
6962 1 6968 6969
6963 1 6969 6970
6964 1 6970 6971
6965 1 6971 6972
6966 1 6972 6973
6967 1 6973 6974
6968 1 6974 6975
6969 1 6975 6976
6970 1 6976 6977
6971 1 6977 6978
6972 1 6978 6979
6973 1 6979 6980
6974 1 6980 6981
6975 1 6981 6982
6976 1 6982 6983
6977 1 6983 6984
6978 1 6984 6985
6979 1 6985 6986
6980 1 6986 6987
6981 1 6987 6988
6982 1 6988 6989
6983 1 6989 6990
6984 1 6990 6991
6985 1 6991 6992
6986 1 6992 6993
6987 1 6993 6994
6988 1 6994 6995
6989 1 6995 6996
6990 1 6996 6997
6991 1 6997 6998
6992 1 6998 6999
6993 1 6999 7000
6994 1 7001 7002
6995 1 7002 7003
6996 1 7003 7004
6997 1 7004 7005
6998 1 7005 7006
6999 1 7006 7007
7000 1 7007 7008
7001 1 7008 7009
7002 1 7009 7010
7003 1 7010 7011
7004 1 7011 7012
7005 1 7012 7013
7006 1 7013 7014
7007 1 7014 7015
7008 1 7015 7016
7009 1 7016 7017
7010 1 7017 7018
7011 1 7018 7019
7012 1 7019 7020
7013 1 7020 7021
7014 1 7021 7022
7015 1 7022 7023
7016 1 7023 7024
7017 1 7024 7025
7018 1 7025 7026
7019 1 7026 7027
7020 1 7027 7028
7021 1 7028 7029
7022 1 7029 7030
7023 1 7030 7031
7024 1 7031 7032
7025 1 7032 7033
7026 1 7033 7034
7027 1 7034 7035
7028 1 7035 7036
7029 1 7036 7037
7030 1 7037 7038
7031 1 7038 7039
7032 1 7039 7040
7033 1 7040 7041
7034 1 7041 7042
7035 1 7042 7043
7036 1 7043 7044
7037 1 7044 7045
7038 1 7045 7046
7039 1 7046 7047
7040 1 7047 7048
7041 1 7048 7049
7042 1 7049 7050
7043 1 7050 7051
7044 1 7051 7052
7045 1 7052 7053
7046 1 7053 7054
7047 1 7054 7055
7048 1 7055 7056
7049 1 7056 7057
7050 1 7057 7058
7051 1 7058 7059
7052 1 7059 7060
7053 1 7060 7061
7054 1 7061 7062
7055 1 7062 7063
7056 1 7063 7064
7057 1 7064 7065
7058 1 7065 7066
7059 1 7066 7067
7060 1 7067 7068
7061 1 7068 7069
7062 1 7069 7070
7063 1 7070 7071
7064 1 7071 7072
7065 1 7072 7073
7066 1 7073 7074
7067 1 7074 7075
7068 1 7075 7076
7069 1 7076 7077
7070 1 7077 7078
7071 1 7078 7079
7072 1 7079 7080
7073 1 7080 7081
7074 1 7081 7082
7075 1 7082 7083
7076 1 7083 7084
7077 1 7084 7085
7078 1 7085 7086
7079 1 7086 7087
7080 1 7087 7088
7081 1 7088 7089
7082 1 7089 7090
7083 1 7090 7091
7084 1 7091 7092
7085 1 7092 7093
7086 1 7093 7094
7087 1 7094 7095
7088 1 7095 7096
7089 1 7096 7097
7090 1 7097 7098
7091 1 7098 7099
7092 1 7099 7100
7093 1 7100 7101
7094 1 7101 7102
7095 1 7102 7103
7096 1 7103 7104
7097 1 7104 7105
7098 1 7105 7106
7099 1 7106 7107
7100 1 7107 7108
7101 1 7108 7109
7102 1 7109 7110
7103 1 7110 7111
7104 1 7111 7112
7105 1 7112 7113
7106 1 7113 7114
7107 1 7114 7115
7108 1 7115 7116
7109 1 7116 7117
7110 1 7117 7118
7111 1 7118 7119
7112 1 7119 7120
7113 1 7120 7121
7114 1 7121 7122
7115 1 7122 7123
7116 1 7123 7124
7117 1 7124 7125
7118 1 7125 7126
7119 1 7126 7127
7120 1 7127 7128
7121 1 7128 7129
7122 1 7129 7130
7123 1 7130 7131
7124 1 7131 7132
7125 1 7132 7133
7126 1 7133 7134
7127 1 7134 7135
7128 1 7135 7136
7129 1 7136 7137
7130 1 7137 7138
7131 1 7138 7139
7132 1 7139 7140
7133 1 7140 7141
7134 1 7141 7142
7135 1 7142 7143
7136 1 7143 7144
7137 1 7144 7145
7138 1 7145 7146
7139 1 7146 7147
7140 1 7147 7148
7141 1 7148 7149
7142 1 7149 7150
7143 1 7150 7151
7144 1 7151 7152
7145 1 7152 7153
7146 1 7153 7154
7147 1 7154 7155
7148 1 7155 7156
7149 1 7156 7157
7150 1 7157 7158
7151 1 7158 7159
7152 1 7159 7160
7153 1 7160 7161
7154 1 7161 7162
7155 1 7162 7163
7156 1 7163 7164
7157 1 7164 7165
7158 1 7165 7166
7159 1 7166 7167
7160 1 7167 7168
7161 1 7168 7169
7162 1 7169 7170
7163 1 7170 7171
7164 1 7171 7172
7165 1 7172 7173
7166 1 7173 7174
7167 1 7174 7175
7168 1 7175 7176
7169 1 7176 7177
7170 1 7177 7178
7171 1 7178 7179
7172 1 7179 7180
7173 1 7180 7181
7174 1 7181 7182
7175 1 7182 7183
7176 1 7183 7184
7177 1 7184 7185
7178 1 7185 7186
7179 1 7186 7187
7180 1 7187 7188
7181 1 7188 7189
7182 1 7189 7190
7183 1 7190 7191
7184 1 7191 7192
7185 1 7192 7193
7186 1 7193 7194
7187 1 7194 7195
7188 1 7195 7196
7189 1 7196 7197
7190 1 7197 7198
7191 1 7198 7199
7192 1 7199 7200
7193 1 7200 7201
7194 1 7201 7202
7195 1 7202 7203
7196 1 7203 7204
7197 1 7204 7205
7198 1 7205 7206
7199 1 7206 7207
7200 1 7207 7208
7201 1 7208 7209
7202 1 7209 7210
7203 1 7210 7211
7204 1 7211 7212
7205 1 7212 7213
7206 1 7213 7214
7207 1 7214 7215
7208 1 7215 7216
7209 1 7216 7217
7210 1 7217 7218
7211 1 7218 7219
7212 1 7219 7220
7213 1 7220 7221
7214 1 7221 7222
7215 1 7222 7223
7216 1 7223 7224
7217 1 7224 7225
7218 1 7225 7226
7219 1 7226 7227
7220 1 7227 7228
7221 1 7228 7229
7222 1 7229 7230
7223 1 7230 7231
7224 1 7231 7232
7225 1 7232 7233
7226 1 7233 7234
7227 1 7234 7235
7228 1 7235 7236
7229 1 7236 7237
7230 1 7237 7238
7231 1 7238 7239
7232 1 7239 7240
7233 1 7240 7241
7234 1 7241 7242
7235 1 7242 7243
7236 1 7243 7244
7237 1 7244 7245
7238 1 7245 7246
7239 1 7246 7247
7240 1 7247 7248
7241 1 7248 7249
7242 1 7249 7250
7243 1 7250 7251
7244 1 7251 7252
7245 1 7252 7253
7246 1 7253 7254
7247 1 7254 7255
7248 1 7255 7256
7249 1 7256 7257
7250 1 7257 7258
7251 1 7258 7259
7252 1 7259 7260
7253 1 7260 7261
7254 1 7261 7262
7255 1 7262 7263
7256 1 7263 7264
7257 1 7264 7265
7258 1 7265 7266
7259 1 7266 7267
7260 1 7267 7268
7261 1 7268 7269
7262 1 7269 7270
7263 1 7270 7271
7264 1 7271 7272
7265 1 7272 7273
7266 1 7273 7274
7267 1 7274 7275
7268 1 7275 7276
7269 1 7276 7277
7270 1 7277 7278
7271 1 7278 7279
7272 1 7279 7280
7273 1 7280 7281
7274 1 7281 7282
7275 1 7282 7283
7276 1 7283 7284
7277 1 7284 7285
7278 1 7285 7286
7279 1 7286 7287
7280 1 7287 7288
7281 1 7288 7289
7282 1 7289 7290
7283 1 7290 7291
7284 1 7291 7292
7285 1 7292 7293
7286 1 7293 7294
7287 1 7294 7295
7288 1 7295 7296
7289 1 7296 7297
7290 1 7297 7298
7291 1 7298 7299
7292 1 7299 7300
7293 1 7300 7301
7294 1 7301 7302
7295 1 7302 7303
7296 1 7303 7304
7297 1 7304 7305
7298 1 7305 7306
7299 1 7306 7307
7300 1 7307 7308
7301 1 7308 7309
7302 1 7309 7310
7303 1 7310 7311
7304 1 7311 7312
7305 1 7312 7313
7306 1 7313 7314
7307 1 7314 7315
7308 1 7315 7316
7309 1 7316 7317
7310 1 7317 7318
7311 1 7318 7319
7312 1 7319 7320
7313 1 7320 7321
7314 1 7321 7322
7315 1 7322 7323
7316 1 7323 7324
7317 1 7324 7325
7318 1 7325 7326
7319 1 7326 7327
7320 1 7327 7328
7321 1 7328 7329
7322 1 7329 7330
7323 1 7330 7331
7324 1 7331 7332
7325 1 7332 7333
7326 1 7333 7334
7327 1 7334 7335
7328 1 7335 7336
7329 1 7336 7337
7330 1 7337 7338
7331 1 7338 7339
7332 1 7339 7340
7333 1 7340 7341
7334 1 7341 7342
7335 1 7342 7343
7336 1 7343 7344
7337 1 7344 7345
7338 1 7345 7346
7339 1 7346 7347
7340 1 7347 7348
7341 1 7348 7349
7342 1 7349 7350
7343 1 7350 7351
7344 1 7351 7352
7345 1 7352 7353
7346 1 7353 7354
7347 1 7354 7355
7348 1 7355 7356
7349 1 7356 7357
7350 1 7357 7358
7351 1 7358 7359
7352 1 7359 7360
7353 1 7360 7361
7354 1 7361 7362
7355 1 7362 7363
7356 1 7363 7364
7357 1 7364 7365
7358 1 7365 7366
7359 1 7366 7367
7360 1 7367 7368
7361 1 7368 7369
7362 1 7369 7370
7363 1 7370 7371
7364 1 7371 7372
7365 1 7372 7373
7366 1 7373 7374
7367 1 7374 7375
7368 1 7375 7376
7369 1 7376 7377
7370 1 7377 7378
7371 1 7378 7379
7372 1 7379 7380
7373 1 7380 7381
7374 1 7381 7382
7375 1 7382 7383
7376 1 7383 7384
7377 1 7384 7385
7378 1 7385 7386
7379 1 7386 7387
7380 1 7387 7388
7381 1 7388 7389
7382 1 7389 7390
7383 1 7390 7391
7384 1 7391 7392
7385 1 7392 7393
7386 1 7393 7394
7387 1 7394 7395
7388 1 7395 7396
7389 1 7396 7397
7390 1 7397 7398
7391 1 7398 7399
7392 1 7399 7400
7393 1 7400 7401
7394 1 7401 7402
7395 1 7402 7403
7396 1 7403 7404
7397 1 7404 7405
7398 1 7405 7406
7399 1 7406 7407
7400 1 7407 7408
7401 1 7408 7409
7402 1 7409 7410
7403 1 7410 7411
7404 1 7411 7412
7405 1 7412 7413
7406 1 7413 7414
7407 1 7414 7415
7408 1 7415 7416
7409 1 7416 7417
7410 1 7417 7418
7411 1 7418 7419
7412 1 7419 7420
7413 1 7420 7421
7414 1 7421 7422
7415 1 7422 7423
7416 1 7423 7424
7417 1 7424 7425
7418 1 7425 7426
7419 1 7426 7427
7420 1 7427 7428
7421 1 7428 7429
7422 1 7429 7430
7423 1 7430 7431
7424 1 7431 7432
7425 1 7432 7433
7426 1 7433 7434
7427 1 7434 7435
7428 1 7435 7436
7429 1 7436 7437
7430 1 7437 7438
7431 1 7438 7439
7432 1 7439 7440
7433 1 7440 7441
7434 1 7441 7442
7435 1 7442 7443
7436 1 7443 7444
7437 1 7444 7445
7438 1 7445 7446
7439 1 7446 7447
7440 1 7447 7448
7441 1 7448 7449
7442 1 7449 7450
7443 1 7450 7451
7444 1 7451 7452
7445 1 7452 7453
7446 1 7453 7454
7447 1 7454 7455
7448 1 7455 7456
7449 1 7456 7457
7450 1 7457 7458
7451 1 7458 7459
7452 1 7459 7460
7453 1 7460 7461
7454 1 7461 7462
7455 1 7462 7463
7456 1 7463 7464
7457 1 7464 7465
7458 1 7465 7466
7459 1 7466 7467
7460 1 7467 7468
7461 1 7468 7469
7462 1 7469 7470
7463 1 7470 7471
7464 1 7471 7472
7465 1 7472 7473
7466 1 7473 7474
7467 1 7474 7475
7468 1 7475 7476
7469 1 7476 7477
7470 1 7477 7478
7471 1 7478 7479
7472 1 7479 7480
7473 1 7480 7481
7474 1 7481 7482
7475 1 7482 7483
7476 1 7483 7484
7477 1 7484 7485
7478 1 7485 7486
7479 1 7486 7487
7480 1 7487 7488
7481 1 7488 7489
7482 1 7489 7490
7483 1 7490 7491
7484 1 7491 7492
7485 1 7492 7493
7486 1 7493 7494
7487 1 7494 7495
7488 1 7495 7496
7489 1 7496 7497
7490 1 7497 7498
7491 1 7498 7499
7492 1 7499 7500
7493 1 7500 7501
7494 1 7501 7502
7495 1 7502 7503
7496 1 7503 7504
7497 1 7504 7505
7498 1 7505 7506
7499 1 7506 7507
7500 1 7507 7508
7501 1 7508 7509
7502 1 7509 7510
7503 1 7510 7511
7504 1 7511 7512
7505 1 7512 7513
7506 1 7513 7514
7507 1 7514 7515
7508 1 7515 7516
7509 1 7516 7517
7510 1 7517 7518
7511 1 7518 7519
7512 1 7519 7520
7513 1 7520 7521
7514 1 7521 7522
7515 1 7522 7523
7516 1 7523 7524
7517 1 7524 7525
7518 1 7525 7526
7519 1 7526 7527
7520 1 7527 7528
7521 1 7528 7529
7522 1 7529 7530
7523 1 7530 7531
7524 1 7531 7532
7525 1 7532 7533
7526 1 7533 7534
7527 1 7534 7535
7528 1 7535 7536
7529 1 7536 7537
7530 1 7537 7538
7531 1 7538 7539
7532 1 7539 7540
7533 1 7540 7541
7534 1 7541 7542
7535 1 7542 7543
7536 1 7543 7544
7537 1 7544 7545
7538 1 7545 7546
7539 1 7546 7547
7540 1 7547 7548
7541 1 7548 7549
7542 1 7549 7550
7543 1 7550 7551
7544 1 7551 7552
7545 1 7552 7553
7546 1 7553 7554
7547 1 7554 7555
7548 1 7555 7556
7549 1 7556 7557
7550 1 7557 7558
7551 1 7558 7559
7552 1 7559 7560
7553 1 7560 7561
7554 1 7561 7562
7555 1 7562 7563
7556 1 7563 7564
7557 1 7564 7565
7558 1 7565 7566
7559 1 7566 7567
7560 1 7567 7568
7561 1 7568 7569
7562 1 7569 7570
7563 1 7570 7571
7564 1 7571 7572
7565 1 7572 7573
7566 1 7573 7574
7567 1 7574 7575
7568 1 7575 7576
7569 1 7576 7577
7570 1 7577 7578
7571 1 7578 7579
7572 1 7579 7580
7573 1 7580 7581
7574 1 7581 7582
7575 1 7582 7583
7576 1 7583 7584
7577 1 7584 7585
7578 1 7585 7586
7579 1 7586 7587
7580 1 7587 7588
7581 1 7588 7589
7582 1 7589 7590
7583 1 7590 7591
7584 1 7591 7592
7585 1 7592 7593
7586 1 7593 7594
7587 1 7594 7595
7588 1 7595 7596
7589 1 7596 7597
7590 1 7597 7598
7591 1 7598 7599
7592 1 7599 7600
7593 1 7600 7601
7594 1 7601 7602
7595 1 7602 7603
7596 1 7603 7604
7597 1 7604 7605
7598 1 7605 7606
7599 1 7606 7607
7600 1 7607 7608
7601 1 7608 7609
7602 1 7609 7610
7603 1 7610 7611
7604 1 7611 7612
7605 1 7612 7613
7606 1 7613 7614
7607 1 7614 7615
7608 1 7615 7616
7609 1 7616 7617
7610 1 7617 7618
7611 1 7618 7619
7612 1 7619 7620
7613 1 7620 7621
7614 1 7621 7622
7615 1 7622 7623
7616 1 7623 7624
7617 1 7624 7625
7618 1 7625 7626
7619 1 7626 7627
7620 1 7627 7628
7621 1 7628 7629
7622 1 7629 7630
7623 1 7630 7631
7624 1 7631 7632
7625 1 7632 7633
7626 1 7633 7634
7627 1 7634 7635
7628 1 7635 7636
7629 1 7636 7637
7630 1 7637 7638
7631 1 7638 7639
7632 1 7639 7640
7633 1 7640 7641
7634 1 7641 7642
7635 1 7642 7643
7636 1 7643 7644
7637 1 7644 7645
7638 1 7645 7646
7639 1 7646 7647
7640 1 7647 7648
7641 1 7648 7649
7642 1 7649 7650
7643 1 7650 7651
7644 1 7651 7652
7645 1 7652 7653
7646 1 7653 7654
7647 1 7654 7655
7648 1 7655 7656
7649 1 7656 7657
7650 1 7657 7658
7651 1 7658 7659
7652 1 7659 7660
7653 1 7660 7661
7654 1 7661 7662
7655 1 7662 7663
7656 1 7663 7664
7657 1 7664 7665
7658 1 7665 7666
7659 1 7666 7667
7660 1 7667 7668
7661 1 7668 7669
7662 1 7669 7670
7663 1 7670 7671
7664 1 7671 7672
7665 1 7672 7673
7666 1 7673 7674
7667 1 7674 7675
7668 1 7675 7676
7669 1 7676 7677
7670 1 7677 7678
7671 1 7678 7679
7672 1 7679 7680
7673 1 7680 7681
7674 1 7681 7682
7675 1 7682 7683
7676 1 7683 7684
7677 1 7684 7685
7678 1 7685 7686
7679 1 7686 7687
7680 1 7687 7688
7681 1 7688 7689
7682 1 7689 7690
7683 1 7690 7691
7684 1 7691 7692
7685 1 7692 7693
7686 1 7693 7694
7687 1 7694 7695
7688 1 7695 7696
7689 1 7696 7697
7690 1 7697 7698
7691 1 7698 7699
7692 1 7699 7700
7693 1 7700 7701
7694 1 7701 7702
7695 1 7702 7703
7696 1 7703 7704
7697 1 7704 7705
7698 1 7705 7706
7699 1 7706 7707
7700 1 7707 7708
7701 1 7708 7709
7702 1 7709 7710
7703 1 7710 7711
7704 1 7711 7712
7705 1 7712 7713
7706 1 7713 7714
7707 1 7714 7715
7708 1 7715 7716
7709 1 7716 7717
7710 1 7717 7718
7711 1 7718 7719
7712 1 7719 7720
7713 1 7720 7721
7714 1 7721 7722
7715 1 7722 7723
7716 1 7723 7724
7717 1 7724 7725
7718 1 7725 7726
7719 1 7726 7727
7720 1 7727 7728
7721 1 7728 7729
7722 1 7729 7730
7723 1 7730 7731
7724 1 7731 7732
7725 1 7732 7733
7726 1 7733 7734
7727 1 7734 7735
7728 1 7735 7736
7729 1 7736 7737
7730 1 7737 7738
7731 1 7738 7739
7732 1 7739 7740
7733 1 7740 7741
7734 1 7741 7742
7735 1 7742 7743
7736 1 7743 7744
7737 1 7744 7745
7738 1 7745 7746
7739 1 7746 7747
7740 1 7747 7748
7741 1 7748 7749
7742 1 7749 7750
7743 1 7750 7751
7744 1 7751 7752
7745 1 7752 7753
7746 1 7753 7754
7747 1 7754 7755
7748 1 7755 7756
7749 1 7756 7757
7750 1 7757 7758
7751 1 7758 7759
7752 1 7759 7760
7753 1 7760 7761
7754 1 7761 7762
7755 1 7762 7763
7756 1 7763 7764
7757 1 7764 7765
7758 1 7765 7766
7759 1 7766 7767
7760 1 7767 7768
7761 1 7768 7769
7762 1 7769 7770
7763 1 7770 7771
7764 1 7771 7772
7765 1 7772 7773
7766 1 7773 7774
7767 1 7774 7775
7768 1 7775 7776
7769 1 7776 7777
7770 1 7777 7778
7771 1 7778 7779
7772 1 7779 7780
7773 1 7780 7781
7774 1 7781 7782
7775 1 7782 7783
7776 1 7783 7784
7777 1 7784 7785
7778 1 7785 7786
7779 1 7786 7787
7780 1 7787 7788
7781 1 7788 7789
7782 1 7789 7790
7783 1 7790 7791
7784 1 7791 7792
7785 1 7792 7793
7786 1 7793 7794
7787 1 7794 7795
7788 1 7795 7796
7789 1 7796 7797
7790 1 7797 7798
7791 1 7798 7799
7792 1 7799 7800
7793 1 7800 7801
7794 1 7801 7802
7795 1 7802 7803
7796 1 7803 7804
7797 1 7804 7805
7798 1 7805 7806
7799 1 7806 7807
7800 1 7807 7808
7801 1 7808 7809
7802 1 7809 7810
7803 1 7810 7811
7804 1 7811 7812
7805 1 7812 7813
7806 1 7813 7814
7807 1 7814 7815
7808 1 7815 7816
7809 1 7816 7817
7810 1 7817 7818
7811 1 7818 7819
7812 1 7819 7820
7813 1 7820 7821
7814 1 7821 7822
7815 1 7822 7823
7816 1 7823 7824
7817 1 7824 7825
7818 1 7825 7826
7819 1 7826 7827
7820 1 7827 7828
7821 1 7828 7829
7822 1 7829 7830
7823 1 7830 7831
7824 1 7831 7832
7825 1 7832 7833
7826 1 7833 7834
7827 1 7834 7835
7828 1 7835 7836
7829 1 7836 7837
7830 1 7837 7838
7831 1 7838 7839
7832 1 7839 7840
7833 1 7840 7841
7834 1 7841 7842
7835 1 7842 7843
7836 1 7843 7844
7837 1 7844 7845
7838 1 7845 7846
7839 1 7846 7847
7840 1 7847 7848
7841 1 7848 7849
7842 1 7849 7850
7843 1 7850 7851
7844 1 7851 7852
7845 1 7852 7853
7846 1 7853 7854
7847 1 7854 7855
7848 1 7855 7856
7849 1 7856 7857
7850 1 7857 7858
7851 1 7858 7859
7852 1 7859 7860
7853 1 7860 7861
7854 1 7861 7862
7855 1 7862 7863
7856 1 7863 7864
7857 1 7864 7865
7858 1 7865 7866
7859 1 7866 7867
7860 1 7867 7868
7861 1 7868 7869
7862 1 7869 7870
7863 1 7870 7871
7864 1 7871 7872
7865 1 7872 7873
7866 1 7873 7874
7867 1 7874 7875
7868 1 7875 7876
7869 1 7876 7877
7870 1 7877 7878
7871 1 7878 7879
7872 1 7879 7880
7873 1 7880 7881
7874 1 7881 7882
7875 1 7882 7883
7876 1 7883 7884
7877 1 7884 7885
7878 1 7885 7886
7879 1 7886 7887
7880 1 7887 7888
7881 1 7888 7889
7882 1 7889 7890
7883 1 7890 7891
7884 1 7891 7892
7885 1 7892 7893
7886 1 7893 7894
7887 1 7894 7895
7888 1 7895 7896
7889 1 7896 7897
7890 1 7897 7898
7891 1 7898 7899
7892 1 7899 7900
7893 1 7900 7901
7894 1 7901 7902
7895 1 7902 7903
7896 1 7903 7904
7897 1 7904 7905
7898 1 7905 7906
7899 1 7906 7907
7900 1 7907 7908
7901 1 7908 7909
7902 1 7909 7910
7903 1 7910 7911
7904 1 7911 7912
7905 1 7912 7913
7906 1 7913 7914
7907 1 7914 7915
7908 1 7915 7916
7909 1 7916 7917
7910 1 7917 7918
7911 1 7918 7919
7912 1 7919 7920
7913 1 7920 7921
7914 1 7921 7922
7915 1 7922 7923
7916 1 7923 7924
7917 1 7924 7925
7918 1 7925 7926
7919 1 7926 7927
7920 1 7927 7928
7921 1 7928 7929
7922 1 7929 7930
7923 1 7930 7931
7924 1 7931 7932
7925 1 7932 7933
7926 1 7933 7934
7927 1 7934 7935
7928 1 7935 7936
7929 1 7936 7937
7930 1 7937 7938
7931 1 7938 7939
7932 1 7939 7940
7933 1 7940 7941
7934 1 7941 7942
7935 1 7942 7943
7936 1 7943 7944
7937 1 7944 7945
7938 1 7945 7946
7939 1 7946 7947
7940 1 7947 7948
7941 1 7948 7949
7942 1 7949 7950
7943 1 7950 7951
7944 1 7951 7952
7945 1 7952 7953
7946 1 7953 7954
7947 1 7954 7955
7948 1 7955 7956
7949 1 7956 7957
7950 1 7957 7958
7951 1 7958 7959
7952 1 7959 7960
7953 1 7960 7961
7954 1 7961 7962
7955 1 7962 7963
7956 1 7963 7964
7957 1 7964 7965
7958 1 7965 7966
7959 1 7966 7967
7960 1 7967 7968
7961 1 7968 7969
7962 1 7969 7970
7963 1 7970 7971
7964 1 7971 7972
7965 1 7972 7973
7966 1 7973 7974
7967 1 7974 7975
7968 1 7975 7976
7969 1 7976 7977
7970 1 7977 7978
7971 1 7978 7979
7972 1 7979 7980
7973 1 7980 7981
7974 1 7981 7982
7975 1 7982 7983
7976 1 7983 7984
7977 1 7984 7985
7978 1 7985 7986
7979 1 7986 7987
7980 1 7987 7988
7981 1 7988 7989
7982 1 7989 7990
7983 1 7990 7991
7984 1 7991 7992
7985 1 7992 7993
7986 1 7993 7994
7987 1 7994 7995
7988 1 7995 7996
7989 1 7996 7997
7990 1 7997 7998
7991 1 7998 7999
7992 1 7999 8000
7993 1 8001 8002
7994 1 8002 8003
7995 1 8003 8004
7996 1 8004 8005
7997 1 8005 8006
7998 1 8006 8007
7999 1 8007 8008
8000 1 8008 8009
8001 1 8009 8010
8002 1 8010 8011
8003 1 8011 8012
8004 1 8012 8013
8005 1 8013 8014
8006 1 8014 8015
8007 1 8015 8016
8008 1 8016 8017
8009 1 8017 8018
8010 1 8018 8019
8011 1 8019 8020
8012 1 8020 8021
8013 1 8021 8022
8014 1 8022 8023
8015 1 8023 8024
8016 1 8024 8025
8017 1 8025 8026
8018 1 8026 8027
8019 1 8027 8028
8020 1 8028 8029
8021 1 8029 8030
8022 1 8030 8031
8023 1 8031 8032
8024 1 8032 8033
8025 1 8033 8034
8026 1 8034 8035
8027 1 8035 8036
8028 1 8036 8037
8029 1 8037 8038
8030 1 8038 8039
8031 1 8039 8040
8032 1 8040 8041
8033 1 8041 8042
8034 1 8042 8043
8035 1 8043 8044
8036 1 8044 8045
8037 1 8045 8046
8038 1 8046 8047
8039 1 8047 8048
8040 1 8048 8049
8041 1 8049 8050
8042 1 8050 8051
8043 1 8051 8052
8044 1 8052 8053
8045 1 8053 8054
8046 1 8054 8055
8047 1 8055 8056
8048 1 8056 8057
8049 1 8057 8058
8050 1 8058 8059
8051 1 8059 8060
8052 1 8060 8061
8053 1 8061 8062
8054 1 8062 8063
8055 1 8063 8064
8056 1 8064 8065
8057 1 8065 8066
8058 1 8066 8067
8059 1 8067 8068
8060 1 8068 8069
8061 1 8069 8070
8062 1 8070 8071
8063 1 8071 8072
8064 1 8072 8073
8065 1 8073 8074
8066 1 8074 8075
8067 1 8075 8076
8068 1 8076 8077
8069 1 8077 8078
8070 1 8078 8079
8071 1 8079 8080
8072 1 8080 8081
8073 1 8081 8082
8074 1 8082 8083
8075 1 8083 8084
8076 1 8084 8085
8077 1 8085 8086
8078 1 8086 8087
8079 1 8087 8088
8080 1 8088 8089
8081 1 8089 8090
8082 1 8090 8091
8083 1 8091 8092
8084 1 8092 8093
8085 1 8093 8094
8086 1 8094 8095
8087 1 8095 8096
8088 1 8096 8097
8089 1 8097 8098
8090 1 8098 8099
8091 1 8099 8100
8092 1 8100 8101
8093 1 8101 8102
8094 1 8102 8103
8095 1 8103 8104
8096 1 8104 8105
8097 1 8105 8106
8098 1 8106 8107
8099 1 8107 8108
8100 1 8108 8109
8101 1 8109 8110
8102 1 8110 8111
8103 1 8111 8112
8104 1 8112 8113
8105 1 8113 8114
8106 1 8114 8115
8107 1 8115 8116
8108 1 8116 8117
8109 1 8117 8118
8110 1 8118 8119
8111 1 8119 8120
8112 1 8120 8121
8113 1 8121 8122
8114 1 8122 8123
8115 1 8123 8124
8116 1 8124 8125
8117 1 8125 8126
8118 1 8126 8127
8119 1 8127 8128
8120 1 8128 8129
8121 1 8129 8130
8122 1 8130 8131
8123 1 8131 8132
8124 1 8132 8133
8125 1 8133 8134
8126 1 8134 8135
8127 1 8135 8136
8128 1 8136 8137
8129 1 8137 8138
8130 1 8138 8139
8131 1 8139 8140
8132 1 8140 8141
8133 1 8141 8142
8134 1 8142 8143
8135 1 8143 8144
8136 1 8144 8145
8137 1 8145 8146
8138 1 8146 8147
8139 1 8147 8148
8140 1 8148 8149
8141 1 8149 8150
8142 1 8150 8151
8143 1 8151 8152
8144 1 8152 8153
8145 1 8153 8154
8146 1 8154 8155
8147 1 8155 8156
8148 1 8156 8157
8149 1 8157 8158
8150 1 8158 8159
8151 1 8159 8160
8152 1 8160 8161
8153 1 8161 8162
8154 1 8162 8163
8155 1 8163 8164
8156 1 8164 8165
8157 1 8165 8166
8158 1 8166 8167
8159 1 8167 8168
8160 1 8168 8169
8161 1 8169 8170
8162 1 8170 8171
8163 1 8171 8172
8164 1 8172 8173
8165 1 8173 8174
8166 1 8174 8175
8167 1 8175 8176
8168 1 8176 8177
8169 1 8177 8178
8170 1 8178 8179
8171 1 8179 8180
8172 1 8180 8181
8173 1 8181 8182
8174 1 8182 8183
8175 1 8183 8184
8176 1 8184 8185
8177 1 8185 8186
8178 1 8186 8187
8179 1 8187 8188
8180 1 8188 8189
8181 1 8189 8190
8182 1 8190 8191
8183 1 8191 8192
8184 1 8192 8193
8185 1 8193 8194
8186 1 8194 8195
8187 1 8195 8196
8188 1 8196 8197
8189 1 8197 8198
8190 1 8198 8199
8191 1 8199 8200
8192 1 8200 8201
8193 1 8201 8202
8194 1 8202 8203
8195 1 8203 8204
8196 1 8204 8205
8197 1 8205 8206
8198 1 8206 8207
8199 1 8207 8208
8200 1 8208 8209
8201 1 8209 8210
8202 1 8210 8211
8203 1 8211 8212
8204 1 8212 8213
8205 1 8213 8214
8206 1 8214 8215
8207 1 8215 8216
8208 1 8216 8217
8209 1 8217 8218
8210 1 8218 8219
8211 1 8219 8220
8212 1 8220 8221
8213 1 8221 8222
8214 1 8222 8223
8215 1 8223 8224
8216 1 8224 8225
8217 1 8225 8226
8218 1 8226 8227
8219 1 8227 8228
8220 1 8228 8229
8221 1 8229 8230
8222 1 8230 8231
8223 1 8231 8232
8224 1 8232 8233
8225 1 8233 8234
8226 1 8234 8235
8227 1 8235 8236
8228 1 8236 8237
8229 1 8237 8238
8230 1 8238 8239
8231 1 8239 8240
8232 1 8240 8241
8233 1 8241 8242
8234 1 8242 8243
8235 1 8243 8244
8236 1 8244 8245
8237 1 8245 8246
8238 1 8246 8247
8239 1 8247 8248
8240 1 8248 8249
8241 1 8249 8250
8242 1 8250 8251
8243 1 8251 8252
8244 1 8252 8253
8245 1 8253 8254
8246 1 8254 8255
8247 1 8255 8256
8248 1 8256 8257
8249 1 8257 8258
8250 1 8258 8259
8251 1 8259 8260
8252 1 8260 8261
8253 1 8261 8262
8254 1 8262 8263
8255 1 8263 8264
8256 1 8264 8265
8257 1 8265 8266
8258 1 8266 8267
8259 1 8267 8268
8260 1 8268 8269
8261 1 8269 8270
8262 1 8270 8271
8263 1 8271 8272
8264 1 8272 8273
8265 1 8273 8274
8266 1 8274 8275
8267 1 8275 8276
8268 1 8276 8277
8269 1 8277 8278
8270 1 8278 8279
8271 1 8279 8280
8272 1 8280 8281
8273 1 8281 8282
8274 1 8282 8283
8275 1 8283 8284
8276 1 8284 8285
8277 1 8285 8286
8278 1 8286 8287
8279 1 8287 8288
8280 1 8288 8289
8281 1 8289 8290
8282 1 8290 8291
8283 1 8291 8292
8284 1 8292 8293
8285 1 8293 8294
8286 1 8294 8295
8287 1 8295 8296
8288 1 8296 8297
8289 1 8297 8298
8290 1 8298 8299
8291 1 8299 8300
8292 1 8300 8301
8293 1 8301 8302
8294 1 8302 8303
8295 1 8303 8304
8296 1 8304 8305
8297 1 8305 8306
8298 1 8306 8307
8299 1 8307 8308
8300 1 8308 8309
8301 1 8309 8310
8302 1 8310 8311
8303 1 8311 8312
8304 1 8312 8313
8305 1 8313 8314
8306 1 8314 8315
8307 1 8315 8316
8308 1 8316 8317
8309 1 8317 8318
8310 1 8318 8319
8311 1 8319 8320
8312 1 8320 8321
8313 1 8321 8322
8314 1 8322 8323
8315 1 8323 8324
8316 1 8324 8325
8317 1 8325 8326
8318 1 8326 8327
8319 1 8327 8328
8320 1 8328 8329
8321 1 8329 8330
8322 1 8330 8331
8323 1 8331 8332
8324 1 8332 8333
8325 1 8333 8334
8326 1 8334 8335
8327 1 8335 8336
8328 1 8336 8337
8329 1 8337 8338
8330 1 8338 8339
8331 1 8339 8340
8332 1 8340 8341
8333 1 8341 8342
8334 1 8342 8343
8335 1 8343 8344
8336 1 8344 8345
8337 1 8345 8346
8338 1 8346 8347
8339 1 8347 8348
8340 1 8348 8349
8341 1 8349 8350
8342 1 8350 8351
8343 1 8351 8352
8344 1 8352 8353
8345 1 8353 8354
8346 1 8354 8355
8347 1 8355 8356
8348 1 8356 8357
8349 1 8357 8358
8350 1 8358 8359
8351 1 8359 8360
8352 1 8360 8361
8353 1 8361 8362
8354 1 8362 8363
8355 1 8363 8364
8356 1 8364 8365
8357 1 8365 8366
8358 1 8366 8367
8359 1 8367 8368
8360 1 8368 8369
8361 1 8369 8370
8362 1 8370 8371
8363 1 8371 8372
8364 1 8372 8373
8365 1 8373 8374
8366 1 8374 8375
8367 1 8375 8376
8368 1 8376 8377
8369 1 8377 8378
8370 1 8378 8379
8371 1 8379 8380
8372 1 8380 8381
8373 1 8381 8382
8374 1 8382 8383
8375 1 8383 8384
8376 1 8384 8385
8377 1 8385 8386
8378 1 8386 8387
8379 1 8387 8388
8380 1 8388 8389
8381 1 8389 8390
8382 1 8390 8391
8383 1 8391 8392
8384 1 8392 8393
8385 1 8393 8394
8386 1 8394 8395
8387 1 8395 8396
8388 1 8396 8397
8389 1 8397 8398
8390 1 8398 8399
8391 1 8399 8400
8392 1 8400 8401
8393 1 8401 8402
8394 1 8402 8403
8395 1 8403 8404
8396 1 8404 8405
8397 1 8405 8406
8398 1 8406 8407
8399 1 8407 8408
8400 1 8408 8409
8401 1 8409 8410
8402 1 8410 8411
8403 1 8411 8412
8404 1 8412 8413
8405 1 8413 8414
8406 1 8414 8415
8407 1 8415 8416
8408 1 8416 8417
8409 1 8417 8418
8410 1 8418 8419
8411 1 8419 8420
8412 1 8420 8421
8413 1 8421 8422
8414 1 8422 8423
8415 1 8423 8424
8416 1 8424 8425
8417 1 8425 8426
8418 1 8426 8427
8419 1 8427 8428
8420 1 8428 8429
8421 1 8429 8430
8422 1 8430 8431
8423 1 8431 8432
8424 1 8432 8433
8425 1 8433 8434
8426 1 8434 8435
8427 1 8435 8436
8428 1 8436 8437
8429 1 8437 8438
8430 1 8438 8439
8431 1 8439 8440
8432 1 8440 8441
8433 1 8441 8442
8434 1 8442 8443
8435 1 8443 8444
8436 1 8444 8445
8437 1 8445 8446
8438 1 8446 8447
8439 1 8447 8448
8440 1 8448 8449
8441 1 8449 8450
8442 1 8450 8451
8443 1 8451 8452
8444 1 8452 8453
8445 1 8453 8454
8446 1 8454 8455
8447 1 8455 8456
8448 1 8456 8457
8449 1 8457 8458
8450 1 8458 8459
8451 1 8459 8460
8452 1 8460 8461
8453 1 8461 8462
8454 1 8462 8463
8455 1 8463 8464
8456 1 8464 8465
8457 1 8465 8466
8458 1 8466 8467
8459 1 8467 8468
8460 1 8468 8469
8461 1 8469 8470
8462 1 8470 8471
8463 1 8471 8472
8464 1 8472 8473
8465 1 8473 8474
8466 1 8474 8475
8467 1 8475 8476
8468 1 8476 8477
8469 1 8477 8478
8470 1 8478 8479
8471 1 8479 8480
8472 1 8480 8481
8473 1 8481 8482
8474 1 8482 8483
8475 1 8483 8484
8476 1 8484 8485
8477 1 8485 8486
8478 1 8486 8487
8479 1 8487 8488
8480 1 8488 8489
8481 1 8489 8490
8482 1 8490 8491
8483 1 8491 8492
8484 1 8492 8493
8485 1 8493 8494
8486 1 8494 8495
8487 1 8495 8496
8488 1 8496 8497
8489 1 8497 8498
8490 1 8498 8499
8491 1 8499 8500
8492 1 8500 8501
8493 1 8501 8502
8494 1 8502 8503
8495 1 8503 8504
8496 1 8504 8505
8497 1 8505 8506
8498 1 8506 8507
8499 1 8507 8508
8500 1 8508 8509
8501 1 8509 8510
8502 1 8510 8511
8503 1 8511 8512
8504 1 8512 8513
8505 1 8513 8514
8506 1 8514 8515
8507 1 8515 8516
8508 1 8516 8517
8509 1 8517 8518
8510 1 8518 8519
8511 1 8519 8520
8512 1 8520 8521
8513 1 8521 8522
8514 1 8522 8523
8515 1 8523 8524
8516 1 8524 8525
8517 1 8525 8526
8518 1 8526 8527
8519 1 8527 8528
8520 1 8528 8529
8521 1 8529 8530
8522 1 8530 8531
8523 1 8531 8532
8524 1 8532 8533
8525 1 8533 8534
8526 1 8534 8535
8527 1 8535 8536
8528 1 8536 8537
8529 1 8537 8538
8530 1 8538 8539
8531 1 8539 8540
8532 1 8540 8541
8533 1 8541 8542
8534 1 8542 8543
8535 1 8543 8544
8536 1 8544 8545
8537 1 8545 8546
8538 1 8546 8547
8539 1 8547 8548
8540 1 8548 8549
8541 1 8549 8550
8542 1 8550 8551
8543 1 8551 8552
8544 1 8552 8553
8545 1 8553 8554
8546 1 8554 8555
8547 1 8555 8556
8548 1 8556 8557
8549 1 8557 8558
8550 1 8558 8559
8551 1 8559 8560
8552 1 8560 8561
8553 1 8561 8562
8554 1 8562 8563
8555 1 8563 8564
8556 1 8564 8565
8557 1 8565 8566
8558 1 8566 8567
8559 1 8567 8568
8560 1 8568 8569
8561 1 8569 8570
8562 1 8570 8571
8563 1 8571 8572
8564 1 8572 8573
8565 1 8573 8574
8566 1 8574 8575
8567 1 8575 8576
8568 1 8576 8577
8569 1 8577 8578
8570 1 8578 8579
8571 1 8579 8580
8572 1 8580 8581
8573 1 8581 8582
8574 1 8582 8583
8575 1 8583 8584
8576 1 8584 8585
8577 1 8585 8586
8578 1 8586 8587
8579 1 8587 8588
8580 1 8588 8589
8581 1 8589 8590
8582 1 8590 8591
8583 1 8591 8592
8584 1 8592 8593
8585 1 8593 8594
8586 1 8594 8595
8587 1 8595 8596
8588 1 8596 8597
8589 1 8597 8598
8590 1 8598 8599
8591 1 8599 8600
8592 1 8600 8601
8593 1 8601 8602
8594 1 8602 8603
8595 1 8603 8604
8596 1 8604 8605
8597 1 8605 8606
8598 1 8606 8607
8599 1 8607 8608
8600 1 8608 8609
8601 1 8609 8610
8602 1 8610 8611
8603 1 8611 8612
8604 1 8612 8613
8605 1 8613 8614
8606 1 8614 8615
8607 1 8615 8616
8608 1 8616 8617
8609 1 8617 8618
8610 1 8618 8619
8611 1 8619 8620
8612 1 8620 8621
8613 1 8621 8622
8614 1 8622 8623
8615 1 8623 8624
8616 1 8624 8625
8617 1 8625 8626
8618 1 8626 8627
8619 1 8627 8628
8620 1 8628 8629
8621 1 8629 8630
8622 1 8630 8631
8623 1 8631 8632
8624 1 8632 8633
8625 1 8633 8634
8626 1 8634 8635
8627 1 8635 8636
8628 1 8636 8637
8629 1 8637 8638
8630 1 8638 8639
8631 1 8639 8640
8632 1 8640 8641
8633 1 8641 8642
8634 1 8642 8643
8635 1 8643 8644
8636 1 8644 8645
8637 1 8645 8646
8638 1 8646 8647
8639 1 8647 8648
8640 1 8648 8649
8641 1 8649 8650
8642 1 8650 8651
8643 1 8651 8652
8644 1 8652 8653
8645 1 8653 8654
8646 1 8654 8655
8647 1 8655 8656
8648 1 8656 8657
8649 1 8657 8658
8650 1 8658 8659
8651 1 8659 8660
8652 1 8660 8661
8653 1 8661 8662
8654 1 8662 8663
8655 1 8663 8664
8656 1 8664 8665
8657 1 8665 8666
8658 1 8666 8667
8659 1 8667 8668
8660 1 8668 8669
8661 1 8669 8670
8662 1 8670 8671
8663 1 8671 8672
8664 1 8672 8673
8665 1 8673 8674
8666 1 8674 8675
8667 1 8675 8676
8668 1 8676 8677
8669 1 8677 8678
8670 1 8678 8679
8671 1 8679 8680
8672 1 8680 8681
8673 1 8681 8682
8674 1 8682 8683
8675 1 8683 8684
8676 1 8684 8685
8677 1 8685 8686
8678 1 8686 8687
8679 1 8687 8688
8680 1 8688 8689
8681 1 8689 8690
8682 1 8690 8691
8683 1 8691 8692
8684 1 8692 8693
8685 1 8693 8694
8686 1 8694 8695
8687 1 8695 8696
8688 1 8696 8697
8689 1 8697 8698
8690 1 8698 8699
8691 1 8699 8700
8692 1 8700 8701
8693 1 8701 8702
8694 1 8702 8703
8695 1 8703 8704
8696 1 8704 8705
8697 1 8705 8706
8698 1 8706 8707
8699 1 8707 8708
8700 1 8708 8709
8701 1 8709 8710
8702 1 8710 8711
8703 1 8711 8712
8704 1 8712 8713
8705 1 8713 8714
8706 1 8714 8715
8707 1 8715 8716
8708 1 8716 8717
8709 1 8717 8718
8710 1 8718 8719
8711 1 8719 8720
8712 1 8720 8721
8713 1 8721 8722
8714 1 8722 8723
8715 1 8723 8724
8716 1 8724 8725
8717 1 8725 8726
8718 1 8726 8727
8719 1 8727 8728
8720 1 8728 8729
8721 1 8729 8730
8722 1 8730 8731
8723 1 8731 8732
8724 1 8732 8733
8725 1 8733 8734
8726 1 8734 8735
8727 1 8735 8736
8728 1 8736 8737
8729 1 8737 8738
8730 1 8738 8739
8731 1 8739 8740
8732 1 8740 8741
8733 1 8741 8742
8734 1 8742 8743
8735 1 8743 8744
8736 1 8744 8745
8737 1 8745 8746
8738 1 8746 8747
8739 1 8747 8748
8740 1 8748 8749
8741 1 8749 8750
8742 1 8750 8751
8743 1 8751 8752
8744 1 8752 8753
8745 1 8753 8754
8746 1 8754 8755
8747 1 8755 8756
8748 1 8756 8757
8749 1 8757 8758
8750 1 8758 8759
8751 1 8759 8760
8752 1 8760 8761
8753 1 8761 8762
8754 1 8762 8763
8755 1 8763 8764
8756 1 8764 8765
8757 1 8765 8766
8758 1 8766 8767
8759 1 8767 8768
8760 1 8768 8769
8761 1 8769 8770
8762 1 8770 8771
8763 1 8771 8772
8764 1 8772 8773
8765 1 8773 8774
8766 1 8774 8775
8767 1 8775 8776
8768 1 8776 8777
8769 1 8777 8778
8770 1 8778 8779
8771 1 8779 8780
8772 1 8780 8781
8773 1 8781 8782
8774 1 8782 8783
8775 1 8783 8784
8776 1 8784 8785
8777 1 8785 8786
8778 1 8786 8787
8779 1 8787 8788
8780 1 8788 8789
8781 1 8789 8790
8782 1 8790 8791
8783 1 8791 8792
8784 1 8792 8793
8785 1 8793 8794
8786 1 8794 8795
8787 1 8795 8796
8788 1 8796 8797
8789 1 8797 8798
8790 1 8798 8799
8791 1 8799 8800
8792 1 8800 8801
8793 1 8801 8802
8794 1 8802 8803
8795 1 8803 8804
8796 1 8804 8805
8797 1 8805 8806
8798 1 8806 8807
8799 1 8807 8808
8800 1 8808 8809
8801 1 8809 8810
8802 1 8810 8811
8803 1 8811 8812
8804 1 8812 8813
8805 1 8813 8814
8806 1 8814 8815
8807 1 8815 8816
8808 1 8816 8817
8809 1 8817 8818
8810 1 8818 8819
8811 1 8819 8820
8812 1 8820 8821
8813 1 8821 8822
8814 1 8822 8823
8815 1 8823 8824
8816 1 8824 8825
8817 1 8825 8826
8818 1 8826 8827
8819 1 8827 8828
8820 1 8828 8829
8821 1 8829 8830
8822 1 8830 8831
8823 1 8831 8832
8824 1 8832 8833
8825 1 8833 8834
8826 1 8834 8835
8827 1 8835 8836
8828 1 8836 8837
8829 1 8837 8838
8830 1 8838 8839
8831 1 8839 8840
8832 1 8840 8841
8833 1 8841 8842
8834 1 8842 8843
8835 1 8843 8844
8836 1 8844 8845
8837 1 8845 8846
8838 1 8846 8847
8839 1 8847 8848
8840 1 8848 8849
8841 1 8849 8850
8842 1 8850 8851
8843 1 8851 8852
8844 1 8852 8853
8845 1 8853 8854
8846 1 8854 8855
8847 1 8855 8856
8848 1 8856 8857
8849 1 8857 8858
8850 1 8858 8859
8851 1 8859 8860
8852 1 8860 8861
8853 1 8861 8862
8854 1 8862 8863
8855 1 8863 8864
8856 1 8864 8865
8857 1 8865 8866
8858 1 8866 8867
8859 1 8867 8868
8860 1 8868 8869
8861 1 8869 8870
8862 1 8870 8871
8863 1 8871 8872
8864 1 8872 8873
8865 1 8873 8874
8866 1 8874 8875
8867 1 8875 8876
8868 1 8876 8877
8869 1 8877 8878
8870 1 8878 8879
8871 1 8879 8880
8872 1 8880 8881
8873 1 8881 8882
8874 1 8882 8883
8875 1 8883 8884
8876 1 8884 8885
8877 1 8885 8886
8878 1 8886 8887
8879 1 8887 8888
8880 1 8888 8889
8881 1 8889 8890
8882 1 8890 8891
8883 1 8891 8892
8884 1 8892 8893
8885 1 8893 8894
8886 1 8894 8895
8887 1 8895 8896
8888 1 8896 8897
8889 1 8897 8898
8890 1 8898 8899
8891 1 8899 8900
8892 1 8900 8901
8893 1 8901 8902
8894 1 8902 8903
8895 1 8903 8904
8896 1 8904 8905
8897 1 8905 8906
8898 1 8906 8907
8899 1 8907 8908
8900 1 8908 8909
8901 1 8909 8910
8902 1 8910 8911
8903 1 8911 8912
8904 1 8912 8913
8905 1 8913 8914
8906 1 8914 8915
8907 1 8915 8916
8908 1 8916 8917
8909 1 8917 8918
8910 1 8918 8919
8911 1 8919 8920
8912 1 8920 8921
8913 1 8921 8922
8914 1 8922 8923
8915 1 8923 8924
8916 1 8924 8925
8917 1 8925 8926
8918 1 8926 8927
8919 1 8927 8928
8920 1 8928 8929
8921 1 8929 8930
8922 1 8930 8931
8923 1 8931 8932
8924 1 8932 8933
8925 1 8933 8934
8926 1 8934 8935
8927 1 8935 8936
8928 1 8936 8937
8929 1 8937 8938
8930 1 8938 8939
8931 1 8939 8940
8932 1 8940 8941
8933 1 8941 8942
8934 1 8942 8943
8935 1 8943 8944
8936 1 8944 8945
8937 1 8945 8946
8938 1 8946 8947
8939 1 8947 8948
8940 1 8948 8949
8941 1 8949 8950
8942 1 8950 8951
8943 1 8951 8952
8944 1 8952 8953
8945 1 8953 8954
8946 1 8954 8955
8947 1 8955 8956
8948 1 8956 8957
8949 1 8957 8958
8950 1 8958 8959
8951 1 8959 8960
8952 1 8960 8961
8953 1 8961 8962
8954 1 8962 8963
8955 1 8963 8964
8956 1 8964 8965
8957 1 8965 8966
8958 1 8966 8967
8959 1 8967 8968
8960 1 8968 8969
8961 1 8969 8970
8962 1 8970 8971
8963 1 8971 8972
8964 1 8972 8973
8965 1 8973 8974
8966 1 8974 8975
8967 1 8975 8976
8968 1 8976 8977
8969 1 8977 8978
8970 1 8978 8979
8971 1 8979 8980
8972 1 8980 8981
8973 1 8981 8982
8974 1 8982 8983
8975 1 8983 8984
8976 1 8984 8985
8977 1 8985 8986
8978 1 8986 8987
8979 1 8987 8988
8980 1 8988 8989
8981 1 8989 8990
8982 1 8990 8991
8983 1 8991 8992
8984 1 8992 8993
8985 1 8993 8994
8986 1 8994 8995
8987 1 8995 8996
8988 1 8996 8997
8989 1 8997 8998
8990 1 8998 8999
8991 1 8999 9000
8992 1 9001 9002
8993 1 9002 9003
8994 1 9003 9004
8995 1 9004 9005
8996 1 9005 9006
8997 1 9006 9007
8998 1 9007 9008
8999 1 9008 9009
9000 1 9009 9010
9001 1 9010 9011
9002 1 9011 9012
9003 1 9012 9013
9004 1 9013 9014
9005 1 9014 9015
9006 1 9015 9016
9007 1 9016 9017
9008 1 9017 9018
9009 1 9018 9019
9010 1 9019 9020
9011 1 9020 9021
9012 1 9021 9022
9013 1 9022 9023
9014 1 9023 9024
9015 1 9024 9025
9016 1 9025 9026
9017 1 9026 9027
9018 1 9027 9028
9019 1 9028 9029
9020 1 9029 9030
9021 1 9030 9031
9022 1 9031 9032
9023 1 9032 9033
9024 1 9033 9034
9025 1 9034 9035
9026 1 9035 9036
9027 1 9036 9037
9028 1 9037 9038
9029 1 9038 9039
9030 1 9039 9040
9031 1 9040 9041
9032 1 9041 9042
9033 1 9042 9043
9034 1 9043 9044
9035 1 9044 9045
9036 1 9045 9046
9037 1 9046 9047
9038 1 9047 9048
9039 1 9048 9049
9040 1 9049 9050
9041 1 9050 9051
9042 1 9051 9052
9043 1 9052 9053
9044 1 9053 9054
9045 1 9054 9055
9046 1 9055 9056
9047 1 9056 9057
9048 1 9057 9058
9049 1 9058 9059
9050 1 9059 9060
9051 1 9060 9061
9052 1 9061 9062
9053 1 9062 9063
9054 1 9063 9064
9055 1 9064 9065
9056 1 9065 9066
9057 1 9066 9067
9058 1 9067 9068
9059 1 9068 9069
9060 1 9069 9070
9061 1 9070 9071
9062 1 9071 9072
9063 1 9072 9073
9064 1 9073 9074
9065 1 9074 9075
9066 1 9075 9076
9067 1 9076 9077
9068 1 9077 9078
9069 1 9078 9079
9070 1 9079 9080
9071 1 9080 9081
9072 1 9081 9082
9073 1 9082 9083
9074 1 9083 9084
9075 1 9084 9085
9076 1 9085 9086
9077 1 9086 9087
9078 1 9087 9088
9079 1 9088 9089
9080 1 9089 9090
9081 1 9090 9091
9082 1 9091 9092
9083 1 9092 9093
9084 1 9093 9094
9085 1 9094 9095
9086 1 9095 9096
9087 1 9096 9097
9088 1 9097 9098
9089 1 9098 9099
9090 1 9099 9100
9091 1 9100 9101
9092 1 9101 9102
9093 1 9102 9103
9094 1 9103 9104
9095 1 9104 9105
9096 1 9105 9106
9097 1 9106 9107
9098 1 9107 9108
9099 1 9108 9109
9100 1 9109 9110
9101 1 9110 9111
9102 1 9111 9112
9103 1 9112 9113
9104 1 9113 9114
9105 1 9114 9115
9106 1 9115 9116
9107 1 9116 9117
9108 1 9117 9118
9109 1 9118 9119
9110 1 9119 9120
9111 1 9120 9121
9112 1 9121 9122
9113 1 9122 9123
9114 1 9123 9124
9115 1 9124 9125
9116 1 9125 9126
9117 1 9126 9127
9118 1 9127 9128
9119 1 9128 9129
9120 1 9129 9130
9121 1 9130 9131
9122 1 9131 9132
9123 1 9132 9133
9124 1 9133 9134
9125 1 9134 9135
9126 1 9135 9136
9127 1 9136 9137
9128 1 9137 9138
9129 1 9138 9139
9130 1 9139 9140
9131 1 9140 9141
9132 1 9141 9142
9133 1 9142 9143
9134 1 9143 9144
9135 1 9144 9145
9136 1 9145 9146
9137 1 9146 9147
9138 1 9147 9148
9139 1 9148 9149
9140 1 9149 9150
9141 1 9150 9151
9142 1 9151 9152
9143 1 9152 9153
9144 1 9153 9154
9145 1 9154 9155
9146 1 9155 9156
9147 1 9156 9157
9148 1 9157 9158
9149 1 9158 9159
9150 1 9159 9160
9151 1 9160 9161
9152 1 9161 9162
9153 1 9162 9163
9154 1 9163 9164
9155 1 9164 9165
9156 1 9165 9166
9157 1 9166 9167
9158 1 9167 9168
9159 1 9168 9169
9160 1 9169 9170
9161 1 9170 9171
9162 1 9171 9172
9163 1 9172 9173
9164 1 9173 9174
9165 1 9174 9175
9166 1 9175 9176
9167 1 9176 9177
9168 1 9177 9178
9169 1 9178 9179
9170 1 9179 9180
9171 1 9180 9181
9172 1 9181 9182
9173 1 9182 9183
9174 1 9183 9184
9175 1 9184 9185
9176 1 9185 9186
9177 1 9186 9187
9178 1 9187 9188
9179 1 9188 9189
9180 1 9189 9190
9181 1 9190 9191
9182 1 9191 9192
9183 1 9192 9193
9184 1 9193 9194
9185 1 9194 9195
9186 1 9195 9196
9187 1 9196 9197
9188 1 9197 9198
9189 1 9198 9199
9190 1 9199 9200
9191 1 9200 9201
9192 1 9201 9202
9193 1 9202 9203
9194 1 9203 9204
9195 1 9204 9205
9196 1 9205 9206
9197 1 9206 9207
9198 1 9207 9208
9199 1 9208 9209
9200 1 9209 9210
9201 1 9210 9211
9202 1 9211 9212
9203 1 9212 9213
9204 1 9213 9214
9205 1 9214 9215
9206 1 9215 9216
9207 1 9216 9217
9208 1 9217 9218
9209 1 9218 9219
9210 1 9219 9220
9211 1 9220 9221
9212 1 9221 9222
9213 1 9222 9223
9214 1 9223 9224
9215 1 9224 9225
9216 1 9225 9226
9217 1 9226 9227
9218 1 9227 9228
9219 1 9228 9229
9220 1 9229 9230
9221 1 9230 9231
9222 1 9231 9232
9223 1 9232 9233
9224 1 9233 9234
9225 1 9234 9235
9226 1 9235 9236
9227 1 9236 9237
9228 1 9237 9238
9229 1 9238 9239
9230 1 9239 9240
9231 1 9240 9241
9232 1 9241 9242
9233 1 9242 9243
9234 1 9243 9244
9235 1 9244 9245
9236 1 9245 9246
9237 1 9246 9247
9238 1 9247 9248
9239 1 9248 9249
9240 1 9249 9250
9241 1 9250 9251
9242 1 9251 9252
9243 1 9252 9253
9244 1 9253 9254
9245 1 9254 9255
9246 1 9255 9256
9247 1 9256 9257
9248 1 9257 9258
9249 1 9258 9259
9250 1 9259 9260
9251 1 9260 9261
9252 1 9261 9262
9253 1 9262 9263
9254 1 9263 9264
9255 1 9264 9265
9256 1 9265 9266
9257 1 9266 9267
9258 1 9267 9268
9259 1 9268 9269
9260 1 9269 9270
9261 1 9270 9271
9262 1 9271 9272
9263 1 9272 9273
9264 1 9273 9274
9265 1 9274 9275
9266 1 9275 9276
9267 1 9276 9277
9268 1 9277 9278
9269 1 9278 9279
9270 1 9279 9280
9271 1 9280 9281
9272 1 9281 9282
9273 1 9282 9283
9274 1 9283 9284
9275 1 9284 9285
9276 1 9285 9286
9277 1 9286 9287
9278 1 9287 9288
9279 1 9288 9289
9280 1 9289 9290
9281 1 9290 9291
9282 1 9291 9292
9283 1 9292 9293
9284 1 9293 9294
9285 1 9294 9295
9286 1 9295 9296
9287 1 9296 9297
9288 1 9297 9298
9289 1 9298 9299
9290 1 9299 9300
9291 1 9300 9301
9292 1 9301 9302
9293 1 9302 9303
9294 1 9303 9304
9295 1 9304 9305
9296 1 9305 9306
9297 1 9306 9307
9298 1 9307 9308
9299 1 9308 9309
9300 1 9309 9310
9301 1 9310 9311
9302 1 9311 9312
9303 1 9312 9313
9304 1 9313 9314
9305 1 9314 9315
9306 1 9315 9316
9307 1 9316 9317
9308 1 9317 9318
9309 1 9318 9319
9310 1 9319 9320
9311 1 9320 9321
9312 1 9321 9322
9313 1 9322 9323
9314 1 9323 9324
9315 1 9324 9325
9316 1 9325 9326
9317 1 9326 9327
9318 1 9327 9328
9319 1 9328 9329
9320 1 9329 9330
9321 1 9330 9331
9322 1 9331 9332
9323 1 9332 9333
9324 1 9333 9334
9325 1 9334 9335
9326 1 9335 9336
9327 1 9336 9337
9328 1 9337 9338
9329 1 9338 9339
9330 1 9339 9340
9331 1 9340 9341
9332 1 9341 9342
9333 1 9342 9343
9334 1 9343 9344
9335 1 9344 9345
9336 1 9345 9346
9337 1 9346 9347
9338 1 9347 9348
9339 1 9348 9349
9340 1 9349 9350
9341 1 9350 9351
9342 1 9351 9352
9343 1 9352 9353
9344 1 9353 9354
9345 1 9354 9355
9346 1 9355 9356
9347 1 9356 9357
9348 1 9357 9358
9349 1 9358 9359
9350 1 9359 9360
9351 1 9360 9361
9352 1 9361 9362
9353 1 9362 9363
9354 1 9363 9364
9355 1 9364 9365
9356 1 9365 9366
9357 1 9366 9367
9358 1 9367 9368
9359 1 9368 9369
9360 1 9369 9370
9361 1 9370 9371
9362 1 9371 9372
9363 1 9372 9373
9364 1 9373 9374
9365 1 9374 9375
9366 1 9375 9376
9367 1 9376 9377
9368 1 9377 9378
9369 1 9378 9379
9370 1 9379 9380
9371 1 9380 9381
9372 1 9381 9382
9373 1 9382 9383
9374 1 9383 9384
9375 1 9384 9385
9376 1 9385 9386
9377 1 9386 9387
9378 1 9387 9388
9379 1 9388 9389
9380 1 9389 9390
9381 1 9390 9391
9382 1 9391 9392
9383 1 9392 9393
9384 1 9393 9394
9385 1 9394 9395
9386 1 9395 9396
9387 1 9396 9397
9388 1 9397 9398
9389 1 9398 9399
9390 1 9399 9400
9391 1 9400 9401
9392 1 9401 9402
9393 1 9402 9403
9394 1 9403 9404
9395 1 9404 9405
9396 1 9405 9406
9397 1 9406 9407
9398 1 9407 9408
9399 1 9408 9409
9400 1 9409 9410
9401 1 9410 9411
9402 1 9411 9412
9403 1 9412 9413
9404 1 9413 9414
9405 1 9414 9415
9406 1 9415 9416
9407 1 9416 9417
9408 1 9417 9418
9409 1 9418 9419
9410 1 9419 9420
9411 1 9420 9421
9412 1 9421 9422
9413 1 9422 9423
9414 1 9423 9424
9415 1 9424 9425
9416 1 9425 9426
9417 1 9426 9427
9418 1 9427 9428
9419 1 9428 9429
9420 1 9429 9430
9421 1 9430 9431
9422 1 9431 9432
9423 1 9432 9433
9424 1 9433 9434
9425 1 9434 9435
9426 1 9435 9436
9427 1 9436 9437
9428 1 9437 9438
9429 1 9438 9439
9430 1 9439 9440
9431 1 9440 9441
9432 1 9441 9442
9433 1 9442 9443
9434 1 9443 9444
9435 1 9444 9445
9436 1 9445 9446
9437 1 9446 9447
9438 1 9447 9448
9439 1 9448 9449
9440 1 9449 9450
9441 1 9450 9451
9442 1 9451 9452
9443 1 9452 9453
9444 1 9453 9454
9445 1 9454 9455
9446 1 9455 9456
9447 1 9456 9457
9448 1 9457 9458
9449 1 9458 9459
9450 1 9459 9460
9451 1 9460 9461
9452 1 9461 9462
9453 1 9462 9463
9454 1 9463 9464
9455 1 9464 9465
9456 1 9465 9466
9457 1 9466 9467
9458 1 9467 9468
9459 1 9468 9469
9460 1 9469 9470
9461 1 9470 9471
9462 1 9471 9472
9463 1 9472 9473
9464 1 9473 9474
9465 1 9474 9475
9466 1 9475 9476
9467 1 9476 9477
9468 1 9477 9478
9469 1 9478 9479
9470 1 9479 9480
9471 1 9480 9481
9472 1 9481 9482
9473 1 9482 9483
9474 1 9483 9484
9475 1 9484 9485
9476 1 9485 9486
9477 1 9486 9487
9478 1 9487 9488
9479 1 9488 9489
9480 1 9489 9490
9481 1 9490 9491
9482 1 9491 9492
9483 1 9492 9493
9484 1 9493 9494
9485 1 9494 9495
9486 1 9495 9496
9487 1 9496 9497
9488 1 9497 9498
9489 1 9498 9499
9490 1 9499 9500
9491 1 9500 9501
9492 1 9501 9502
9493 1 9502 9503
9494 1 9503 9504
9495 1 9504 9505
9496 1 9505 9506
9497 1 9506 9507
9498 1 9507 9508
9499 1 9508 9509
9500 1 9509 9510
9501 1 9510 9511
9502 1 9511 9512
9503 1 9512 9513
9504 1 9513 9514
9505 1 9514 9515
9506 1 9515 9516
9507 1 9516 9517
9508 1 9517 9518
9509 1 9518 9519
9510 1 9519 9520
9511 1 9520 9521
9512 1 9521 9522
9513 1 9522 9523
9514 1 9523 9524
9515 1 9524 9525
9516 1 9525 9526
9517 1 9526 9527
9518 1 9527 9528
9519 1 9528 9529
9520 1 9529 9530
9521 1 9530 9531
9522 1 9531 9532
9523 1 9532 9533
9524 1 9533 9534
9525 1 9534 9535
9526 1 9535 9536
9527 1 9536 9537
9528 1 9537 9538
9529 1 9538 9539
9530 1 9539 9540
9531 1 9540 9541
9532 1 9541 9542
9533 1 9542 9543
9534 1 9543 9544
9535 1 9544 9545
9536 1 9545 9546
9537 1 9546 9547
9538 1 9547 9548
9539 1 9548 9549
9540 1 9549 9550
9541 1 9550 9551
9542 1 9551 9552
9543 1 9552 9553
9544 1 9553 9554
9545 1 9554 9555
9546 1 9555 9556
9547 1 9556 9557
9548 1 9557 9558
9549 1 9558 9559
9550 1 9559 9560
9551 1 9560 9561
9552 1 9561 9562
9553 1 9562 9563
9554 1 9563 9564
9555 1 9564 9565
9556 1 9565 9566
9557 1 9566 9567
9558 1 9567 9568
9559 1 9568 9569
9560 1 9569 9570
9561 1 9570 9571
9562 1 9571 9572
9563 1 9572 9573
9564 1 9573 9574
9565 1 9574 9575
9566 1 9575 9576
9567 1 9576 9577
9568 1 9577 9578
9569 1 9578 9579
9570 1 9579 9580
9571 1 9580 9581
9572 1 9581 9582
9573 1 9582 9583
9574 1 9583 9584
9575 1 9584 9585
9576 1 9585 9586
9577 1 9586 9587
9578 1 9587 9588
9579 1 9588 9589
9580 1 9589 9590
9581 1 9590 9591
9582 1 9591 9592
9583 1 9592 9593
9584 1 9593 9594
9585 1 9594 9595
9586 1 9595 9596
9587 1 9596 9597
9588 1 9597 9598
9589 1 9598 9599
9590 1 9599 9600
9591 1 9600 9601
9592 1 9601 9602
9593 1 9602 9603
9594 1 9603 9604
9595 1 9604 9605
9596 1 9605 9606
9597 1 9606 9607
9598 1 9607 9608
9599 1 9608 9609
9600 1 9609 9610
9601 1 9610 9611
9602 1 9611 9612
9603 1 9612 9613
9604 1 9613 9614
9605 1 9614 9615
9606 1 9615 9616
9607 1 9616 9617
9608 1 9617 9618
9609 1 9618 9619
9610 1 9619 9620
9611 1 9620 9621
9612 1 9621 9622
9613 1 9622 9623
9614 1 9623 9624
9615 1 9624 9625
9616 1 9625 9626
9617 1 9626 9627
9618 1 9627 9628
9619 1 9628 9629
9620 1 9629 9630
9621 1 9630 9631
9622 1 9631 9632
9623 1 9632 9633
9624 1 9633 9634
9625 1 9634 9635
9626 1 9635 9636
9627 1 9636 9637
9628 1 9637 9638
9629 1 9638 9639
9630 1 9639 9640
9631 1 9640 9641
9632 1 9641 9642
9633 1 9642 9643
9634 1 9643 9644
9635 1 9644 9645
9636 1 9645 9646
9637 1 9646 9647
9638 1 9647 9648
9639 1 9648 9649
9640 1 9649 9650
9641 1 9650 9651
9642 1 9651 9652
9643 1 9652 9653
9644 1 9653 9654
9645 1 9654 9655
9646 1 9655 9656
9647 1 9656 9657
9648 1 9657 9658
9649 1 9658 9659
9650 1 9659 9660
9651 1 9660 9661
9652 1 9661 9662
9653 1 9662 9663
9654 1 9663 9664
9655 1 9664 9665
9656 1 9665 9666
9657 1 9666 9667
9658 1 9667 9668
9659 1 9668 9669
9660 1 9669 9670
9661 1 9670 9671
9662 1 9671 9672
9663 1 9672 9673
9664 1 9673 9674
9665 1 9674 9675
9666 1 9675 9676
9667 1 9676 9677
9668 1 9677 9678
9669 1 9678 9679
9670 1 9679 9680
9671 1 9680 9681
9672 1 9681 9682
9673 1 9682 9683
9674 1 9683 9684
9675 1 9684 9685
9676 1 9685 9686
9677 1 9686 9687
9678 1 9687 9688
9679 1 9688 9689
9680 1 9689 9690
9681 1 9690 9691
9682 1 9691 9692
9683 1 9692 9693
9684 1 9693 9694
9685 1 9694 9695
9686 1 9695 9696
9687 1 9696 9697
9688 1 9697 9698
9689 1 9698 9699
9690 1 9699 9700
9691 1 9700 9701
9692 1 9701 9702
9693 1 9702 9703
9694 1 9703 9704
9695 1 9704 9705
9696 1 9705 9706
9697 1 9706 9707
9698 1 9707 9708
9699 1 9708 9709
9700 1 9709 9710
9701 1 9710 9711
9702 1 9711 9712
9703 1 9712 9713
9704 1 9713 9714
9705 1 9714 9715
9706 1 9715 9716
9707 1 9716 9717
9708 1 9717 9718
9709 1 9718 9719
9710 1 9719 9720
9711 1 9720 9721
9712 1 9721 9722
9713 1 9722 9723
9714 1 9723 9724
9715 1 9724 9725
9716 1 9725 9726
9717 1 9726 9727
9718 1 9727 9728
9719 1 9728 9729
9720 1 9729 9730
9721 1 9730 9731
9722 1 9731 9732
9723 1 9732 9733
9724 1 9733 9734
9725 1 9734 9735
9726 1 9735 9736
9727 1 9736 9737
9728 1 9737 9738
9729 1 9738 9739
9730 1 9739 9740
9731 1 9740 9741
9732 1 9741 9742
9733 1 9742 9743
9734 1 9743 9744
9735 1 9744 9745
9736 1 9745 9746
9737 1 9746 9747
9738 1 9747 9748
9739 1 9748 9749
9740 1 9749 9750
9741 1 9750 9751
9742 1 9751 9752
9743 1 9752 9753
9744 1 9753 9754
9745 1 9754 9755
9746 1 9755 9756
9747 1 9756 9757
9748 1 9757 9758
9749 1 9758 9759
9750 1 9759 9760
9751 1 9760 9761
9752 1 9761 9762
9753 1 9762 9763
9754 1 9763 9764
9755 1 9764 9765
9756 1 9765 9766
9757 1 9766 9767
9758 1 9767 9768
9759 1 9768 9769
9760 1 9769 9770
9761 1 9770 9771
9762 1 9771 9772
9763 1 9772 9773
9764 1 9773 9774
9765 1 9774 9775
9766 1 9775 9776
9767 1 9776 9777
9768 1 9777 9778
9769 1 9778 9779
9770 1 9779 9780
9771 1 9780 9781
9772 1 9781 9782
9773 1 9782 9783
9774 1 9783 9784
9775 1 9784 9785
9776 1 9785 9786
9777 1 9786 9787
9778 1 9787 9788
9779 1 9788 9789
9780 1 9789 9790
9781 1 9790 9791
9782 1 9791 9792
9783 1 9792 9793
9784 1 9793 9794
9785 1 9794 9795
9786 1 9795 9796
9787 1 9796 9797
9788 1 9797 9798
9789 1 9798 9799
9790 1 9799 9800
9791 1 9800 9801
9792 1 9801 9802
9793 1 9802 9803
9794 1 9803 9804
9795 1 9804 9805
9796 1 9805 9806
9797 1 9806 9807
9798 1 9807 9808
9799 1 9808 9809
9800 1 9809 9810
9801 1 9810 9811
9802 1 9811 9812
9803 1 9812 9813
9804 1 9813 9814
9805 1 9814 9815
9806 1 9815 9816
9807 1 9816 9817
9808 1 9817 9818
9809 1 9818 9819
9810 1 9819 9820
9811 1 9820 9821
9812 1 9821 9822
9813 1 9822 9823
9814 1 9823 9824
9815 1 9824 9825
9816 1 9825 9826
9817 1 9826 9827
9818 1 9827 9828
9819 1 9828 9829
9820 1 9829 9830
9821 1 9830 9831
9822 1 9831 9832
9823 1 9832 9833
9824 1 9833 9834
9825 1 9834 9835
9826 1 9835 9836
9827 1 9836 9837
9828 1 9837 9838
9829 1 9838 9839
9830 1 9839 9840
9831 1 9840 9841
9832 1 9841 9842
9833 1 9842 9843
9834 1 9843 9844
9835 1 9844 9845
9836 1 9845 9846
9837 1 9846 9847
9838 1 9847 9848
9839 1 9848 9849
9840 1 9849 9850
9841 1 9850 9851
9842 1 9851 9852
9843 1 9852 9853
9844 1 9853 9854
9845 1 9854 9855
9846 1 9855 9856
9847 1 9856 9857
9848 1 9857 9858
9849 1 9858 9859
9850 1 9859 9860
9851 1 9860 9861
9852 1 9861 9862
9853 1 9862 9863
9854 1 9863 9864
9855 1 9864 9865
9856 1 9865 9866
9857 1 9866 9867
9858 1 9867 9868
9859 1 9868 9869
9860 1 9869 9870
9861 1 9870 9871
9862 1 9871 9872
9863 1 9872 9873
9864 1 9873 9874
9865 1 9874 9875
9866 1 9875 9876
9867 1 9876 9877
9868 1 9877 9878
9869 1 9878 9879
9870 1 9879 9880
9871 1 9880 9881
9872 1 9881 9882
9873 1 9882 9883
9874 1 9883 9884
9875 1 9884 9885
9876 1 9885 9886
9877 1 9886 9887
9878 1 9887 9888
9879 1 9888 9889
9880 1 9889 9890
9881 1 9890 9891
9882 1 9891 9892
9883 1 9892 9893
9884 1 9893 9894
9885 1 9894 9895
9886 1 9895 9896
9887 1 9896 9897
9888 1 9897 9898
9889 1 9898 9899
9890 1 9899 9900
9891 1 9900 9901
9892 1 9901 9902
9893 1 9902 9903
9894 1 9903 9904
9895 1 9904 9905
9896 1 9905 9906
9897 1 9906 9907
9898 1 9907 9908
9899 1 9908 9909
9900 1 9909 9910
9901 1 9910 9911
9902 1 9911 9912
9903 1 9912 9913
9904 1 9913 9914
9905 1 9914 9915
9906 1 9915 9916
9907 1 9916 9917
9908 1 9917 9918
9909 1 9918 9919
9910 1 9919 9920
9911 1 9920 9921
9912 1 9921 9922
9913 1 9922 9923
9914 1 9923 9924
9915 1 9924 9925
9916 1 9925 9926
9917 1 9926 9927
9918 1 9927 9928
9919 1 9928 9929
9920 1 9929 9930
9921 1 9930 9931
9922 1 9931 9932
9923 1 9932 9933
9924 1 9933 9934
9925 1 9934 9935
9926 1 9935 9936
9927 1 9936 9937
9928 1 9937 9938
9929 1 9938 9939
9930 1 9939 9940
9931 1 9940 9941
9932 1 9941 9942
9933 1 9942 9943
9934 1 9943 9944
9935 1 9944 9945
9936 1 9945 9946
9937 1 9946 9947
9938 1 9947 9948
9939 1 9948 9949
9940 1 9949 9950
9941 1 9950 9951
9942 1 9951 9952
9943 1 9952 9953
9944 1 9953 9954
9945 1 9954 9955
9946 1 9955 9956
9947 1 9956 9957
9948 1 9957 9958
9949 1 9958 9959
9950 1 9959 9960
9951 1 9960 9961
9952 1 9961 9962
9953 1 9962 9963
9954 1 9963 9964
9955 1 9964 9965
9956 1 9965 9966
9957 1 9966 9967
9958 1 9967 9968
9959 1 9968 9969
9960 1 9969 9970
9961 1 9970 9971
9962 1 9971 9972
9963 1 9972 9973
9964 1 9973 9974
9965 1 9974 9975
9966 1 9975 9976
9967 1 9976 9977
9968 1 9977 9978
9969 1 9978 9979
9970 1 9979 9980
9971 1 9980 9981
9972 1 9981 9982
9973 1 9982 9983
9974 1 9983 9984
9975 1 9984 9985
9976 1 9985 9986
9977 1 9986 9987
9978 1 9987 9988
9979 1 9988 9989
9980 1 9989 9990
9981 1 9990 9991
9982 1 9991 9992
9983 1 9992 9993
9984 1 9993 9994
9985 1 9994 9995
9986 1 9995 9996
9987 1 9996 9997
9988 1 9997 9998
9989 1 9998 9999
9990 1 9999 10000
9991 1 10001 10002
9992 1 10002 10003
9993 1 10003 10004
9994 1 10004 10005
9995 1 10005 10006
9996 1 10006 10007
9997 1 10007 10008
9998 1 10008 10009
9999 1 10009 10010
10000 1 10010 10011
10001 1 10011 10012
10002 1 10012 10013
10003 1 10013 10014
10004 1 10014 10015
10005 1 10015 10016
10006 1 10016 10017
10007 1 10017 10018
10008 1 10018 10019
10009 1 10019 10020
10010 1 10020 10021
10011 1 10021 10022
10012 1 10022 10023
10013 1 10023 10024
10014 1 10024 10025
10015 1 10025 10026
10016 1 10026 10027
10017 1 10027 10028
10018 1 10028 10029
10019 1 10029 10030
10020 1 10030 10031
10021 1 10031 10032
10022 1 10032 10033
10023 1 10033 10034
10024 1 10034 10035
10025 1 10035 10036
10026 1 10036 10037
10027 1 10037 10038
10028 1 10038 10039
10029 1 10039 10040
10030 1 10040 10041
10031 1 10041 10042
10032 1 10042 10043
10033 1 10043 10044
10034 1 10044 10045
10035 1 10045 10046
10036 1 10046 10047
10037 1 10047 10048
10038 1 10048 10049
10039 1 10049 10050
10040 1 10050 10051
10041 1 10051 10052
10042 1 10052 10053
10043 1 10053 10054
10044 1 10054 10055
10045 1 10055 10056
10046 1 10056 10057
10047 1 10057 10058
10048 1 10058 10059
10049 1 10059 10060
10050 1 10060 10061
10051 1 10061 10062
10052 1 10062 10063
10053 1 10063 10064
10054 1 10064 10065
10055 1 10065 10066
10056 1 10066 10067
10057 1 10067 10068
10058 1 10068 10069
10059 1 10069 10070
10060 1 10070 10071
10061 1 10071 10072
10062 1 10072 10073
10063 1 10073 10074
10064 1 10074 10075
10065 1 10075 10076
10066 1 10076 10077
10067 1 10077 10078
10068 1 10078 10079
10069 1 10079 10080
10070 1 10080 10081
10071 1 10081 10082
10072 1 10082 10083
10073 1 10083 10084
10074 1 10084 10085
10075 1 10085 10086
10076 1 10086 10087
10077 1 10087 10088
10078 1 10088 10089
10079 1 10089 10090
10080 1 10090 10091
10081 1 10091 10092
10082 1 10092 10093
10083 1 10093 10094
10084 1 10094 10095
10085 1 10095 10096
10086 1 10096 10097
10087 1 10097 10098
10088 1 10098 10099
10089 1 10099 10100
10090 1 10100 10101
10091 1 10101 10102
10092 1 10102 10103
10093 1 10103 10104
10094 1 10104 10105
10095 1 10105 10106
10096 1 10106 10107
10097 1 10107 10108
10098 1 10108 10109
10099 1 10109 10110
10100 1 10110 10111
10101 1 10111 10112
10102 1 10112 10113
10103 1 10113 10114
10104 1 10114 10115
10105 1 10115 10116
10106 1 10116 10117
10107 1 10117 10118
10108 1 10118 10119
10109 1 10119 10120
10110 1 10120 10121
10111 1 10121 10122
10112 1 10122 10123
10113 1 10123 10124
10114 1 10124 10125
10115 1 10125 10126
10116 1 10126 10127
10117 1 10127 10128
10118 1 10128 10129
10119 1 10129 10130
10120 1 10130 10131
10121 1 10131 10132
10122 1 10132 10133
10123 1 10133 10134
10124 1 10134 10135
10125 1 10135 10136
10126 1 10136 10137
10127 1 10137 10138
10128 1 10138 10139
10129 1 10139 10140
10130 1 10140 10141
10131 1 10141 10142
10132 1 10142 10143
10133 1 10143 10144
10134 1 10144 10145
10135 1 10145 10146
10136 1 10146 10147
10137 1 10147 10148
10138 1 10148 10149
10139 1 10149 10150
10140 1 10150 10151
10141 1 10151 10152
10142 1 10152 10153
10143 1 10153 10154
10144 1 10154 10155
10145 1 10155 10156
10146 1 10156 10157
10147 1 10157 10158
10148 1 10158 10159
10149 1 10159 10160
10150 1 10160 10161
10151 1 10161 10162
10152 1 10162 10163
10153 1 10163 10164
10154 1 10164 10165
10155 1 10165 10166
10156 1 10166 10167
10157 1 10167 10168
10158 1 10168 10169
10159 1 10169 10170
10160 1 10170 10171
10161 1 10171 10172
10162 1 10172 10173
10163 1 10173 10174
10164 1 10174 10175
10165 1 10175 10176
10166 1 10176 10177
10167 1 10177 10178
10168 1 10178 10179
10169 1 10179 10180
10170 1 10180 10181
10171 1 10181 10182
10172 1 10182 10183
10173 1 10183 10184
10174 1 10184 10185
10175 1 10185 10186
10176 1 10186 10187
10177 1 10187 10188
10178 1 10188 10189
10179 1 10189 10190
10180 1 10190 10191
10181 1 10191 10192
10182 1 10192 10193
10183 1 10193 10194
10184 1 10194 10195
10185 1 10195 10196
10186 1 10196 10197
10187 1 10197 10198
10188 1 10198 10199
10189 1 10199 10200
10190 1 10200 10201
10191 1 10201 10202
10192 1 10202 10203
10193 1 10203 10204
10194 1 10204 10205
10195 1 10205 10206
10196 1 10206 10207
10197 1 10207 10208
10198 1 10208 10209
10199 1 10209 10210
10200 1 10210 10211
10201 1 10211 10212
10202 1 10212 10213
10203 1 10213 10214
10204 1 10214 10215
10205 1 10215 10216
10206 1 10216 10217
10207 1 10217 10218
10208 1 10218 10219
10209 1 10219 10220
10210 1 10220 10221
10211 1 10221 10222
10212 1 10222 10223
10213 1 10223 10224
10214 1 10224 10225
10215 1 10225 10226
10216 1 10226 10227
10217 1 10227 10228
10218 1 10228 10229
10219 1 10229 10230
10220 1 10230 10231
10221 1 10231 10232
10222 1 10232 10233
10223 1 10233 10234
10224 1 10234 10235
10225 1 10235 10236
10226 1 10236 10237
10227 1 10237 10238
10228 1 10238 10239
10229 1 10239 10240
10230 1 10240 10241
10231 1 10241 10242
10232 1 10242 10243
10233 1 10243 10244
10234 1 10244 10245
10235 1 10245 10246
10236 1 10246 10247
10237 1 10247 10248
10238 1 10248 10249
10239 1 10249 10250
10240 1 10250 10251
10241 1 10251 10252
10242 1 10252 10253
10243 1 10253 10254
10244 1 10254 10255
10245 1 10255 10256
10246 1 10256 10257
10247 1 10257 10258
10248 1 10258 10259
10249 1 10259 10260
10250 1 10260 10261
10251 1 10261 10262
10252 1 10262 10263
10253 1 10263 10264
10254 1 10264 10265
10255 1 10265 10266
10256 1 10266 10267
10257 1 10267 10268
10258 1 10268 10269
10259 1 10269 10270
10260 1 10270 10271
10261 1 10271 10272
10262 1 10272 10273
10263 1 10273 10274
10264 1 10274 10275
10265 1 10275 10276
10266 1 10276 10277
10267 1 10277 10278
10268 1 10278 10279
10269 1 10279 10280
10270 1 10280 10281
10271 1 10281 10282
10272 1 10282 10283
10273 1 10283 10284
10274 1 10284 10285
10275 1 10285 10286
10276 1 10286 10287
10277 1 10287 10288
10278 1 10288 10289
10279 1 10289 10290
10280 1 10290 10291
10281 1 10291 10292
10282 1 10292 10293
10283 1 10293 10294
10284 1 10294 10295
10285 1 10295 10296
10286 1 10296 10297
10287 1 10297 10298
10288 1 10298 10299
10289 1 10299 10300
10290 1 10300 10301
10291 1 10301 10302
10292 1 10302 10303
10293 1 10303 10304
10294 1 10304 10305
10295 1 10305 10306
10296 1 10306 10307
10297 1 10307 10308
10298 1 10308 10309
10299 1 10309 10310
10300 1 10310 10311
10301 1 10311 10312
10302 1 10312 10313
10303 1 10313 10314
10304 1 10314 10315
10305 1 10315 10316
10306 1 10316 10317
10307 1 10317 10318
10308 1 10318 10319
10309 1 10319 10320
10310 1 10320 10321
10311 1 10321 10322
10312 1 10322 10323
10313 1 10323 10324
10314 1 10324 10325
10315 1 10325 10326
10316 1 10326 10327
10317 1 10327 10328
10318 1 10328 10329
10319 1 10329 10330
10320 1 10330 10331
10321 1 10331 10332
10322 1 10332 10333
10323 1 10333 10334
10324 1 10334 10335
10325 1 10335 10336
10326 1 10336 10337
10327 1 10337 10338
10328 1 10338 10339
10329 1 10339 10340
10330 1 10340 10341
10331 1 10341 10342
10332 1 10342 10343
10333 1 10343 10344
10334 1 10344 10345
10335 1 10345 10346
10336 1 10346 10347
10337 1 10347 10348
10338 1 10348 10349
10339 1 10349 10350
10340 1 10350 10351
10341 1 10351 10352
10342 1 10352 10353
10343 1 10353 10354
10344 1 10354 10355
10345 1 10355 10356
10346 1 10356 10357
10347 1 10357 10358
10348 1 10358 10359
10349 1 10359 10360
10350 1 10360 10361
10351 1 10361 10362
10352 1 10362 10363
10353 1 10363 10364
10354 1 10364 10365
10355 1 10365 10366
10356 1 10366 10367
10357 1 10367 10368
10358 1 10368 10369
10359 1 10369 10370
10360 1 10370 10371
10361 1 10371 10372
10362 1 10372 10373
10363 1 10373 10374
10364 1 10374 10375
10365 1 10375 10376
10366 1 10376 10377
10367 1 10377 10378
10368 1 10378 10379
10369 1 10379 10380
10370 1 10380 10381
10371 1 10381 10382
10372 1 10382 10383
10373 1 10383 10384
10374 1 10384 10385
10375 1 10385 10386
10376 1 10386 10387
10377 1 10387 10388
10378 1 10388 10389
10379 1 10389 10390
10380 1 10390 10391
10381 1 10391 10392
10382 1 10392 10393
10383 1 10393 10394
10384 1 10394 10395
10385 1 10395 10396
10386 1 10396 10397
10387 1 10397 10398
10388 1 10398 10399
10389 1 10399 10400
10390 1 10400 10401
10391 1 10401 10402
10392 1 10402 10403
10393 1 10403 10404
10394 1 10404 10405
10395 1 10405 10406
10396 1 10406 10407
10397 1 10407 10408
10398 1 10408 10409
10399 1 10409 10410
10400 1 10410 10411
10401 1 10411 10412
10402 1 10412 10413
10403 1 10413 10414
10404 1 10414 10415
10405 1 10415 10416
10406 1 10416 10417
10407 1 10417 10418
10408 1 10418 10419
10409 1 10419 10420
10410 1 10420 10421
10411 1 10421 10422
10412 1 10422 10423
10413 1 10423 10424
10414 1 10424 10425
10415 1 10425 10426
10416 1 10426 10427
10417 1 10427 10428
10418 1 10428 10429
10419 1 10429 10430
10420 1 10430 10431
10421 1 10431 10432
10422 1 10432 10433
10423 1 10433 10434
10424 1 10434 10435
10425 1 10435 10436
10426 1 10436 10437
10427 1 10437 10438
10428 1 10438 10439
10429 1 10439 10440
10430 1 10440 10441
10431 1 10441 10442
10432 1 10442 10443
10433 1 10443 10444
10434 1 10444 10445
10435 1 10445 10446
10436 1 10446 10447
10437 1 10447 10448
10438 1 10448 10449
10439 1 10449 10450
10440 1 10450 10451
10441 1 10451 10452
10442 1 10452 10453
10443 1 10453 10454
10444 1 10454 10455
10445 1 10455 10456
10446 1 10456 10457
10447 1 10457 10458
10448 1 10458 10459
10449 1 10459 10460
10450 1 10460 10461
10451 1 10461 10462
10452 1 10462 10463
10453 1 10463 10464
10454 1 10464 10465
10455 1 10465 10466
10456 1 10466 10467
10457 1 10467 10468
10458 1 10468 10469
10459 1 10469 10470
10460 1 10470 10471
10461 1 10471 10472
10462 1 10472 10473
10463 1 10473 10474
10464 1 10474 10475
10465 1 10475 10476
10466 1 10476 10477
10467 1 10477 10478
10468 1 10478 10479
10469 1 10479 10480
10470 1 10480 10481
10471 1 10481 10482
10472 1 10482 10483
10473 1 10483 10484
10474 1 10484 10485
10475 1 10485 10486
10476 1 10486 10487
10477 1 10487 10488
10478 1 10488 10489
10479 1 10489 10490
10480 1 10490 10491
10481 1 10491 10492
10482 1 10492 10493
10483 1 10493 10494
10484 1 10494 10495
10485 1 10495 10496
10486 1 10496 10497
10487 1 10497 10498
10488 1 10498 10499
10489 1 10499 10500
10490 1 10500 10501
10491 1 10501 10502
10492 1 10502 10503
10493 1 10503 10504
10494 1 10504 10505
10495 1 10505 10506
10496 1 10506 10507
10497 1 10507 10508
10498 1 10508 10509
10499 1 10509 10510
10500 1 10510 10511
10501 1 10511 10512
10502 1 10512 10513
10503 1 10513 10514
10504 1 10514 10515
10505 1 10515 10516
10506 1 10516 10517
10507 1 10517 10518
10508 1 10518 10519
10509 1 10519 10520
10510 1 10520 10521
10511 1 10521 10522
10512 1 10522 10523
10513 1 10523 10524
10514 1 10524 10525
10515 1 10525 10526
10516 1 10526 10527
10517 1 10527 10528
10518 1 10528 10529
10519 1 10529 10530
10520 1 10530 10531
10521 1 10531 10532
10522 1 10532 10533
10523 1 10533 10534
10524 1 10534 10535
10525 1 10535 10536
10526 1 10536 10537
10527 1 10537 10538
10528 1 10538 10539
10529 1 10539 10540
10530 1 10540 10541
10531 1 10541 10542
10532 1 10542 10543
10533 1 10543 10544
10534 1 10544 10545
10535 1 10545 10546
10536 1 10546 10547
10537 1 10547 10548
10538 1 10548 10549
10539 1 10549 10550
10540 1 10550 10551
10541 1 10551 10552
10542 1 10552 10553
10543 1 10553 10554
10544 1 10554 10555
10545 1 10555 10556
10546 1 10556 10557
10547 1 10557 10558
10548 1 10558 10559
10549 1 10559 10560
10550 1 10560 10561
10551 1 10561 10562
10552 1 10562 10563
10553 1 10563 10564
10554 1 10564 10565
10555 1 10565 10566
10556 1 10566 10567
10557 1 10567 10568
10558 1 10568 10569
10559 1 10569 10570
10560 1 10570 10571
10561 1 10571 10572
10562 1 10572 10573
10563 1 10573 10574
10564 1 10574 10575
10565 1 10575 10576
10566 1 10576 10577
10567 1 10577 10578
10568 1 10578 10579
10569 1 10579 10580
10570 1 10580 10581
10571 1 10581 10582
10572 1 10582 10583
10573 1 10583 10584
10574 1 10584 10585
10575 1 10585 10586
10576 1 10586 10587
10577 1 10587 10588
10578 1 10588 10589
10579 1 10589 10590
10580 1 10590 10591
10581 1 10591 10592
10582 1 10592 10593
10583 1 10593 10594
10584 1 10594 10595
10585 1 10595 10596
10586 1 10596 10597
10587 1 10597 10598
10588 1 10598 10599
10589 1 10599 10600
10590 1 10600 10601
10591 1 10601 10602
10592 1 10602 10603
10593 1 10603 10604
10594 1 10604 10605
10595 1 10605 10606
10596 1 10606 10607
10597 1 10607 10608
10598 1 10608 10609
10599 1 10609 10610
10600 1 10610 10611
10601 1 10611 10612
10602 1 10612 10613
10603 1 10613 10614
10604 1 10614 10615
10605 1 10615 10616
10606 1 10616 10617
10607 1 10617 10618
10608 1 10618 10619
10609 1 10619 10620
10610 1 10620 10621
10611 1 10621 10622
10612 1 10622 10623
10613 1 10623 10624
10614 1 10624 10625
10615 1 10625 10626
10616 1 10626 10627
10617 1 10627 10628
10618 1 10628 10629
10619 1 10629 10630
10620 1 10630 10631
10621 1 10631 10632
10622 1 10632 10633
10623 1 10633 10634
10624 1 10634 10635
10625 1 10635 10636
10626 1 10636 10637
10627 1 10637 10638
10628 1 10638 10639
10629 1 10639 10640
10630 1 10640 10641
10631 1 10641 10642
10632 1 10642 10643
10633 1 10643 10644
10634 1 10644 10645
10635 1 10645 10646
10636 1 10646 10647
10637 1 10647 10648
10638 1 10648 10649
10639 1 10649 10650
10640 1 10650 10651
10641 1 10651 10652
10642 1 10652 10653
10643 1 10653 10654
10644 1 10654 10655
10645 1 10655 10656
10646 1 10656 10657
10647 1 10657 10658
10648 1 10658 10659
10649 1 10659 10660
10650 1 10660 10661
10651 1 10661 10662
10652 1 10662 10663
10653 1 10663 10664
10654 1 10664 10665
10655 1 10665 10666
10656 1 10666 10667
10657 1 10667 10668
10658 1 10668 10669
10659 1 10669 10670
10660 1 10670 10671
10661 1 10671 10672
10662 1 10672 10673
10663 1 10673 10674
10664 1 10674 10675
10665 1 10675 10676
10666 1 10676 10677
10667 1 10677 10678
10668 1 10678 10679
10669 1 10679 10680
10670 1 10680 10681
10671 1 10681 10682
10672 1 10682 10683
10673 1 10683 10684
10674 1 10684 10685
10675 1 10685 10686
10676 1 10686 10687
10677 1 10687 10688
10678 1 10688 10689
10679 1 10689 10690
10680 1 10690 10691
10681 1 10691 10692
10682 1 10692 10693
10683 1 10693 10694
10684 1 10694 10695
10685 1 10695 10696
10686 1 10696 10697
10687 1 10697 10698
10688 1 10698 10699
10689 1 10699 10700
10690 1 10700 10701
10691 1 10701 10702
10692 1 10702 10703
10693 1 10703 10704
10694 1 10704 10705
10695 1 10705 10706
10696 1 10706 10707
10697 1 10707 10708
10698 1 10708 10709
10699 1 10709 10710
10700 1 10710 10711
10701 1 10711 10712
10702 1 10712 10713
10703 1 10713 10714
10704 1 10714 10715
10705 1 10715 10716
10706 1 10716 10717
10707 1 10717 10718
10708 1 10718 10719
10709 1 10719 10720
10710 1 10720 10721
10711 1 10721 10722
10712 1 10722 10723
10713 1 10723 10724
10714 1 10724 10725
10715 1 10725 10726
10716 1 10726 10727
10717 1 10727 10728
10718 1 10728 10729
10719 1 10729 10730
10720 1 10730 10731
10721 1 10731 10732
10722 1 10732 10733
10723 1 10733 10734
10724 1 10734 10735
10725 1 10735 10736
10726 1 10736 10737
10727 1 10737 10738
10728 1 10738 10739
10729 1 10739 10740
10730 1 10740 10741
10731 1 10741 10742
10732 1 10742 10743
10733 1 10743 10744
10734 1 10744 10745
10735 1 10745 10746
10736 1 10746 10747
10737 1 10747 10748
10738 1 10748 10749
10739 1 10749 10750
10740 1 10750 10751
10741 1 10751 10752
10742 1 10752 10753
10743 1 10753 10754
10744 1 10754 10755
10745 1 10755 10756
10746 1 10756 10757
10747 1 10757 10758
10748 1 10758 10759
10749 1 10759 10760
10750 1 10760 10761
10751 1 10761 10762
10752 1 10762 10763
10753 1 10763 10764
10754 1 10764 10765
10755 1 10765 10766
10756 1 10766 10767
10757 1 10767 10768
10758 1 10768 10769
10759 1 10769 10770
10760 1 10770 10771
10761 1 10771 10772
10762 1 10772 10773
10763 1 10773 10774
10764 1 10774 10775
10765 1 10775 10776
10766 1 10776 10777
10767 1 10777 10778
10768 1 10778 10779
10769 1 10779 10780
10770 1 10780 10781
10771 1 10781 10782
10772 1 10782 10783
10773 1 10783 10784
10774 1 10784 10785
10775 1 10785 10786
10776 1 10786 10787
10777 1 10787 10788
10778 1 10788 10789
10779 1 10789 10790
10780 1 10790 10791
10781 1 10791 10792
10782 1 10792 10793
10783 1 10793 10794
10784 1 10794 10795
10785 1 10795 10796
10786 1 10796 10797
10787 1 10797 10798
10788 1 10798 10799
10789 1 10799 10800
10790 1 10800 10801
10791 1 10801 10802
10792 1 10802 10803
10793 1 10803 10804
10794 1 10804 10805
10795 1 10805 10806
10796 1 10806 10807
10797 1 10807 10808
10798 1 10808 10809
10799 1 10809 10810
10800 1 10810 10811
10801 1 10811 10812
10802 1 10812 10813
10803 1 10813 10814
10804 1 10814 10815
10805 1 10815 10816
10806 1 10816 10817
10807 1 10817 10818
10808 1 10818 10819
10809 1 10819 10820
10810 1 10820 10821
10811 1 10821 10822
10812 1 10822 10823
10813 1 10823 10824
10814 1 10824 10825
10815 1 10825 10826
10816 1 10826 10827
10817 1 10827 10828
10818 1 10828 10829
10819 1 10829 10830
10820 1 10830 10831
10821 1 10831 10832
10822 1 10832 10833
10823 1 10833 10834
10824 1 10834 10835
10825 1 10835 10836
10826 1 10836 10837
10827 1 10837 10838
10828 1 10838 10839
10829 1 10839 10840
10830 1 10840 10841
10831 1 10841 10842
10832 1 10842 10843
10833 1 10843 10844
10834 1 10844 10845
10835 1 10845 10846
10836 1 10846 10847
10837 1 10847 10848
10838 1 10848 10849
10839 1 10849 10850
10840 1 10850 10851
10841 1 10851 10852
10842 1 10852 10853
10843 1 10853 10854
10844 1 10854 10855
10845 1 10855 10856
10846 1 10856 10857
10847 1 10857 10858
10848 1 10858 10859
10849 1 10859 10860
10850 1 10860 10861
10851 1 10861 10862
10852 1 10862 10863
10853 1 10863 10864
10854 1 10864 10865
10855 1 10865 10866
10856 1 10866 10867
10857 1 10867 10868
10858 1 10868 10869
10859 1 10869 10870
10860 1 10870 10871
10861 1 10871 10872
10862 1 10872 10873
10863 1 10873 10874
10864 1 10874 10875
10865 1 10875 10876
10866 1 10876 10877
10867 1 10877 10878
10868 1 10878 10879
10869 1 10879 10880
10870 1 10880 10881
10871 1 10881 10882
10872 1 10882 10883
10873 1 10883 10884
10874 1 10884 10885
10875 1 10885 10886
10876 1 10886 10887
10877 1 10887 10888
10878 1 10888 10889
10879 1 10889 10890
10880 1 10890 10891
10881 1 10891 10892
10882 1 10892 10893
10883 1 10893 10894
10884 1 10894 10895
10885 1 10895 10896
10886 1 10896 10897
10887 1 10897 10898
10888 1 10898 10899
10889 1 10899 10900
10890 1 10900 10901
10891 1 10901 10902
10892 1 10902 10903
10893 1 10903 10904
10894 1 10904 10905
10895 1 10905 10906
10896 1 10906 10907
10897 1 10907 10908
10898 1 10908 10909
10899 1 10909 10910
10900 1 10910 10911
10901 1 10911 10912
10902 1 10912 10913
10903 1 10913 10914
10904 1 10914 10915
10905 1 10915 10916
10906 1 10916 10917
10907 1 10917 10918
10908 1 10918 10919
10909 1 10919 10920
10910 1 10920 10921
10911 1 10921 10922
10912 1 10922 10923
10913 1 10923 10924
10914 1 10924 10925
10915 1 10925 10926
10916 1 10926 10927
10917 1 10927 10928
10918 1 10928 10929
10919 1 10929 10930
10920 1 10930 10931
10921 1 10931 10932
10922 1 10932 10933
10923 1 10933 10934
10924 1 10934 10935
10925 1 10935 10936
10926 1 10936 10937
10927 1 10937 10938
10928 1 10938 10939
10929 1 10939 10940
10930 1 10940 10941
10931 1 10941 10942
10932 1 10942 10943
10933 1 10943 10944
10934 1 10944 10945
10935 1 10945 10946
10936 1 10946 10947
10937 1 10947 10948
10938 1 10948 10949
10939 1 10949 10950
10940 1 10950 10951
10941 1 10951 10952
10942 1 10952 10953
10943 1 10953 10954
10944 1 10954 10955
10945 1 10955 10956
10946 1 10956 10957
10947 1 10957 10958
10948 1 10958 10959
10949 1 10959 10960
10950 1 10960 10961
10951 1 10961 10962
10952 1 10962 10963
10953 1 10963 10964
10954 1 10964 10965
10955 1 10965 10966
10956 1 10966 10967
10957 1 10967 10968
10958 1 10968 10969
10959 1 10969 10970
10960 1 10970 10971
10961 1 10971 10972
10962 1 10972 10973
10963 1 10973 10974
10964 1 10974 10975
10965 1 10975 10976
10966 1 10976 10977
10967 1 10977 10978
10968 1 10978 10979
10969 1 10979 10980
10970 1 10980 10981
10971 1 10981 10982
10972 1 10982 10983
10973 1 10983 10984
10974 1 10984 10985
10975 1 10985 10986
10976 1 10986 10987
10977 1 10987 10988
10978 1 10988 10989
10979 1 10989 10990
10980 1 10990 10991
10981 1 10991 10992
10982 1 10992 10993
10983 1 10993 10994
10984 1 10994 10995
10985 1 10995 10996
10986 1 10996 10997
10987 1 10997 10998
10988 1 10998 10999
10989 1 10999 11000
10990 1 11001 11002
10991 1 11002 11003
10992 1 11003 11004
10993 1 11004 11005
10994 1 11005 11006
10995 1 11006 11007
10996 1 11007 11008
10997 1 11008 11009
10998 1 11009 11010
10999 1 11010 11011
11000 1 11011 11012
11001 1 11012 11013
11002 1 11013 11014
11003 1 11014 11015
11004 1 11015 11016
11005 1 11016 11017
11006 1 11017 11018
11007 1 11018 11019
11008 1 11019 11020
11009 1 11020 11021
11010 1 11021 11022
11011 1 11022 11023
11012 1 11023 11024
11013 1 11024 11025
11014 1 11025 11026
11015 1 11026 11027
11016 1 11027 11028
11017 1 11028 11029
11018 1 11029 11030
11019 1 11030 11031
11020 1 11031 11032
11021 1 11032 11033
11022 1 11033 11034
11023 1 11034 11035
11024 1 11035 11036
11025 1 11036 11037
11026 1 11037 11038
11027 1 11038 11039
11028 1 11039 11040
11029 1 11040 11041
11030 1 11041 11042
11031 1 11042 11043
11032 1 11043 11044
11033 1 11044 11045
11034 1 11045 11046
11035 1 11046 11047
11036 1 11047 11048
11037 1 11048 11049
11038 1 11049 11050
11039 1 11050 11051
11040 1 11051 11052
11041 1 11052 11053
11042 1 11053 11054
11043 1 11054 11055
11044 1 11055 11056
11045 1 11056 11057
11046 1 11057 11058
11047 1 11058 11059
11048 1 11059 11060
11049 1 11060 11061
11050 1 11061 11062
11051 1 11062 11063
11052 1 11063 11064
11053 1 11064 11065
11054 1 11065 11066
11055 1 11066 11067
11056 1 11067 11068
11057 1 11068 11069
11058 1 11069 11070
11059 1 11070 11071
11060 1 11071 11072
11061 1 11072 11073
11062 1 11073 11074
11063 1 11074 11075
11064 1 11075 11076
11065 1 11076 11077
11066 1 11077 11078
11067 1 11078 11079
11068 1 11079 11080
11069 1 11080 11081
11070 1 11081 11082
11071 1 11082 11083
11072 1 11083 11084
11073 1 11084 11085
11074 1 11085 11086
11075 1 11086 11087
11076 1 11087 11088
11077 1 11088 11089
11078 1 11089 11090
11079 1 11090 11091
11080 1 11091 11092
11081 1 11092 11093
11082 1 11093 11094
11083 1 11094 11095
11084 1 11095 11096
11085 1 11096 11097
11086 1 11097 11098
11087 1 11098 11099
11088 1 11099 11100
11089 1 11100 11101
11090 1 11101 11102
11091 1 11102 11103
11092 1 11103 11104
11093 1 11104 11105
11094 1 11105 11106
11095 1 11106 11107
11096 1 11107 11108
11097 1 11108 11109
11098 1 11109 11110
11099 1 11110 11111
11100 1 11111 11112
11101 1 11112 11113
11102 1 11113 11114
11103 1 11114 11115
11104 1 11115 11116
11105 1 11116 11117
11106 1 11117 11118
11107 1 11118 11119
11108 1 11119 11120
11109 1 11120 11121
11110 1 11121 11122
11111 1 11122 11123
11112 1 11123 11124
11113 1 11124 11125
11114 1 11125 11126
11115 1 11126 11127
11116 1 11127 11128
11117 1 11128 11129
11118 1 11129 11130
11119 1 11130 11131
11120 1 11131 11132
11121 1 11132 11133
11122 1 11133 11134
11123 1 11134 11135
11124 1 11135 11136
11125 1 11136 11137
11126 1 11137 11138
11127 1 11138 11139
11128 1 11139 11140
11129 1 11140 11141
11130 1 11141 11142
11131 1 11142 11143
11132 1 11143 11144
11133 1 11144 11145
11134 1 11145 11146
11135 1 11146 11147
11136 1 11147 11148
11137 1 11148 11149
11138 1 11149 11150
11139 1 11150 11151
11140 1 11151 11152
11141 1 11152 11153
11142 1 11153 11154
11143 1 11154 11155
11144 1 11155 11156
11145 1 11156 11157
11146 1 11157 11158
11147 1 11158 11159
11148 1 11159 11160
11149 1 11160 11161
11150 1 11161 11162
11151 1 11162 11163
11152 1 11163 11164
11153 1 11164 11165
11154 1 11165 11166
11155 1 11166 11167
11156 1 11167 11168
11157 1 11168 11169
11158 1 11169 11170
11159 1 11170 11171
11160 1 11171 11172
11161 1 11172 11173
11162 1 11173 11174
11163 1 11174 11175
11164 1 11175 11176
11165 1 11176 11177
11166 1 11177 11178
11167 1 11178 11179
11168 1 11179 11180
11169 1 11180 11181
11170 1 11181 11182
11171 1 11182 11183
11172 1 11183 11184
11173 1 11184 11185
11174 1 11185 11186
11175 1 11186 11187
11176 1 11187 11188
11177 1 11188 11189
11178 1 11189 11190
11179 1 11190 11191
11180 1 11191 11192
11181 1 11192 11193
11182 1 11193 11194
11183 1 11194 11195
11184 1 11195 11196
11185 1 11196 11197
11186 1 11197 11198
11187 1 11198 11199
11188 1 11199 11200
11189 1 11200 11201
11190 1 11201 11202
11191 1 11202 11203
11192 1 11203 11204
11193 1 11204 11205
11194 1 11205 11206
11195 1 11206 11207
11196 1 11207 11208
11197 1 11208 11209
11198 1 11209 11210
11199 1 11210 11211
11200 1 11211 11212
11201 1 11212 11213
11202 1 11213 11214
11203 1 11214 11215
11204 1 11215 11216
11205 1 11216 11217
11206 1 11217 11218
11207 1 11218 11219
11208 1 11219 11220
11209 1 11220 11221
11210 1 11221 11222
11211 1 11222 11223
11212 1 11223 11224
11213 1 11224 11225
11214 1 11225 11226
11215 1 11226 11227
11216 1 11227 11228
11217 1 11228 11229
11218 1 11229 11230
11219 1 11230 11231
11220 1 11231 11232
11221 1 11232 11233
11222 1 11233 11234
11223 1 11234 11235
11224 1 11235 11236
11225 1 11236 11237
11226 1 11237 11238
11227 1 11238 11239
11228 1 11239 11240
11229 1 11240 11241
11230 1 11241 11242
11231 1 11242 11243
11232 1 11243 11244
11233 1 11244 11245
11234 1 11245 11246
11235 1 11246 11247
11236 1 11247 11248
11237 1 11248 11249
11238 1 11249 11250
11239 1 11250 11251
11240 1 11251 11252
11241 1 11252 11253
11242 1 11253 11254
11243 1 11254 11255
11244 1 11255 11256
11245 1 11256 11257
11246 1 11257 11258
11247 1 11258 11259
11248 1 11259 11260
11249 1 11260 11261
11250 1 11261 11262
11251 1 11262 11263
11252 1 11263 11264
11253 1 11264 11265
11254 1 11265 11266
11255 1 11266 11267
11256 1 11267 11268
11257 1 11268 11269
11258 1 11269 11270
11259 1 11270 11271
11260 1 11271 11272
11261 1 11272 11273
11262 1 11273 11274
11263 1 11274 11275
11264 1 11275 11276
11265 1 11276 11277
11266 1 11277 11278
11267 1 11278 11279
11268 1 11279 11280
11269 1 11280 11281
11270 1 11281 11282
11271 1 11282 11283
11272 1 11283 11284
11273 1 11284 11285
11274 1 11285 11286
11275 1 11286 11287
11276 1 11287 11288
11277 1 11288 11289
11278 1 11289 11290
11279 1 11290 11291
11280 1 11291 11292
11281 1 11292 11293
11282 1 11293 11294
11283 1 11294 11295
11284 1 11295 11296
11285 1 11296 11297
11286 1 11297 11298
11287 1 11298 11299
11288 1 11299 11300
11289 1 11300 11301
11290 1 11301 11302
11291 1 11302 11303
11292 1 11303 11304
11293 1 11304 11305
11294 1 11305 11306
11295 1 11306 11307
11296 1 11307 11308
11297 1 11308 11309
11298 1 11309 11310
11299 1 11310 11311
11300 1 11311 11312
11301 1 11312 11313
11302 1 11313 11314
11303 1 11314 11315
11304 1 11315 11316
11305 1 11316 11317
11306 1 11317 11318
11307 1 11318 11319
11308 1 11319 11320
11309 1 11320 11321
11310 1 11321 11322
11311 1 11322 11323
11312 1 11323 11324
11313 1 11324 11325
11314 1 11325 11326
11315 1 11326 11327
11316 1 11327 11328
11317 1 11328 11329
11318 1 11329 11330
11319 1 11330 11331
11320 1 11331 11332
11321 1 11332 11333
11322 1 11333 11334
11323 1 11334 11335
11324 1 11335 11336
11325 1 11336 11337
11326 1 11337 11338
11327 1 11338 11339
11328 1 11339 11340
11329 1 11340 11341
11330 1 11341 11342
11331 1 11342 11343
11332 1 11343 11344
11333 1 11344 11345
11334 1 11345 11346
11335 1 11346 11347
11336 1 11347 11348
11337 1 11348 11349
11338 1 11349 11350
11339 1 11350 11351
11340 1 11351 11352
11341 1 11352 11353
11342 1 11353 11354
11343 1 11354 11355
11344 1 11355 11356
11345 1 11356 11357
11346 1 11357 11358
11347 1 11358 11359
11348 1 11359 11360
11349 1 11360 11361
11350 1 11361 11362
11351 1 11362 11363
11352 1 11363 11364
11353 1 11364 11365
11354 1 11365 11366
11355 1 11366 11367
11356 1 11367 11368
11357 1 11368 11369
11358 1 11369 11370
11359 1 11370 11371
11360 1 11371 11372
11361 1 11372 11373
11362 1 11373 11374
11363 1 11374 11375
11364 1 11375 11376
11365 1 11376 11377
11366 1 11377 11378
11367 1 11378 11379
11368 1 11379 11380
11369 1 11380 11381
11370 1 11381 11382
11371 1 11382 11383
11372 1 11383 11384
11373 1 11384 11385
11374 1 11385 11386
11375 1 11386 11387
11376 1 11387 11388
11377 1 11388 11389
11378 1 11389 11390
11379 1 11390 11391
11380 1 11391 11392
11381 1 11392 11393
11382 1 11393 11394
11383 1 11394 11395
11384 1 11395 11396
11385 1 11396 11397
11386 1 11397 11398
11387 1 11398 11399
11388 1 11399 11400
11389 1 11400 11401
11390 1 11401 11402
11391 1 11402 11403
11392 1 11403 11404
11393 1 11404 11405
11394 1 11405 11406
11395 1 11406 11407
11396 1 11407 11408
11397 1 11408 11409
11398 1 11409 11410
11399 1 11410 11411
11400 1 11411 11412
11401 1 11412 11413
11402 1 11413 11414
11403 1 11414 11415
11404 1 11415 11416
11405 1 11416 11417
11406 1 11417 11418
11407 1 11418 11419
11408 1 11419 11420
11409 1 11420 11421
11410 1 11421 11422
11411 1 11422 11423
11412 1 11423 11424
11413 1 11424 11425
11414 1 11425 11426
11415 1 11426 11427
11416 1 11427 11428
11417 1 11428 11429
11418 1 11429 11430
11419 1 11430 11431
11420 1 11431 11432
11421 1 11432 11433
11422 1 11433 11434
11423 1 11434 11435
11424 1 11435 11436
11425 1 11436 11437
11426 1 11437 11438
11427 1 11438 11439
11428 1 11439 11440
11429 1 11440 11441
11430 1 11441 11442
11431 1 11442 11443
11432 1 11443 11444
11433 1 11444 11445
11434 1 11445 11446
11435 1 11446 11447
11436 1 11447 11448
11437 1 11448 11449
11438 1 11449 11450
11439 1 11450 11451
11440 1 11451 11452
11441 1 11452 11453
11442 1 11453 11454
11443 1 11454 11455
11444 1 11455 11456
11445 1 11456 11457
11446 1 11457 11458
11447 1 11458 11459
11448 1 11459 11460
11449 1 11460 11461
11450 1 11461 11462
11451 1 11462 11463
11452 1 11463 11464
11453 1 11464 11465
11454 1 11465 11466
11455 1 11466 11467
11456 1 11467 11468
11457 1 11468 11469
11458 1 11469 11470
11459 1 11470 11471
11460 1 11471 11472
11461 1 11472 11473
11462 1 11473 11474
11463 1 11474 11475
11464 1 11475 11476
11465 1 11476 11477
11466 1 11477 11478
11467 1 11478 11479
11468 1 11479 11480
11469 1 11480 11481
11470 1 11481 11482
11471 1 11482 11483
11472 1 11483 11484
11473 1 11484 11485
11474 1 11485 11486
11475 1 11486 11487
11476 1 11487 11488
11477 1 11488 11489
11478 1 11489 11490
11479 1 11490 11491
11480 1 11491 11492
11481 1 11492 11493
11482 1 11493 11494
11483 1 11494 11495
11484 1 11495 11496
11485 1 11496 11497
11486 1 11497 11498
11487 1 11498 11499
11488 1 11499 11500
11489 1 11500 11501
11490 1 11501 11502
11491 1 11502 11503
11492 1 11503 11504
11493 1 11504 11505
11494 1 11505 11506
11495 1 11506 11507
11496 1 11507 11508
11497 1 11508 11509
11498 1 11509 11510
11499 1 11510 11511
11500 1 11511 11512
11501 1 11512 11513
11502 1 11513 11514
11503 1 11514 11515
11504 1 11515 11516
11505 1 11516 11517
11506 1 11517 11518
11507 1 11518 11519
11508 1 11519 11520
11509 1 11520 11521
11510 1 11521 11522
11511 1 11522 11523
11512 1 11523 11524
11513 1 11524 11525
11514 1 11525 11526
11515 1 11526 11527
11516 1 11527 11528
11517 1 11528 11529
11518 1 11529 11530
11519 1 11530 11531
11520 1 11531 11532
11521 1 11532 11533
11522 1 11533 11534
11523 1 11534 11535
11524 1 11535 11536
11525 1 11536 11537
11526 1 11537 11538
11527 1 11538 11539
11528 1 11539 11540
11529 1 11540 11541
11530 1 11541 11542
11531 1 11542 11543
11532 1 11543 11544
11533 1 11544 11545
11534 1 11545 11546
11535 1 11546 11547
11536 1 11547 11548
11537 1 11548 11549
11538 1 11549 11550
11539 1 11550 11551
11540 1 11551 11552
11541 1 11552 11553
11542 1 11553 11554
11543 1 11554 11555
11544 1 11555 11556
11545 1 11556 11557
11546 1 11557 11558
11547 1 11558 11559
11548 1 11559 11560
11549 1 11560 11561
11550 1 11561 11562
11551 1 11562 11563
11552 1 11563 11564
11553 1 11564 11565
11554 1 11565 11566
11555 1 11566 11567
11556 1 11567 11568
11557 1 11568 11569
11558 1 11569 11570
11559 1 11570 11571
11560 1 11571 11572
11561 1 11572 11573
11562 1 11573 11574
11563 1 11574 11575
11564 1 11575 11576
11565 1 11576 11577
11566 1 11577 11578
11567 1 11578 11579
11568 1 11579 11580
11569 1 11580 11581
11570 1 11581 11582
11571 1 11582 11583
11572 1 11583 11584
11573 1 11584 11585
11574 1 11585 11586
11575 1 11586 11587
11576 1 11587 11588
11577 1 11588 11589
11578 1 11589 11590
11579 1 11590 11591
11580 1 11591 11592
11581 1 11592 11593
11582 1 11593 11594
11583 1 11594 11595
11584 1 11595 11596
11585 1 11596 11597
11586 1 11597 11598
11587 1 11598 11599
11588 1 11599 11600
11589 1 11600 11601
11590 1 11601 11602
11591 1 11602 11603
11592 1 11603 11604
11593 1 11604 11605
11594 1 11605 11606
11595 1 11606 11607
11596 1 11607 11608
11597 1 11608 11609
11598 1 11609 11610
11599 1 11610 11611
11600 1 11611 11612
11601 1 11612 11613
11602 1 11613 11614
11603 1 11614 11615
11604 1 11615 11616
11605 1 11616 11617
11606 1 11617 11618
11607 1 11618 11619
11608 1 11619 11620
11609 1 11620 11621
11610 1 11621 11622
11611 1 11622 11623
11612 1 11623 11624
11613 1 11624 11625
11614 1 11625 11626
11615 1 11626 11627
11616 1 11627 11628
11617 1 11628 11629
11618 1 11629 11630
11619 1 11630 11631
11620 1 11631 11632
11621 1 11632 11633
11622 1 11633 11634
11623 1 11634 11635
11624 1 11635 11636
11625 1 11636 11637
11626 1 11637 11638
11627 1 11638 11639
11628 1 11639 11640
11629 1 11640 11641
11630 1 11641 11642
11631 1 11642 11643
11632 1 11643 11644
11633 1 11644 11645
11634 1 11645 11646
11635 1 11646 11647
11636 1 11647 11648
11637 1 11648 11649
11638 1 11649 11650
11639 1 11650 11651
11640 1 11651 11652
11641 1 11652 11653
11642 1 11653 11654
11643 1 11654 11655
11644 1 11655 11656
11645 1 11656 11657
11646 1 11657 11658
11647 1 11658 11659
11648 1 11659 11660
11649 1 11660 11661
11650 1 11661 11662
11651 1 11662 11663
11652 1 11663 11664
11653 1 11664 11665
11654 1 11665 11666
11655 1 11666 11667
11656 1 11667 11668
11657 1 11668 11669
11658 1 11669 11670
11659 1 11670 11671
11660 1 11671 11672
11661 1 11672 11673
11662 1 11673 11674
11663 1 11674 11675
11664 1 11675 11676
11665 1 11676 11677
11666 1 11677 11678
11667 1 11678 11679
11668 1 11679 11680
11669 1 11680 11681
11670 1 11681 11682
11671 1 11682 11683
11672 1 11683 11684
11673 1 11684 11685
11674 1 11685 11686
11675 1 11686 11687
11676 1 11687 11688
11677 1 11688 11689
11678 1 11689 11690
11679 1 11690 11691
11680 1 11691 11692
11681 1 11692 11693
11682 1 11693 11694
11683 1 11694 11695
11684 1 11695 11696
11685 1 11696 11697
11686 1 11697 11698
11687 1 11698 11699
11688 1 11699 11700
11689 1 11700 11701
11690 1 11701 11702
11691 1 11702 11703
11692 1 11703 11704
11693 1 11704 11705
11694 1 11705 11706
11695 1 11706 11707
11696 1 11707 11708
11697 1 11708 11709
11698 1 11709 11710
11699 1 11710 11711
11700 1 11711 11712
11701 1 11712 11713
11702 1 11713 11714
11703 1 11714 11715
11704 1 11715 11716
11705 1 11716 11717
11706 1 11717 11718
11707 1 11718 11719
11708 1 11719 11720
11709 1 11720 11721
11710 1 11721 11722
11711 1 11722 11723
11712 1 11723 11724
11713 1 11724 11725
11714 1 11725 11726
11715 1 11726 11727
11716 1 11727 11728
11717 1 11728 11729
11718 1 11729 11730
11719 1 11730 11731
11720 1 11731 11732
11721 1 11732 11733
11722 1 11733 11734
11723 1 11734 11735
11724 1 11735 11736
11725 1 11736 11737
11726 1 11737 11738
11727 1 11738 11739
11728 1 11739 11740
11729 1 11740 11741
11730 1 11741 11742
11731 1 11742 11743
11732 1 11743 11744
11733 1 11744 11745
11734 1 11745 11746
11735 1 11746 11747
11736 1 11747 11748
11737 1 11748 11749
11738 1 11749 11750
11739 1 11750 11751
11740 1 11751 11752
11741 1 11752 11753
11742 1 11753 11754
11743 1 11754 11755
11744 1 11755 11756
11745 1 11756 11757
11746 1 11757 11758
11747 1 11758 11759
11748 1 11759 11760
11749 1 11760 11761
11750 1 11761 11762
11751 1 11762 11763
11752 1 11763 11764
11753 1 11764 11765
11754 1 11765 11766
11755 1 11766 11767
11756 1 11767 11768
11757 1 11768 11769
11758 1 11769 11770
11759 1 11770 11771
11760 1 11771 11772
11761 1 11772 11773
11762 1 11773 11774
11763 1 11774 11775
11764 1 11775 11776
11765 1 11776 11777
11766 1 11777 11778
11767 1 11778 11779
11768 1 11779 11780
11769 1 11780 11781
11770 1 11781 11782
11771 1 11782 11783
11772 1 11783 11784
11773 1 11784 11785
11774 1 11785 11786
11775 1 11786 11787
11776 1 11787 11788
11777 1 11788 11789
11778 1 11789 11790
11779 1 11790 11791
11780 1 11791 11792
11781 1 11792 11793
11782 1 11793 11794
11783 1 11794 11795
11784 1 11795 11796
11785 1 11796 11797
11786 1 11797 11798
11787 1 11798 11799
11788 1 11799 11800
11789 1 11800 11801
11790 1 11801 11802
11791 1 11802 11803
11792 1 11803 11804
11793 1 11804 11805
11794 1 11805 11806
11795 1 11806 11807
11796 1 11807 11808
11797 1 11808 11809
11798 1 11809 11810
11799 1 11810 11811
11800 1 11811 11812
11801 1 11812 11813
11802 1 11813 11814
11803 1 11814 11815
11804 1 11815 11816
11805 1 11816 11817
11806 1 11817 11818
11807 1 11818 11819
11808 1 11819 11820
11809 1 11820 11821
11810 1 11821 11822
11811 1 11822 11823
11812 1 11823 11824
11813 1 11824 11825
11814 1 11825 11826
11815 1 11826 11827
11816 1 11827 11828
11817 1 11828 11829
11818 1 11829 11830
11819 1 11830 11831
11820 1 11831 11832
11821 1 11832 11833
11822 1 11833 11834
11823 1 11834 11835
11824 1 11835 11836
11825 1 11836 11837
11826 1 11837 11838
11827 1 11838 11839
11828 1 11839 11840
11829 1 11840 11841
11830 1 11841 11842
11831 1 11842 11843
11832 1 11843 11844
11833 1 11844 11845
11834 1 11845 11846
11835 1 11846 11847
11836 1 11847 11848
11837 1 11848 11849
11838 1 11849 11850
11839 1 11850 11851
11840 1 11851 11852
11841 1 11852 11853
11842 1 11853 11854
11843 1 11854 11855
11844 1 11855 11856
11845 1 11856 11857
11846 1 11857 11858
11847 1 11858 11859
11848 1 11859 11860
11849 1 11860 11861
11850 1 11861 11862
11851 1 11862 11863
11852 1 11863 11864
11853 1 11864 11865
11854 1 11865 11866
11855 1 11866 11867
11856 1 11867 11868
11857 1 11868 11869
11858 1 11869 11870
11859 1 11870 11871
11860 1 11871 11872
11861 1 11872 11873
11862 1 11873 11874
11863 1 11874 11875
11864 1 11875 11876
11865 1 11876 11877
11866 1 11877 11878
11867 1 11878 11879
11868 1 11879 11880
11869 1 11880 11881
11870 1 11881 11882
11871 1 11882 11883
11872 1 11883 11884
11873 1 11884 11885
11874 1 11885 11886
11875 1 11886 11887
11876 1 11887 11888
11877 1 11888 11889
11878 1 11889 11890
11879 1 11890 11891
11880 1 11891 11892
11881 1 11892 11893
11882 1 11893 11894
11883 1 11894 11895
11884 1 11895 11896
11885 1 11896 11897
11886 1 11897 11898
11887 1 11898 11899
11888 1 11899 11900
11889 1 11900 11901
11890 1 11901 11902
11891 1 11902 11903
11892 1 11903 11904
11893 1 11904 11905
11894 1 11905 11906
11895 1 11906 11907
11896 1 11907 11908
11897 1 11908 11909
11898 1 11909 11910
11899 1 11910 11911
11900 1 11911 11912
11901 1 11912 11913
11902 1 11913 11914
11903 1 11914 11915
11904 1 11915 11916
11905 1 11916 11917
11906 1 11917 11918
11907 1 11918 11919
11908 1 11919 11920
11909 1 11920 11921
11910 1 11921 11922
11911 1 11922 11923
11912 1 11923 11924
11913 1 11924 11925
11914 1 11925 11926
11915 1 11926 11927
11916 1 11927 11928
11917 1 11928 11929
11918 1 11929 11930
11919 1 11930 11931
11920 1 11931 11932
11921 1 11932 11933
11922 1 11933 11934
11923 1 11934 11935
11924 1 11935 11936
11925 1 11936 11937
11926 1 11937 11938
11927 1 11938 11939
11928 1 11939 11940
11929 1 11940 11941
11930 1 11941 11942
11931 1 11942 11943
11932 1 11943 11944
11933 1 11944 11945
11934 1 11945 11946
11935 1 11946 11947
11936 1 11947 11948
11937 1 11948 11949
11938 1 11949 11950
11939 1 11950 11951
11940 1 11951 11952
11941 1 11952 11953
11942 1 11953 11954
11943 1 11954 11955
11944 1 11955 11956
11945 1 11956 11957
11946 1 11957 11958
11947 1 11958 11959
11948 1 11959 11960
11949 1 11960 11961
11950 1 11961 11962
11951 1 11962 11963
11952 1 11963 11964
11953 1 11964 11965
11954 1 11965 11966
11955 1 11966 11967
11956 1 11967 11968
11957 1 11968 11969
11958 1 11969 11970
11959 1 11970 11971
11960 1 11971 11972
11961 1 11972 11973
11962 1 11973 11974
11963 1 11974 11975
11964 1 11975 11976
11965 1 11976 11977
11966 1 11977 11978
11967 1 11978 11979
11968 1 11979 11980
11969 1 11980 11981
11970 1 11981 11982
11971 1 11982 11983
11972 1 11983 11984
11973 1 11984 11985
11974 1 11985 11986
11975 1 11986 11987
11976 1 11987 11988
11977 1 11988 11989
11978 1 11989 11990
11979 1 11990 11991
11980 1 11991 11992
11981 1 11992 11993
11982 1 11993 11994
11983 1 11994 11995
11984 1 11995 11996
11985 1 11996 11997
11986 1 11997 11998
11987 1 11998 11999
11988 1 11999 12000
11989 1 12001 12002
11990 1 12002 12003
11991 1 12003 12004
11992 1 12004 12005
11993 1 12005 12006
11994 1 12006 12007
11995 1 12007 12008
11996 1 12008 12009
11997 1 12009 12010
11998 1 12010 12011
11999 1 12011 12012
12000 1 12012 12013
12001 1 12013 12014
12002 1 12014 12015
12003 1 12015 12016
12004 1 12016 12017
12005 1 12017 12018
12006 1 12018 12019
12007 1 12019 12020
12008 1 12020 12021
12009 1 12021 12022
12010 1 12022 12023
12011 1 12023 12024
12012 1 12024 12025
12013 1 12025 12026
12014 1 12026 12027
12015 1 12027 12028
12016 1 12028 12029
12017 1 12029 12030
12018 1 12030 12031
12019 1 12031 12032
12020 1 12032 12033
12021 1 12033 12034
12022 1 12034 12035
12023 1 12035 12036
12024 1 12036 12037
12025 1 12037 12038
12026 1 12038 12039
12027 1 12039 12040
12028 1 12040 12041
12029 1 12041 12042
12030 1 12042 12043
12031 1 12043 12044
12032 1 12044 12045
12033 1 12045 12046
12034 1 12046 12047
12035 1 12047 12048
12036 1 12048 12049
12037 1 12049 12050
12038 1 12050 12051
12039 1 12051 12052
12040 1 12052 12053
12041 1 12053 12054
12042 1 12054 12055
12043 1 12055 12056
12044 1 12056 12057
12045 1 12057 12058
12046 1 12058 12059
12047 1 12059 12060
12048 1 12060 12061
12049 1 12061 12062
12050 1 12062 12063
12051 1 12063 12064
12052 1 12064 12065
12053 1 12065 12066
12054 1 12066 12067
12055 1 12067 12068
12056 1 12068 12069
12057 1 12069 12070
12058 1 12070 12071
12059 1 12071 12072
12060 1 12072 12073
12061 1 12073 12074
12062 1 12074 12075
12063 1 12075 12076
12064 1 12076 12077
12065 1 12077 12078
12066 1 12078 12079
12067 1 12079 12080
12068 1 12080 12081
12069 1 12081 12082
12070 1 12082 12083
12071 1 12083 12084
12072 1 12084 12085
12073 1 12085 12086
12074 1 12086 12087
12075 1 12087 12088
12076 1 12088 12089
12077 1 12089 12090
12078 1 12090 12091
12079 1 12091 12092
12080 1 12092 12093
12081 1 12093 12094
12082 1 12094 12095
12083 1 12095 12096
12084 1 12096 12097
12085 1 12097 12098
12086 1 12098 12099
12087 1 12099 12100
12088 1 12100 12101
12089 1 12101 12102
12090 1 12102 12103
12091 1 12103 12104
12092 1 12104 12105
12093 1 12105 12106
12094 1 12106 12107
12095 1 12107 12108
12096 1 12108 12109
12097 1 12109 12110
12098 1 12110 12111
12099 1 12111 12112
12100 1 12112 12113
12101 1 12113 12114
12102 1 12114 12115
12103 1 12115 12116
12104 1 12116 12117
12105 1 12117 12118
12106 1 12118 12119
12107 1 12119 12120
12108 1 12120 12121
12109 1 12121 12122
12110 1 12122 12123
12111 1 12123 12124
12112 1 12124 12125
12113 1 12125 12126
12114 1 12126 12127
12115 1 12127 12128
12116 1 12128 12129
12117 1 12129 12130
12118 1 12130 12131
12119 1 12131 12132
12120 1 12132 12133
12121 1 12133 12134
12122 1 12134 12135
12123 1 12135 12136
12124 1 12136 12137
12125 1 12137 12138
12126 1 12138 12139
12127 1 12139 12140
12128 1 12140 12141
12129 1 12141 12142
12130 1 12142 12143
12131 1 12143 12144
12132 1 12144 12145
12133 1 12145 12146
12134 1 12146 12147
12135 1 12147 12148
12136 1 12148 12149
12137 1 12149 12150
12138 1 12150 12151
12139 1 12151 12152
12140 1 12152 12153
12141 1 12153 12154
12142 1 12154 12155
12143 1 12155 12156
12144 1 12156 12157
12145 1 12157 12158
12146 1 12158 12159
12147 1 12159 12160
12148 1 12160 12161
12149 1 12161 12162
12150 1 12162 12163
12151 1 12163 12164
12152 1 12164 12165
12153 1 12165 12166
12154 1 12166 12167
12155 1 12167 12168
12156 1 12168 12169
12157 1 12169 12170
12158 1 12170 12171
12159 1 12171 12172
12160 1 12172 12173
12161 1 12173 12174
12162 1 12174 12175
12163 1 12175 12176
12164 1 12176 12177
12165 1 12177 12178
12166 1 12178 12179
12167 1 12179 12180
12168 1 12180 12181
12169 1 12181 12182
12170 1 12182 12183
12171 1 12183 12184
12172 1 12184 12185
12173 1 12185 12186
12174 1 12186 12187
12175 1 12187 12188
12176 1 12188 12189
12177 1 12189 12190
12178 1 12190 12191
12179 1 12191 12192
12180 1 12192 12193
12181 1 12193 12194
12182 1 12194 12195
12183 1 12195 12196
12184 1 12196 12197
12185 1 12197 12198
12186 1 12198 12199
12187 1 12199 12200
12188 1 12200 12201
12189 1 12201 12202
12190 1 12202 12203
12191 1 12203 12204
12192 1 12204 12205
12193 1 12205 12206
12194 1 12206 12207
12195 1 12207 12208
12196 1 12208 12209
12197 1 12209 12210
12198 1 12210 12211
12199 1 12211 12212
12200 1 12212 12213
12201 1 12213 12214
12202 1 12214 12215
12203 1 12215 12216
12204 1 12216 12217
12205 1 12217 12218
12206 1 12218 12219
12207 1 12219 12220
12208 1 12220 12221
12209 1 12221 12222
12210 1 12222 12223
12211 1 12223 12224
12212 1 12224 12225
12213 1 12225 12226
12214 1 12226 12227
12215 1 12227 12228
12216 1 12228 12229
12217 1 12229 12230
12218 1 12230 12231
12219 1 12231 12232
12220 1 12232 12233
12221 1 12233 12234
12222 1 12234 12235
12223 1 12235 12236
12224 1 12236 12237
12225 1 12237 12238
12226 1 12238 12239
12227 1 12239 12240
12228 1 12240 12241
12229 1 12241 12242
12230 1 12242 12243
12231 1 12243 12244
12232 1 12244 12245
12233 1 12245 12246
12234 1 12246 12247
12235 1 12247 12248
12236 1 12248 12249
12237 1 12249 12250
12238 1 12250 12251
12239 1 12251 12252
12240 1 12252 12253
12241 1 12253 12254
12242 1 12254 12255
12243 1 12255 12256
12244 1 12256 12257
12245 1 12257 12258
12246 1 12258 12259
12247 1 12259 12260
12248 1 12260 12261
12249 1 12261 12262
12250 1 12262 12263
12251 1 12263 12264
12252 1 12264 12265
12253 1 12265 12266
12254 1 12266 12267
12255 1 12267 12268
12256 1 12268 12269
12257 1 12269 12270
12258 1 12270 12271
12259 1 12271 12272
12260 1 12272 12273
12261 1 12273 12274
12262 1 12274 12275
12263 1 12275 12276
12264 1 12276 12277
12265 1 12277 12278
12266 1 12278 12279
12267 1 12279 12280
12268 1 12280 12281
12269 1 12281 12282
12270 1 12282 12283
12271 1 12283 12284
12272 1 12284 12285
12273 1 12285 12286
12274 1 12286 12287
12275 1 12287 12288
12276 1 12288 12289
12277 1 12289 12290
12278 1 12290 12291
12279 1 12291 12292
12280 1 12292 12293
12281 1 12293 12294
12282 1 12294 12295
12283 1 12295 12296
12284 1 12296 12297
12285 1 12297 12298
12286 1 12298 12299
12287 1 12299 12300
12288 1 12300 12301
12289 1 12301 12302
12290 1 12302 12303
12291 1 12303 12304
12292 1 12304 12305
12293 1 12305 12306
12294 1 12306 12307
12295 1 12307 12308
12296 1 12308 12309
12297 1 12309 12310
12298 1 12310 12311
12299 1 12311 12312
12300 1 12312 12313
12301 1 12313 12314
12302 1 12314 12315
12303 1 12315 12316
12304 1 12316 12317
12305 1 12317 12318
12306 1 12318 12319
12307 1 12319 12320
12308 1 12320 12321
12309 1 12321 12322
12310 1 12322 12323
12311 1 12323 12324
12312 1 12324 12325
12313 1 12325 12326
12314 1 12326 12327
12315 1 12327 12328
12316 1 12328 12329
12317 1 12329 12330
12318 1 12330 12331
12319 1 12331 12332
12320 1 12332 12333
12321 1 12333 12334
12322 1 12334 12335
12323 1 12335 12336
12324 1 12336 12337
12325 1 12337 12338
12326 1 12338 12339
12327 1 12339 12340
12328 1 12340 12341
12329 1 12341 12342
12330 1 12342 12343
12331 1 12343 12344
12332 1 12344 12345
12333 1 12345 12346
12334 1 12346 12347
12335 1 12347 12348
12336 1 12348 12349
12337 1 12349 12350
12338 1 12350 12351
12339 1 12351 12352
12340 1 12352 12353
12341 1 12353 12354
12342 1 12354 12355
12343 1 12355 12356
12344 1 12356 12357
12345 1 12357 12358
12346 1 12358 12359
12347 1 12359 12360
12348 1 12360 12361
12349 1 12361 12362
12350 1 12362 12363
12351 1 12363 12364
12352 1 12364 12365
12353 1 12365 12366
12354 1 12366 12367
12355 1 12367 12368
12356 1 12368 12369
12357 1 12369 12370
12358 1 12370 12371
12359 1 12371 12372
12360 1 12372 12373
12361 1 12373 12374
12362 1 12374 12375
12363 1 12375 12376
12364 1 12376 12377
12365 1 12377 12378
12366 1 12378 12379
12367 1 12379 12380
12368 1 12380 12381
12369 1 12381 12382
12370 1 12382 12383
12371 1 12383 12384
12372 1 12384 12385
12373 1 12385 12386
12374 1 12386 12387
12375 1 12387 12388
12376 1 12388 12389
12377 1 12389 12390
12378 1 12390 12391
12379 1 12391 12392
12380 1 12392 12393
12381 1 12393 12394
12382 1 12394 12395
12383 1 12395 12396
12384 1 12396 12397
12385 1 12397 12398
12386 1 12398 12399
12387 1 12399 12400
12388 1 12400 12401
12389 1 12401 12402
12390 1 12402 12403
12391 1 12403 12404
12392 1 12404 12405
12393 1 12405 12406
12394 1 12406 12407
12395 1 12407 12408
12396 1 12408 12409
12397 1 12409 12410
12398 1 12410 12411
12399 1 12411 12412
12400 1 12412 12413
12401 1 12413 12414
12402 1 12414 12415
12403 1 12415 12416
12404 1 12416 12417
12405 1 12417 12418
12406 1 12418 12419
12407 1 12419 12420
12408 1 12420 12421
12409 1 12421 12422
12410 1 12422 12423
12411 1 12423 12424
12412 1 12424 12425
12413 1 12425 12426
12414 1 12426 12427
12415 1 12427 12428
12416 1 12428 12429
12417 1 12429 12430
12418 1 12430 12431
12419 1 12431 12432
12420 1 12432 12433
12421 1 12433 12434
12422 1 12434 12435
12423 1 12435 12436
12424 1 12436 12437
12425 1 12437 12438
12426 1 12438 12439
12427 1 12439 12440
12428 1 12440 12441
12429 1 12441 12442
12430 1 12442 12443
12431 1 12443 12444
12432 1 12444 12445
12433 1 12445 12446
12434 1 12446 12447
12435 1 12447 12448
12436 1 12448 12449
12437 1 12449 12450
12438 1 12450 12451
12439 1 12451 12452
12440 1 12452 12453
12441 1 12453 12454
12442 1 12454 12455
12443 1 12455 12456
12444 1 12456 12457
12445 1 12457 12458
12446 1 12458 12459
12447 1 12459 12460
12448 1 12460 12461
12449 1 12461 12462
12450 1 12462 12463
12451 1 12463 12464
12452 1 12464 12465
12453 1 12465 12466
12454 1 12466 12467
12455 1 12467 12468
12456 1 12468 12469
12457 1 12469 12470
12458 1 12470 12471
12459 1 12471 12472
12460 1 12472 12473
12461 1 12473 12474
12462 1 12474 12475
12463 1 12475 12476
12464 1 12476 12477
12465 1 12477 12478
12466 1 12478 12479
12467 1 12479 12480
12468 1 12480 12481
12469 1 12481 12482
12470 1 12482 12483
12471 1 12483 12484
12472 1 12484 12485
12473 1 12485 12486
12474 1 12486 12487
12475 1 12487 12488
12476 1 12488 12489
12477 1 12489 12490
12478 1 12490 12491
12479 1 12491 12492
12480 1 12492 12493
12481 1 12493 12494
12482 1 12494 12495
12483 1 12495 12496
12484 1 12496 12497
12485 1 12497 12498
12486 1 12498 12499
12487 1 12499 12500
12488 1 12500 12501
12489 1 12501 12502
12490 1 12502 12503
12491 1 12503 12504
12492 1 12504 12505
12493 1 12505 12506
12494 1 12506 12507
12495 1 12507 12508
12496 1 12508 12509
12497 1 12509 12510
12498 1 12510 12511
12499 1 12511 12512
12500 1 12512 12513
12501 1 12513 12514
12502 1 12514 12515
12503 1 12515 12516
12504 1 12516 12517
12505 1 12517 12518
12506 1 12518 12519
12507 1 12519 12520
12508 1 12520 12521
12509 1 12521 12522
12510 1 12522 12523
12511 1 12523 12524
12512 1 12524 12525
12513 1 12525 12526
12514 1 12526 12527
12515 1 12527 12528
12516 1 12528 12529
12517 1 12529 12530
12518 1 12530 12531
12519 1 12531 12532
12520 1 12532 12533
12521 1 12533 12534
12522 1 12534 12535
12523 1 12535 12536
12524 1 12536 12537
12525 1 12537 12538
12526 1 12538 12539
12527 1 12539 12540
12528 1 12540 12541
12529 1 12541 12542
12530 1 12542 12543
12531 1 12543 12544
12532 1 12544 12545
12533 1 12545 12546
12534 1 12546 12547
12535 1 12547 12548
12536 1 12548 12549
12537 1 12549 12550
12538 1 12550 12551
12539 1 12551 12552
12540 1 12552 12553
12541 1 12553 12554
12542 1 12554 12555
12543 1 12555 12556
12544 1 12556 12557
12545 1 12557 12558
12546 1 12558 12559
12547 1 12559 12560
12548 1 12560 12561
12549 1 12561 12562
12550 1 12562 12563
12551 1 12563 12564
12552 1 12564 12565
12553 1 12565 12566
12554 1 12566 12567
12555 1 12567 12568
12556 1 12568 12569
12557 1 12569 12570
12558 1 12570 12571
12559 1 12571 12572
12560 1 12572 12573
12561 1 12573 12574
12562 1 12574 12575
12563 1 12575 12576
12564 1 12576 12577
12565 1 12577 12578
12566 1 12578 12579
12567 1 12579 12580
12568 1 12580 12581
12569 1 12581 12582
12570 1 12582 12583
12571 1 12583 12584
12572 1 12584 12585
12573 1 12585 12586
12574 1 12586 12587
12575 1 12587 12588
12576 1 12588 12589
12577 1 12589 12590
12578 1 12590 12591
12579 1 12591 12592
12580 1 12592 12593
12581 1 12593 12594
12582 1 12594 12595
12583 1 12595 12596
12584 1 12596 12597
12585 1 12597 12598
12586 1 12598 12599
12587 1 12599 12600
12588 1 12600 12601
12589 1 12601 12602
12590 1 12602 12603
12591 1 12603 12604
12592 1 12604 12605
12593 1 12605 12606
12594 1 12606 12607
12595 1 12607 12608
12596 1 12608 12609
12597 1 12609 12610
12598 1 12610 12611
12599 1 12611 12612
12600 1 12612 12613
12601 1 12613 12614
12602 1 12614 12615
12603 1 12615 12616
12604 1 12616 12617
12605 1 12617 12618
12606 1 12618 12619
12607 1 12619 12620
12608 1 12620 12621
12609 1 12621 12622
12610 1 12622 12623
12611 1 12623 12624
12612 1 12624 12625
12613 1 12625 12626
12614 1 12626 12627
12615 1 12627 12628
12616 1 12628 12629
12617 1 12629 12630
12618 1 12630 12631
12619 1 12631 12632
12620 1 12632 12633
12621 1 12633 12634
12622 1 12634 12635
12623 1 12635 12636
12624 1 12636 12637
12625 1 12637 12638
12626 1 12638 12639
12627 1 12639 12640
12628 1 12640 12641
12629 1 12641 12642
12630 1 12642 12643
12631 1 12643 12644
12632 1 12644 12645
12633 1 12645 12646
12634 1 12646 12647
12635 1 12647 12648
12636 1 12648 12649
12637 1 12649 12650
12638 1 12650 12651
12639 1 12651 12652
12640 1 12652 12653
12641 1 12653 12654
12642 1 12654 12655
12643 1 12655 12656
12644 1 12656 12657
12645 1 12657 12658
12646 1 12658 12659
12647 1 12659 12660
12648 1 12660 12661
12649 1 12661 12662
12650 1 12662 12663
12651 1 12663 12664
12652 1 12664 12665
12653 1 12665 12666
12654 1 12666 12667
12655 1 12667 12668
12656 1 12668 12669
12657 1 12669 12670
12658 1 12670 12671
12659 1 12671 12672
12660 1 12672 12673
12661 1 12673 12674
12662 1 12674 12675
12663 1 12675 12676
12664 1 12676 12677
12665 1 12677 12678
12666 1 12678 12679
12667 1 12679 12680
12668 1 12680 12681
12669 1 12681 12682
12670 1 12682 12683
12671 1 12683 12684
12672 1 12684 12685
12673 1 12685 12686
12674 1 12686 12687
12675 1 12687 12688
12676 1 12688 12689
12677 1 12689 12690
12678 1 12690 12691
12679 1 12691 12692
12680 1 12692 12693
12681 1 12693 12694
12682 1 12694 12695
12683 1 12695 12696
12684 1 12696 12697
12685 1 12697 12698
12686 1 12698 12699
12687 1 12699 12700
12688 1 12700 12701
12689 1 12701 12702
12690 1 12702 12703
12691 1 12703 12704
12692 1 12704 12705
12693 1 12705 12706
12694 1 12706 12707
12695 1 12707 12708
12696 1 12708 12709
12697 1 12709 12710
12698 1 12710 12711
12699 1 12711 12712
12700 1 12712 12713
12701 1 12713 12714
12702 1 12714 12715
12703 1 12715 12716
12704 1 12716 12717
12705 1 12717 12718
12706 1 12718 12719
12707 1 12719 12720
12708 1 12720 12721
12709 1 12721 12722
12710 1 12722 12723
12711 1 12723 12724
12712 1 12724 12725
12713 1 12725 12726
12714 1 12726 12727
12715 1 12727 12728
12716 1 12728 12729
12717 1 12729 12730
12718 1 12730 12731
12719 1 12731 12732
12720 1 12732 12733
12721 1 12733 12734
12722 1 12734 12735
12723 1 12735 12736
12724 1 12736 12737
12725 1 12737 12738
12726 1 12738 12739
12727 1 12739 12740
12728 1 12740 12741
12729 1 12741 12742
12730 1 12742 12743
12731 1 12743 12744
12732 1 12744 12745
12733 1 12745 12746
12734 1 12746 12747
12735 1 12747 12748
12736 1 12748 12749
12737 1 12749 12750
12738 1 12750 12751
12739 1 12751 12752
12740 1 12752 12753
12741 1 12753 12754
12742 1 12754 12755
12743 1 12755 12756
12744 1 12756 12757
12745 1 12757 12758
12746 1 12758 12759
12747 1 12759 12760
12748 1 12760 12761
12749 1 12761 12762
12750 1 12762 12763
12751 1 12763 12764
12752 1 12764 12765
12753 1 12765 12766
12754 1 12766 12767
12755 1 12767 12768
12756 1 12768 12769
12757 1 12769 12770
12758 1 12770 12771
12759 1 12771 12772
12760 1 12772 12773
12761 1 12773 12774
12762 1 12774 12775
12763 1 12775 12776
12764 1 12776 12777
12765 1 12777 12778
12766 1 12778 12779
12767 1 12779 12780
12768 1 12780 12781
12769 1 12781 12782
12770 1 12782 12783
12771 1 12783 12784
12772 1 12784 12785
12773 1 12785 12786
12774 1 12786 12787
12775 1 12787 12788
12776 1 12788 12789
12777 1 12789 12790
12778 1 12790 12791
12779 1 12791 12792
12780 1 12792 12793
12781 1 12793 12794
12782 1 12794 12795
12783 1 12795 12796
12784 1 12796 12797
12785 1 12797 12798
12786 1 12798 12799
12787 1 12799 12800
12788 1 12800 12801
12789 1 12801 12802
12790 1 12802 12803
12791 1 12803 12804
12792 1 12804 12805
12793 1 12805 12806
12794 1 12806 12807
12795 1 12807 12808
12796 1 12808 12809
12797 1 12809 12810
12798 1 12810 12811
12799 1 12811 12812
12800 1 12812 12813
12801 1 12813 12814
12802 1 12814 12815
12803 1 12815 12816
12804 1 12816 12817
12805 1 12817 12818
12806 1 12818 12819
12807 1 12819 12820
12808 1 12820 12821
12809 1 12821 12822
12810 1 12822 12823
12811 1 12823 12824
12812 1 12824 12825
12813 1 12825 12826
12814 1 12826 12827
12815 1 12827 12828
12816 1 12828 12829
12817 1 12829 12830
12818 1 12830 12831
12819 1 12831 12832
12820 1 12832 12833
12821 1 12833 12834
12822 1 12834 12835
12823 1 12835 12836
12824 1 12836 12837
12825 1 12837 12838
12826 1 12838 12839
12827 1 12839 12840
12828 1 12840 12841
12829 1 12841 12842
12830 1 12842 12843
12831 1 12843 12844
12832 1 12844 12845
12833 1 12845 12846
12834 1 12846 12847
12835 1 12847 12848
12836 1 12848 12849
12837 1 12849 12850
12838 1 12850 12851
12839 1 12851 12852
12840 1 12852 12853
12841 1 12853 12854
12842 1 12854 12855
12843 1 12855 12856
12844 1 12856 12857
12845 1 12857 12858
12846 1 12858 12859
12847 1 12859 12860
12848 1 12860 12861
12849 1 12861 12862
12850 1 12862 12863
12851 1 12863 12864
12852 1 12864 12865
12853 1 12865 12866
12854 1 12866 12867
12855 1 12867 12868
12856 1 12868 12869
12857 1 12869 12870
12858 1 12870 12871
12859 1 12871 12872
12860 1 12872 12873
12861 1 12873 12874
12862 1 12874 12875
12863 1 12875 12876
12864 1 12876 12877
12865 1 12877 12878
12866 1 12878 12879
12867 1 12879 12880
12868 1 12880 12881
12869 1 12881 12882
12870 1 12882 12883
12871 1 12883 12884
12872 1 12884 12885
12873 1 12885 12886
12874 1 12886 12887
12875 1 12887 12888
12876 1 12888 12889
12877 1 12889 12890
12878 1 12890 12891
12879 1 12891 12892
12880 1 12892 12893
12881 1 12893 12894
12882 1 12894 12895
12883 1 12895 12896
12884 1 12896 12897
12885 1 12897 12898
12886 1 12898 12899
12887 1 12899 12900
12888 1 12900 12901
12889 1 12901 12902
12890 1 12902 12903
12891 1 12903 12904
12892 1 12904 12905
12893 1 12905 12906
12894 1 12906 12907
12895 1 12907 12908
12896 1 12908 12909
12897 1 12909 12910
12898 1 12910 12911
12899 1 12911 12912
12900 1 12912 12913
12901 1 12913 12914
12902 1 12914 12915
12903 1 12915 12916
12904 1 12916 12917
12905 1 12917 12918
12906 1 12918 12919
12907 1 12919 12920
12908 1 12920 12921
12909 1 12921 12922
12910 1 12922 12923
12911 1 12923 12924
12912 1 12924 12925
12913 1 12925 12926
12914 1 12926 12927
12915 1 12927 12928
12916 1 12928 12929
12917 1 12929 12930
12918 1 12930 12931
12919 1 12931 12932
12920 1 12932 12933
12921 1 12933 12934
12922 1 12934 12935
12923 1 12935 12936
12924 1 12936 12937
12925 1 12937 12938
12926 1 12938 12939
12927 1 12939 12940
12928 1 12940 12941
12929 1 12941 12942
12930 1 12942 12943
12931 1 12943 12944
12932 1 12944 12945
12933 1 12945 12946
12934 1 12946 12947
12935 1 12947 12948
12936 1 12948 12949
12937 1 12949 12950
12938 1 12950 12951
12939 1 12951 12952
12940 1 12952 12953
12941 1 12953 12954
12942 1 12954 12955
12943 1 12955 12956
12944 1 12956 12957
12945 1 12957 12958
12946 1 12958 12959
12947 1 12959 12960
12948 1 12960 12961
12949 1 12961 12962
12950 1 12962 12963
12951 1 12963 12964
12952 1 12964 12965
12953 1 12965 12966
12954 1 12966 12967
12955 1 12967 12968
12956 1 12968 12969
12957 1 12969 12970
12958 1 12970 12971
12959 1 12971 12972
12960 1 12972 12973
12961 1 12973 12974
12962 1 12974 12975
12963 1 12975 12976
12964 1 12976 12977
12965 1 12977 12978
12966 1 12978 12979
12967 1 12979 12980
12968 1 12980 12981
12969 1 12981 12982
12970 1 12982 12983
12971 1 12983 12984
12972 1 12984 12985
12973 1 12985 12986
12974 1 12986 12987
12975 1 12987 12988
12976 1 12988 12989
12977 1 12989 12990
12978 1 12990 12991
12979 1 12991 12992
12980 1 12992 12993
12981 1 12993 12994
12982 1 12994 12995
12983 1 12995 12996
12984 1 12996 12997
12985 1 12997 12998
12986 1 12998 12999
12987 1 12999 13000
12988 1 13001 13002
12989 1 13002 13003
12990 1 13003 13004
12991 1 13004 13005
12992 1 13005 13006
12993 1 13006 13007
12994 1 13007 13008
12995 1 13008 13009
12996 1 13009 13010
12997 1 13010 13011
12998 1 13011 13012
12999 1 13012 13013
13000 1 13013 13014
13001 1 13014 13015
13002 1 13015 13016
13003 1 13016 13017
13004 1 13017 13018
13005 1 13018 13019
13006 1 13019 13020
13007 1 13020 13021
13008 1 13021 13022
13009 1 13022 13023
13010 1 13023 13024
13011 1 13024 13025
13012 1 13025 13026
13013 1 13026 13027
13014 1 13027 13028
13015 1 13028 13029
13016 1 13029 13030
13017 1 13030 13031
13018 1 13031 13032
13019 1 13032 13033
13020 1 13033 13034
13021 1 13034 13035
13022 1 13035 13036
13023 1 13036 13037
13024 1 13037 13038
13025 1 13038 13039
13026 1 13039 13040
13027 1 13040 13041
13028 1 13041 13042
13029 1 13042 13043
13030 1 13043 13044
13031 1 13044 13045
13032 1 13045 13046
13033 1 13046 13047
13034 1 13047 13048
13035 1 13048 13049
13036 1 13049 13050
13037 1 13050 13051
13038 1 13051 13052
13039 1 13052 13053
13040 1 13053 13054
13041 1 13054 13055
13042 1 13055 13056
13043 1 13056 13057
13044 1 13057 13058
13045 1 13058 13059
13046 1 13059 13060
13047 1 13060 13061
13048 1 13061 13062
13049 1 13062 13063
13050 1 13063 13064
13051 1 13064 13065
13052 1 13065 13066
13053 1 13066 13067
13054 1 13067 13068
13055 1 13068 13069
13056 1 13069 13070
13057 1 13070 13071
13058 1 13071 13072
13059 1 13072 13073
13060 1 13073 13074
13061 1 13074 13075
13062 1 13075 13076
13063 1 13076 13077
13064 1 13077 13078
13065 1 13078 13079
13066 1 13079 13080
13067 1 13080 13081
13068 1 13081 13082
13069 1 13082 13083
13070 1 13083 13084
13071 1 13084 13085
13072 1 13085 13086
13073 1 13086 13087
13074 1 13087 13088
13075 1 13088 13089
13076 1 13089 13090
13077 1 13090 13091
13078 1 13091 13092
13079 1 13092 13093
13080 1 13093 13094
13081 1 13094 13095
13082 1 13095 13096
13083 1 13096 13097
13084 1 13097 13098
13085 1 13098 13099
13086 1 13099 13100
13087 1 13100 13101
13088 1 13101 13102
13089 1 13102 13103
13090 1 13103 13104
13091 1 13104 13105
13092 1 13105 13106
13093 1 13106 13107
13094 1 13107 13108
13095 1 13108 13109
13096 1 13109 13110
13097 1 13110 13111
13098 1 13111 13112
13099 1 13112 13113
13100 1 13113 13114
13101 1 13114 13115
13102 1 13115 13116
13103 1 13116 13117
13104 1 13117 13118
13105 1 13118 13119
13106 1 13119 13120
13107 1 13120 13121
13108 1 13121 13122
13109 1 13122 13123
13110 1 13123 13124
13111 1 13124 13125
13112 1 13125 13126
13113 1 13126 13127
13114 1 13127 13128
13115 1 13128 13129
13116 1 13129 13130
13117 1 13130 13131
13118 1 13131 13132
13119 1 13132 13133
13120 1 13133 13134
13121 1 13134 13135
13122 1 13135 13136
13123 1 13136 13137
13124 1 13137 13138
13125 1 13138 13139
13126 1 13139 13140
13127 1 13140 13141
13128 1 13141 13142
13129 1 13142 13143
13130 1 13143 13144
13131 1 13144 13145
13132 1 13145 13146
13133 1 13146 13147
13134 1 13147 13148
13135 1 13148 13149
13136 1 13149 13150
13137 1 13150 13151
13138 1 13151 13152
13139 1 13152 13153
13140 1 13153 13154
13141 1 13154 13155
13142 1 13155 13156
13143 1 13156 13157
13144 1 13157 13158
13145 1 13158 13159
13146 1 13159 13160
13147 1 13160 13161
13148 1 13161 13162
13149 1 13162 13163
13150 1 13163 13164
13151 1 13164 13165
13152 1 13165 13166
13153 1 13166 13167
13154 1 13167 13168
13155 1 13168 13169
13156 1 13169 13170
13157 1 13170 13171
13158 1 13171 13172
13159 1 13172 13173
13160 1 13173 13174
13161 1 13174 13175
13162 1 13175 13176
13163 1 13176 13177
13164 1 13177 13178
13165 1 13178 13179
13166 1 13179 13180
13167 1 13180 13181
13168 1 13181 13182
13169 1 13182 13183
13170 1 13183 13184
13171 1 13184 13185
13172 1 13185 13186
13173 1 13186 13187
13174 1 13187 13188
13175 1 13188 13189
13176 1 13189 13190
13177 1 13190 13191
13178 1 13191 13192
13179 1 13192 13193
13180 1 13193 13194
13181 1 13194 13195
13182 1 13195 13196
13183 1 13196 13197
13184 1 13197 13198
13185 1 13198 13199
13186 1 13199 13200
13187 1 13200 13201
13188 1 13201 13202
13189 1 13202 13203
13190 1 13203 13204
13191 1 13204 13205
13192 1 13205 13206
13193 1 13206 13207
13194 1 13207 13208
13195 1 13208 13209
13196 1 13209 13210
13197 1 13210 13211
13198 1 13211 13212
13199 1 13212 13213
13200 1 13213 13214
13201 1 13214 13215
13202 1 13215 13216
13203 1 13216 13217
13204 1 13217 13218
13205 1 13218 13219
13206 1 13219 13220
13207 1 13220 13221
13208 1 13221 13222
13209 1 13222 13223
13210 1 13223 13224
13211 1 13224 13225
13212 1 13225 13226
13213 1 13226 13227
13214 1 13227 13228
13215 1 13228 13229
13216 1 13229 13230
13217 1 13230 13231
13218 1 13231 13232
13219 1 13232 13233
13220 1 13233 13234
13221 1 13234 13235
13222 1 13235 13236
13223 1 13236 13237
13224 1 13237 13238
13225 1 13238 13239
13226 1 13239 13240
13227 1 13240 13241
13228 1 13241 13242
13229 1 13242 13243
13230 1 13243 13244
13231 1 13244 13245
13232 1 13245 13246
13233 1 13246 13247
13234 1 13247 13248
13235 1 13248 13249
13236 1 13249 13250
13237 1 13250 13251
13238 1 13251 13252
13239 1 13252 13253
13240 1 13253 13254
13241 1 13254 13255
13242 1 13255 13256
13243 1 13256 13257
13244 1 13257 13258
13245 1 13258 13259
13246 1 13259 13260
13247 1 13260 13261
13248 1 13261 13262
13249 1 13262 13263
13250 1 13263 13264
13251 1 13264 13265
13252 1 13265 13266
13253 1 13266 13267
13254 1 13267 13268
13255 1 13268 13269
13256 1 13269 13270
13257 1 13270 13271
13258 1 13271 13272
13259 1 13272 13273
13260 1 13273 13274
13261 1 13274 13275
13262 1 13275 13276
13263 1 13276 13277
13264 1 13277 13278
13265 1 13278 13279
13266 1 13279 13280
13267 1 13280 13281
13268 1 13281 13282
13269 1 13282 13283
13270 1 13283 13284
13271 1 13284 13285
13272 1 13285 13286
13273 1 13286 13287
13274 1 13287 13288
13275 1 13288 13289
13276 1 13289 13290
13277 1 13290 13291
13278 1 13291 13292
13279 1 13292 13293
13280 1 13293 13294
13281 1 13294 13295
13282 1 13295 13296
13283 1 13296 13297
13284 1 13297 13298
13285 1 13298 13299
13286 1 13299 13300
13287 1 13300 13301
13288 1 13301 13302
13289 1 13302 13303
13290 1 13303 13304
13291 1 13304 13305
13292 1 13305 13306
13293 1 13306 13307
13294 1 13307 13308
13295 1 13308 13309
13296 1 13309 13310
13297 1 13310 13311
13298 1 13311 13312
13299 1 13312 13313
13300 1 13313 13314
13301 1 13314 13315
13302 1 13315 13316
13303 1 13316 13317
13304 1 13317 13318
13305 1 13318 13319
13306 1 13319 13320
13307 1 13320 13321
13308 1 13321 13322
13309 1 13322 13323
13310 1 13323 13324
13311 1 13324 13325
13312 1 13325 13326
13313 1 13326 13327
13314 1 13327 13328
13315 1 13328 13329
13316 1 13329 13330
13317 1 13330 13331
13318 1 13331 13332
13319 1 13332 13333
13320 1 13333 13334
13321 1 13334 13335
13322 1 13335 13336
13323 1 13336 13337
13324 1 13337 13338
13325 1 13338 13339
13326 1 13339 13340
13327 1 13340 13341
13328 1 13341 13342
13329 1 13342 13343
13330 1 13343 13344
13331 1 13344 13345
13332 1 13345 13346
13333 1 13346 13347
13334 1 13347 13348
13335 1 13348 13349
13336 1 13349 13350
13337 1 13350 13351
13338 1 13351 13352
13339 1 13352 13353
13340 1 13353 13354
13341 1 13354 13355
13342 1 13355 13356
13343 1 13356 13357
13344 1 13357 13358
13345 1 13358 13359
13346 1 13359 13360
13347 1 13360 13361
13348 1 13361 13362
13349 1 13362 13363
13350 1 13363 13364
13351 1 13364 13365
13352 1 13365 13366
13353 1 13366 13367
13354 1 13367 13368
13355 1 13368 13369
13356 1 13369 13370
13357 1 13370 13371
13358 1 13371 13372
13359 1 13372 13373
13360 1 13373 13374
13361 1 13374 13375
13362 1 13375 13376
13363 1 13376 13377
13364 1 13377 13378
13365 1 13378 13379
13366 1 13379 13380
13367 1 13380 13381
13368 1 13381 13382
13369 1 13382 13383
13370 1 13383 13384
13371 1 13384 13385
13372 1 13385 13386
13373 1 13386 13387
13374 1 13387 13388
13375 1 13388 13389
13376 1 13389 13390
13377 1 13390 13391
13378 1 13391 13392
13379 1 13392 13393
13380 1 13393 13394
13381 1 13394 13395
13382 1 13395 13396
13383 1 13396 13397
13384 1 13397 13398
13385 1 13398 13399
13386 1 13399 13400
13387 1 13400 13401
13388 1 13401 13402
13389 1 13402 13403
13390 1 13403 13404
13391 1 13404 13405
13392 1 13405 13406
13393 1 13406 13407
13394 1 13407 13408
13395 1 13408 13409
13396 1 13409 13410
13397 1 13410 13411
13398 1 13411 13412
13399 1 13412 13413
13400 1 13413 13414
13401 1 13414 13415
13402 1 13415 13416
13403 1 13416 13417
13404 1 13417 13418
13405 1 13418 13419
13406 1 13419 13420
13407 1 13420 13421
13408 1 13421 13422
13409 1 13422 13423
13410 1 13423 13424
13411 1 13424 13425
13412 1 13425 13426
13413 1 13426 13427
13414 1 13427 13428
13415 1 13428 13429
13416 1 13429 13430
13417 1 13430 13431
13418 1 13431 13432
13419 1 13432 13433
13420 1 13433 13434
13421 1 13434 13435
13422 1 13435 13436
13423 1 13436 13437
13424 1 13437 13438
13425 1 13438 13439
13426 1 13439 13440
13427 1 13440 13441
13428 1 13441 13442
13429 1 13442 13443
13430 1 13443 13444
13431 1 13444 13445
13432 1 13445 13446
13433 1 13446 13447
13434 1 13447 13448
13435 1 13448 13449
13436 1 13449 13450
13437 1 13450 13451
13438 1 13451 13452
13439 1 13452 13453
13440 1 13453 13454
13441 1 13454 13455
13442 1 13455 13456
13443 1 13456 13457
13444 1 13457 13458
13445 1 13458 13459
13446 1 13459 13460
13447 1 13460 13461
13448 1 13461 13462
13449 1 13462 13463
13450 1 13463 13464
13451 1 13464 13465
13452 1 13465 13466
13453 1 13466 13467
13454 1 13467 13468
13455 1 13468 13469
13456 1 13469 13470
13457 1 13470 13471
13458 1 13471 13472
13459 1 13472 13473
13460 1 13473 13474
13461 1 13474 13475
13462 1 13475 13476
13463 1 13476 13477
13464 1 13477 13478
13465 1 13478 13479
13466 1 13479 13480
13467 1 13480 13481
13468 1 13481 13482
13469 1 13482 13483
13470 1 13483 13484
13471 1 13484 13485
13472 1 13485 13486
13473 1 13486 13487
13474 1 13487 13488
13475 1 13488 13489
13476 1 13489 13490
13477 1 13490 13491
13478 1 13491 13492
13479 1 13492 13493
13480 1 13493 13494
13481 1 13494 13495
13482 1 13495 13496
13483 1 13496 13497
13484 1 13497 13498
13485 1 13498 13499
13486 1 13499 13500
13487 1 13500 13501
13488 1 13501 13502
13489 1 13502 13503
13490 1 13503 13504
13491 1 13504 13505
13492 1 13505 13506
13493 1 13506 13507
13494 1 13507 13508
13495 1 13508 13509
13496 1 13509 13510
13497 1 13510 13511
13498 1 13511 13512
13499 1 13512 13513
13500 1 13513 13514
13501 1 13514 13515
13502 1 13515 13516
13503 1 13516 13517
13504 1 13517 13518
13505 1 13518 13519
13506 1 13519 13520
13507 1 13520 13521
13508 1 13521 13522
13509 1 13522 13523
13510 1 13523 13524
13511 1 13524 13525
13512 1 13525 13526
13513 1 13526 13527
13514 1 13527 13528
13515 1 13528 13529
13516 1 13529 13530
13517 1 13530 13531
13518 1 13531 13532
13519 1 13532 13533
13520 1 13533 13534
13521 1 13534 13535
13522 1 13535 13536
13523 1 13536 13537
13524 1 13537 13538
13525 1 13538 13539
13526 1 13539 13540
13527 1 13540 13541
13528 1 13541 13542
13529 1 13542 13543
13530 1 13543 13544
13531 1 13544 13545
13532 1 13545 13546
13533 1 13546 13547
13534 1 13547 13548
13535 1 13548 13549
13536 1 13549 13550
13537 1 13550 13551
13538 1 13551 13552
13539 1 13552 13553
13540 1 13553 13554
13541 1 13554 13555
13542 1 13555 13556
13543 1 13556 13557
13544 1 13557 13558
13545 1 13558 13559
13546 1 13559 13560
13547 1 13560 13561
13548 1 13561 13562
13549 1 13562 13563
13550 1 13563 13564
13551 1 13564 13565
13552 1 13565 13566
13553 1 13566 13567
13554 1 13567 13568
13555 1 13568 13569
13556 1 13569 13570
13557 1 13570 13571
13558 1 13571 13572
13559 1 13572 13573
13560 1 13573 13574
13561 1 13574 13575
13562 1 13575 13576
13563 1 13576 13577
13564 1 13577 13578
13565 1 13578 13579
13566 1 13579 13580
13567 1 13580 13581
13568 1 13581 13582
13569 1 13582 13583
13570 1 13583 13584
13571 1 13584 13585
13572 1 13585 13586
13573 1 13586 13587
13574 1 13587 13588
13575 1 13588 13589
13576 1 13589 13590
13577 1 13590 13591
13578 1 13591 13592
13579 1 13592 13593
13580 1 13593 13594
13581 1 13594 13595
13582 1 13595 13596
13583 1 13596 13597
13584 1 13597 13598
13585 1 13598 13599
13586 1 13599 13600
13587 1 13600 13601
13588 1 13601 13602
13589 1 13602 13603
13590 1 13603 13604
13591 1 13604 13605
13592 1 13605 13606
13593 1 13606 13607
13594 1 13607 13608
13595 1 13608 13609
13596 1 13609 13610
13597 1 13610 13611
13598 1 13611 13612
13599 1 13612 13613
13600 1 13613 13614
13601 1 13614 13615
13602 1 13615 13616
13603 1 13616 13617
13604 1 13617 13618
13605 1 13618 13619
13606 1 13619 13620
13607 1 13620 13621
13608 1 13621 13622
13609 1 13622 13623
13610 1 13623 13624
13611 1 13624 13625
13612 1 13625 13626
13613 1 13626 13627
13614 1 13627 13628
13615 1 13628 13629
13616 1 13629 13630
13617 1 13630 13631
13618 1 13631 13632
13619 1 13632 13633
13620 1 13633 13634
13621 1 13634 13635
13622 1 13635 13636
13623 1 13636 13637
13624 1 13637 13638
13625 1 13638 13639
13626 1 13639 13640
13627 1 13640 13641
13628 1 13641 13642
13629 1 13642 13643
13630 1 13643 13644
13631 1 13644 13645
13632 1 13645 13646
13633 1 13646 13647
13634 1 13647 13648
13635 1 13648 13649
13636 1 13649 13650
13637 1 13650 13651
13638 1 13651 13652
13639 1 13652 13653
13640 1 13653 13654
13641 1 13654 13655
13642 1 13655 13656
13643 1 13656 13657
13644 1 13657 13658
13645 1 13658 13659
13646 1 13659 13660
13647 1 13660 13661
13648 1 13661 13662
13649 1 13662 13663
13650 1 13663 13664
13651 1 13664 13665
13652 1 13665 13666
13653 1 13666 13667
13654 1 13667 13668
13655 1 13668 13669
13656 1 13669 13670
13657 1 13670 13671
13658 1 13671 13672
13659 1 13672 13673
13660 1 13673 13674
13661 1 13674 13675
13662 1 13675 13676
13663 1 13676 13677
13664 1 13677 13678
13665 1 13678 13679
13666 1 13679 13680
13667 1 13680 13681
13668 1 13681 13682
13669 1 13682 13683
13670 1 13683 13684
13671 1 13684 13685
13672 1 13685 13686
13673 1 13686 13687
13674 1 13687 13688
13675 1 13688 13689
13676 1 13689 13690
13677 1 13690 13691
13678 1 13691 13692
13679 1 13692 13693
13680 1 13693 13694
13681 1 13694 13695
13682 1 13695 13696
13683 1 13696 13697
13684 1 13697 13698
13685 1 13698 13699
13686 1 13699 13700
13687 1 13700 13701
13688 1 13701 13702
13689 1 13702 13703
13690 1 13703 13704
13691 1 13704 13705
13692 1 13705 13706
13693 1 13706 13707
13694 1 13707 13708
13695 1 13708 13709
13696 1 13709 13710
13697 1 13710 13711
13698 1 13711 13712
13699 1 13712 13713
13700 1 13713 13714
13701 1 13714 13715
13702 1 13715 13716
13703 1 13716 13717
13704 1 13717 13718
13705 1 13718 13719
13706 1 13719 13720
13707 1 13720 13721
13708 1 13721 13722
13709 1 13722 13723
13710 1 13723 13724
13711 1 13724 13725
13712 1 13725 13726
13713 1 13726 13727
13714 1 13727 13728
13715 1 13728 13729
13716 1 13729 13730
13717 1 13730 13731
13718 1 13731 13732
13719 1 13732 13733
13720 1 13733 13734
13721 1 13734 13735
13722 1 13735 13736
13723 1 13736 13737
13724 1 13737 13738
13725 1 13738 13739
13726 1 13739 13740
13727 1 13740 13741
13728 1 13741 13742
13729 1 13742 13743
13730 1 13743 13744
13731 1 13744 13745
13732 1 13745 13746
13733 1 13746 13747
13734 1 13747 13748
13735 1 13748 13749
13736 1 13749 13750
13737 1 13750 13751
13738 1 13751 13752
13739 1 13752 13753
13740 1 13753 13754
13741 1 13754 13755
13742 1 13755 13756
13743 1 13756 13757
13744 1 13757 13758
13745 1 13758 13759
13746 1 13759 13760
13747 1 13760 13761
13748 1 13761 13762
13749 1 13762 13763
13750 1 13763 13764
13751 1 13764 13765
13752 1 13765 13766
13753 1 13766 13767
13754 1 13767 13768
13755 1 13768 13769
13756 1 13769 13770
13757 1 13770 13771
13758 1 13771 13772
13759 1 13772 13773
13760 1 13773 13774
13761 1 13774 13775
13762 1 13775 13776
13763 1 13776 13777
13764 1 13777 13778
13765 1 13778 13779
13766 1 13779 13780
13767 1 13780 13781
13768 1 13781 13782
13769 1 13782 13783
13770 1 13783 13784
13771 1 13784 13785
13772 1 13785 13786
13773 1 13786 13787
13774 1 13787 13788
13775 1 13788 13789
13776 1 13789 13790
13777 1 13790 13791
13778 1 13791 13792
13779 1 13792 13793
13780 1 13793 13794
13781 1 13794 13795
13782 1 13795 13796
13783 1 13796 13797
13784 1 13797 13798
13785 1 13798 13799
13786 1 13799 13800
13787 1 13800 13801
13788 1 13801 13802
13789 1 13802 13803
13790 1 13803 13804
13791 1 13804 13805
13792 1 13805 13806
13793 1 13806 13807
13794 1 13807 13808
13795 1 13808 13809
13796 1 13809 13810
13797 1 13810 13811
13798 1 13811 13812
13799 1 13812 13813
13800 1 13813 13814
13801 1 13814 13815
13802 1 13815 13816
13803 1 13816 13817
13804 1 13817 13818
13805 1 13818 13819
13806 1 13819 13820
13807 1 13820 13821
13808 1 13821 13822
13809 1 13822 13823
13810 1 13823 13824
13811 1 13824 13825
13812 1 13825 13826
13813 1 13826 13827
13814 1 13827 13828
13815 1 13828 13829
13816 1 13829 13830
13817 1 13830 13831
13818 1 13831 13832
13819 1 13832 13833
13820 1 13833 13834
13821 1 13834 13835
13822 1 13835 13836
13823 1 13836 13837
13824 1 13837 13838
13825 1 13838 13839
13826 1 13839 13840
13827 1 13840 13841
13828 1 13841 13842
13829 1 13842 13843
13830 1 13843 13844
13831 1 13844 13845
13832 1 13845 13846
13833 1 13846 13847
13834 1 13847 13848
13835 1 13848 13849
13836 1 13849 13850
13837 1 13850 13851
13838 1 13851 13852
13839 1 13852 13853
13840 1 13853 13854
13841 1 13854 13855
13842 1 13855 13856
13843 1 13856 13857
13844 1 13857 13858
13845 1 13858 13859
13846 1 13859 13860
13847 1 13860 13861
13848 1 13861 13862
13849 1 13862 13863
13850 1 13863 13864
13851 1 13864 13865
13852 1 13865 13866
13853 1 13866 13867
13854 1 13867 13868
13855 1 13868 13869
13856 1 13869 13870
13857 1 13870 13871
13858 1 13871 13872
13859 1 13872 13873
13860 1 13873 13874
13861 1 13874 13875
13862 1 13875 13876
13863 1 13876 13877
13864 1 13877 13878
13865 1 13878 13879
13866 1 13879 13880
13867 1 13880 13881
13868 1 13881 13882
13869 1 13882 13883
13870 1 13883 13884
13871 1 13884 13885
13872 1 13885 13886
13873 1 13886 13887
13874 1 13887 13888
13875 1 13888 13889
13876 1 13889 13890
13877 1 13890 13891
13878 1 13891 13892
13879 1 13892 13893
13880 1 13893 13894
13881 1 13894 13895
13882 1 13895 13896
13883 1 13896 13897
13884 1 13897 13898
13885 1 13898 13899
13886 1 13899 13900
13887 1 13900 13901
13888 1 13901 13902
13889 1 13902 13903
13890 1 13903 13904
13891 1 13904 13905
13892 1 13905 13906
13893 1 13906 13907
13894 1 13907 13908
13895 1 13908 13909
13896 1 13909 13910
13897 1 13910 13911
13898 1 13911 13912
13899 1 13912 13913
13900 1 13913 13914
13901 1 13914 13915
13902 1 13915 13916
13903 1 13916 13917
13904 1 13917 13918
13905 1 13918 13919
13906 1 13919 13920
13907 1 13920 13921
13908 1 13921 13922
13909 1 13922 13923
13910 1 13923 13924
13911 1 13924 13925
13912 1 13925 13926
13913 1 13926 13927
13914 1 13927 13928
13915 1 13928 13929
13916 1 13929 13930
13917 1 13930 13931
13918 1 13931 13932
13919 1 13932 13933
13920 1 13933 13934
13921 1 13934 13935
13922 1 13935 13936
13923 1 13936 13937
13924 1 13937 13938
13925 1 13938 13939
13926 1 13939 13940
13927 1 13940 13941
13928 1 13941 13942
13929 1 13942 13943
13930 1 13943 13944
13931 1 13944 13945
13932 1 13945 13946
13933 1 13946 13947
13934 1 13947 13948
13935 1 13948 13949
13936 1 13949 13950
13937 1 13950 13951
13938 1 13951 13952
13939 1 13952 13953
13940 1 13953 13954
13941 1 13954 13955
13942 1 13955 13956
13943 1 13956 13957
13944 1 13957 13958
13945 1 13958 13959
13946 1 13959 13960
13947 1 13960 13961
13948 1 13961 13962
13949 1 13962 13963
13950 1 13963 13964
13951 1 13964 13965
13952 1 13965 13966
13953 1 13966 13967
13954 1 13967 13968
13955 1 13968 13969
13956 1 13969 13970
13957 1 13970 13971
13958 1 13971 13972
13959 1 13972 13973
13960 1 13973 13974
13961 1 13974 13975
13962 1 13975 13976
13963 1 13976 13977
13964 1 13977 13978
13965 1 13978 13979
13966 1 13979 13980
13967 1 13980 13981
13968 1 13981 13982
13969 1 13982 13983
13970 1 13983 13984
13971 1 13984 13985
13972 1 13985 13986
13973 1 13986 13987
13974 1 13987 13988
13975 1 13988 13989
13976 1 13989 13990
13977 1 13990 13991
13978 1 13991 13992
13979 1 13992 13993
13980 1 13993 13994
13981 1 13994 13995
13982 1 13995 13996
13983 1 13996 13997
13984 1 13997 13998
13985 1 13998 13999
13986 1 13999 14000
13987 1 14001 14002
13988 1 14002 14003
13989 1 14003 14004
13990 1 14004 14005
13991 1 14005 14006
13992 1 14006 14007
13993 1 14007 14008
13994 1 14008 14009
13995 1 14009 14010
13996 1 14010 14011
13997 1 14011 14012
13998 1 14012 14013
13999 1 14013 14014
14000 1 14014 14015
14001 1 14015 14016
14002 1 14016 14017
14003 1 14017 14018
14004 1 14018 14019
14005 1 14019 14020
14006 1 14020 14021
14007 1 14021 14022
14008 1 14022 14023
14009 1 14023 14024
14010 1 14024 14025
14011 1 14025 14026
14012 1 14026 14027
14013 1 14027 14028
14014 1 14028 14029
14015 1 14029 14030
14016 1 14030 14031
14017 1 14031 14032
14018 1 14032 14033
14019 1 14033 14034
14020 1 14034 14035
14021 1 14035 14036
14022 1 14036 14037
14023 1 14037 14038
14024 1 14038 14039
14025 1 14039 14040
14026 1 14040 14041
14027 1 14041 14042
14028 1 14042 14043
14029 1 14043 14044
14030 1 14044 14045
14031 1 14045 14046
14032 1 14046 14047
14033 1 14047 14048
14034 1 14048 14049
14035 1 14049 14050
14036 1 14050 14051
14037 1 14051 14052
14038 1 14052 14053
14039 1 14053 14054
14040 1 14054 14055
14041 1 14055 14056
14042 1 14056 14057
14043 1 14057 14058
14044 1 14058 14059
14045 1 14059 14060
14046 1 14060 14061
14047 1 14061 14062
14048 1 14062 14063
14049 1 14063 14064
14050 1 14064 14065
14051 1 14065 14066
14052 1 14066 14067
14053 1 14067 14068
14054 1 14068 14069
14055 1 14069 14070
14056 1 14070 14071
14057 1 14071 14072
14058 1 14072 14073
14059 1 14073 14074
14060 1 14074 14075
14061 1 14075 14076
14062 1 14076 14077
14063 1 14077 14078
14064 1 14078 14079
14065 1 14079 14080
14066 1 14080 14081
14067 1 14081 14082
14068 1 14082 14083
14069 1 14083 14084
14070 1 14084 14085
14071 1 14085 14086
14072 1 14086 14087
14073 1 14087 14088
14074 1 14088 14089
14075 1 14089 14090
14076 1 14090 14091
14077 1 14091 14092
14078 1 14092 14093
14079 1 14093 14094
14080 1 14094 14095
14081 1 14095 14096
14082 1 14096 14097
14083 1 14097 14098
14084 1 14098 14099
14085 1 14099 14100
14086 1 14100 14101
14087 1 14101 14102
14088 1 14102 14103
14089 1 14103 14104
14090 1 14104 14105
14091 1 14105 14106
14092 1 14106 14107
14093 1 14107 14108
14094 1 14108 14109
14095 1 14109 14110
14096 1 14110 14111
14097 1 14111 14112
14098 1 14112 14113
14099 1 14113 14114
14100 1 14114 14115
14101 1 14115 14116
14102 1 14116 14117
14103 1 14117 14118
14104 1 14118 14119
14105 1 14119 14120
14106 1 14120 14121
14107 1 14121 14122
14108 1 14122 14123
14109 1 14123 14124
14110 1 14124 14125
14111 1 14125 14126
14112 1 14126 14127
14113 1 14127 14128
14114 1 14128 14129
14115 1 14129 14130
14116 1 14130 14131
14117 1 14131 14132
14118 1 14132 14133
14119 1 14133 14134
14120 1 14134 14135
14121 1 14135 14136
14122 1 14136 14137
14123 1 14137 14138
14124 1 14138 14139
14125 1 14139 14140
14126 1 14140 14141
14127 1 14141 14142
14128 1 14142 14143
14129 1 14143 14144
14130 1 14144 14145
14131 1 14145 14146
14132 1 14146 14147
14133 1 14147 14148
14134 1 14148 14149
14135 1 14149 14150
14136 1 14150 14151
14137 1 14151 14152
14138 1 14152 14153
14139 1 14153 14154
14140 1 14154 14155
14141 1 14155 14156
14142 1 14156 14157
14143 1 14157 14158
14144 1 14158 14159
14145 1 14159 14160
14146 1 14160 14161
14147 1 14161 14162
14148 1 14162 14163
14149 1 14163 14164
14150 1 14164 14165
14151 1 14165 14166
14152 1 14166 14167
14153 1 14167 14168
14154 1 14168 14169
14155 1 14169 14170
14156 1 14170 14171
14157 1 14171 14172
14158 1 14172 14173
14159 1 14173 14174
14160 1 14174 14175
14161 1 14175 14176
14162 1 14176 14177
14163 1 14177 14178
14164 1 14178 14179
14165 1 14179 14180
14166 1 14180 14181
14167 1 14181 14182
14168 1 14182 14183
14169 1 14183 14184
14170 1 14184 14185
14171 1 14185 14186
14172 1 14186 14187
14173 1 14187 14188
14174 1 14188 14189
14175 1 14189 14190
14176 1 14190 14191
14177 1 14191 14192
14178 1 14192 14193
14179 1 14193 14194
14180 1 14194 14195
14181 1 14195 14196
14182 1 14196 14197
14183 1 14197 14198
14184 1 14198 14199
14185 1 14199 14200
14186 1 14200 14201
14187 1 14201 14202
14188 1 14202 14203
14189 1 14203 14204
14190 1 14204 14205
14191 1 14205 14206
14192 1 14206 14207
14193 1 14207 14208
14194 1 14208 14209
14195 1 14209 14210
14196 1 14210 14211
14197 1 14211 14212
14198 1 14212 14213
14199 1 14213 14214
14200 1 14214 14215
14201 1 14215 14216
14202 1 14216 14217
14203 1 14217 14218
14204 1 14218 14219
14205 1 14219 14220
14206 1 14220 14221
14207 1 14221 14222
14208 1 14222 14223
14209 1 14223 14224
14210 1 14224 14225
14211 1 14225 14226
14212 1 14226 14227
14213 1 14227 14228
14214 1 14228 14229
14215 1 14229 14230
14216 1 14230 14231
14217 1 14231 14232
14218 1 14232 14233
14219 1 14233 14234
14220 1 14234 14235
14221 1 14235 14236
14222 1 14236 14237
14223 1 14237 14238
14224 1 14238 14239
14225 1 14239 14240
14226 1 14240 14241
14227 1 14241 14242
14228 1 14242 14243
14229 1 14243 14244
14230 1 14244 14245
14231 1 14245 14246
14232 1 14246 14247
14233 1 14247 14248
14234 1 14248 14249
14235 1 14249 14250
14236 1 14250 14251
14237 1 14251 14252
14238 1 14252 14253
14239 1 14253 14254
14240 1 14254 14255
14241 1 14255 14256
14242 1 14256 14257
14243 1 14257 14258
14244 1 14258 14259
14245 1 14259 14260
14246 1 14260 14261
14247 1 14261 14262
14248 1 14262 14263
14249 1 14263 14264
14250 1 14264 14265
14251 1 14265 14266
14252 1 14266 14267
14253 1 14267 14268
14254 1 14268 14269
14255 1 14269 14270
14256 1 14270 14271
14257 1 14271 14272
14258 1 14272 14273
14259 1 14273 14274
14260 1 14274 14275
14261 1 14275 14276
14262 1 14276 14277
14263 1 14277 14278
14264 1 14278 14279
14265 1 14279 14280
14266 1 14280 14281
14267 1 14281 14282
14268 1 14282 14283
14269 1 14283 14284
14270 1 14284 14285
14271 1 14285 14286
14272 1 14286 14287
14273 1 14287 14288
14274 1 14288 14289
14275 1 14289 14290
14276 1 14290 14291
14277 1 14291 14292
14278 1 14292 14293
14279 1 14293 14294
14280 1 14294 14295
14281 1 14295 14296
14282 1 14296 14297
14283 1 14297 14298
14284 1 14298 14299
14285 1 14299 14300
14286 1 14300 14301
14287 1 14301 14302
14288 1 14302 14303
14289 1 14303 14304
14290 1 14304 14305
14291 1 14305 14306
14292 1 14306 14307
14293 1 14307 14308
14294 1 14308 14309
14295 1 14309 14310
14296 1 14310 14311
14297 1 14311 14312
14298 1 14312 14313
14299 1 14313 14314
14300 1 14314 14315
14301 1 14315 14316
14302 1 14316 14317
14303 1 14317 14318
14304 1 14318 14319
14305 1 14319 14320
14306 1 14320 14321
14307 1 14321 14322
14308 1 14322 14323
14309 1 14323 14324
14310 1 14324 14325
14311 1 14325 14326
14312 1 14326 14327
14313 1 14327 14328
14314 1 14328 14329
14315 1 14329 14330
14316 1 14330 14331
14317 1 14331 14332
14318 1 14332 14333
14319 1 14333 14334
14320 1 14334 14335
14321 1 14335 14336
14322 1 14336 14337
14323 1 14337 14338
14324 1 14338 14339
14325 1 14339 14340
14326 1 14340 14341
14327 1 14341 14342
14328 1 14342 14343
14329 1 14343 14344
14330 1 14344 14345
14331 1 14345 14346
14332 1 14346 14347
14333 1 14347 14348
14334 1 14348 14349
14335 1 14349 14350
14336 1 14350 14351
14337 1 14351 14352
14338 1 14352 14353
14339 1 14353 14354
14340 1 14354 14355
14341 1 14355 14356
14342 1 14356 14357
14343 1 14357 14358
14344 1 14358 14359
14345 1 14359 14360
14346 1 14360 14361
14347 1 14361 14362
14348 1 14362 14363
14349 1 14363 14364
14350 1 14364 14365
14351 1 14365 14366
14352 1 14366 14367
14353 1 14367 14368
14354 1 14368 14369
14355 1 14369 14370
14356 1 14370 14371
14357 1 14371 14372
14358 1 14372 14373
14359 1 14373 14374
14360 1 14374 14375
14361 1 14375 14376
14362 1 14376 14377
14363 1 14377 14378
14364 1 14378 14379
14365 1 14379 14380
14366 1 14380 14381
14367 1 14381 14382
14368 1 14382 14383
14369 1 14383 14384
14370 1 14384 14385
14371 1 14385 14386
14372 1 14386 14387
14373 1 14387 14388
14374 1 14388 14389
14375 1 14389 14390
14376 1 14390 14391
14377 1 14391 14392
14378 1 14392 14393
14379 1 14393 14394
14380 1 14394 14395
14381 1 14395 14396
14382 1 14396 14397
14383 1 14397 14398
14384 1 14398 14399
14385 1 14399 14400
14386 1 14400 14401
14387 1 14401 14402
14388 1 14402 14403
14389 1 14403 14404
14390 1 14404 14405
14391 1 14405 14406
14392 1 14406 14407
14393 1 14407 14408
14394 1 14408 14409
14395 1 14409 14410
14396 1 14410 14411
14397 1 14411 14412
14398 1 14412 14413
14399 1 14413 14414
14400 1 14414 14415
14401 1 14415 14416
14402 1 14416 14417
14403 1 14417 14418
14404 1 14418 14419
14405 1 14419 14420
14406 1 14420 14421
14407 1 14421 14422
14408 1 14422 14423
14409 1 14423 14424
14410 1 14424 14425
14411 1 14425 14426
14412 1 14426 14427
14413 1 14427 14428
14414 1 14428 14429
14415 1 14429 14430
14416 1 14430 14431
14417 1 14431 14432
14418 1 14432 14433
14419 1 14433 14434
14420 1 14434 14435
14421 1 14435 14436
14422 1 14436 14437
14423 1 14437 14438
14424 1 14438 14439
14425 1 14439 14440
14426 1 14440 14441
14427 1 14441 14442
14428 1 14442 14443
14429 1 14443 14444
14430 1 14444 14445
14431 1 14445 14446
14432 1 14446 14447
14433 1 14447 14448
14434 1 14448 14449
14435 1 14449 14450
14436 1 14450 14451
14437 1 14451 14452
14438 1 14452 14453
14439 1 14453 14454
14440 1 14454 14455
14441 1 14455 14456
14442 1 14456 14457
14443 1 14457 14458
14444 1 14458 14459
14445 1 14459 14460
14446 1 14460 14461
14447 1 14461 14462
14448 1 14462 14463
14449 1 14463 14464
14450 1 14464 14465
14451 1 14465 14466
14452 1 14466 14467
14453 1 14467 14468
14454 1 14468 14469
14455 1 14469 14470
14456 1 14470 14471
14457 1 14471 14472
14458 1 14472 14473
14459 1 14473 14474
14460 1 14474 14475
14461 1 14475 14476
14462 1 14476 14477
14463 1 14477 14478
14464 1 14478 14479
14465 1 14479 14480
14466 1 14480 14481
14467 1 14481 14482
14468 1 14482 14483
14469 1 14483 14484
14470 1 14484 14485
14471 1 14485 14486
14472 1 14486 14487
14473 1 14487 14488
14474 1 14488 14489
14475 1 14489 14490
14476 1 14490 14491
14477 1 14491 14492
14478 1 14492 14493
14479 1 14493 14494
14480 1 14494 14495
14481 1 14495 14496
14482 1 14496 14497
14483 1 14497 14498
14484 1 14498 14499
14485 1 14499 14500
14486 1 14500 14501
14487 1 14501 14502
14488 1 14502 14503
14489 1 14503 14504
14490 1 14504 14505
14491 1 14505 14506
14492 1 14506 14507
14493 1 14507 14508
14494 1 14508 14509
14495 1 14509 14510
14496 1 14510 14511
14497 1 14511 14512
14498 1 14512 14513
14499 1 14513 14514
14500 1 14514 14515
14501 1 14515 14516
14502 1 14516 14517
14503 1 14517 14518
14504 1 14518 14519
14505 1 14519 14520
14506 1 14520 14521
14507 1 14521 14522
14508 1 14522 14523
14509 1 14523 14524
14510 1 14524 14525
14511 1 14525 14526
14512 1 14526 14527
14513 1 14527 14528
14514 1 14528 14529
14515 1 14529 14530
14516 1 14530 14531
14517 1 14531 14532
14518 1 14532 14533
14519 1 14533 14534
14520 1 14534 14535
14521 1 14535 14536
14522 1 14536 14537
14523 1 14537 14538
14524 1 14538 14539
14525 1 14539 14540
14526 1 14540 14541
14527 1 14541 14542
14528 1 14542 14543
14529 1 14543 14544
14530 1 14544 14545
14531 1 14545 14546
14532 1 14546 14547
14533 1 14547 14548
14534 1 14548 14549
14535 1 14549 14550
14536 1 14550 14551
14537 1 14551 14552
14538 1 14552 14553
14539 1 14553 14554
14540 1 14554 14555
14541 1 14555 14556
14542 1 14556 14557
14543 1 14557 14558
14544 1 14558 14559
14545 1 14559 14560
14546 1 14560 14561
14547 1 14561 14562
14548 1 14562 14563
14549 1 14563 14564
14550 1 14564 14565
14551 1 14565 14566
14552 1 14566 14567
14553 1 14567 14568
14554 1 14568 14569
14555 1 14569 14570
14556 1 14570 14571
14557 1 14571 14572
14558 1 14572 14573
14559 1 14573 14574
14560 1 14574 14575
14561 1 14575 14576
14562 1 14576 14577
14563 1 14577 14578
14564 1 14578 14579
14565 1 14579 14580
14566 1 14580 14581
14567 1 14581 14582
14568 1 14582 14583
14569 1 14583 14584
14570 1 14584 14585
14571 1 14585 14586
14572 1 14586 14587
14573 1 14587 14588
14574 1 14588 14589
14575 1 14589 14590
14576 1 14590 14591
14577 1 14591 14592
14578 1 14592 14593
14579 1 14593 14594
14580 1 14594 14595
14581 1 14595 14596
14582 1 14596 14597
14583 1 14597 14598
14584 1 14598 14599
14585 1 14599 14600
14586 1 14600 14601
14587 1 14601 14602
14588 1 14602 14603
14589 1 14603 14604
14590 1 14604 14605
14591 1 14605 14606
14592 1 14606 14607
14593 1 14607 14608
14594 1 14608 14609
14595 1 14609 14610
14596 1 14610 14611
14597 1 14611 14612
14598 1 14612 14613
14599 1 14613 14614
14600 1 14614 14615
14601 1 14615 14616
14602 1 14616 14617
14603 1 14617 14618
14604 1 14618 14619
14605 1 14619 14620
14606 1 14620 14621
14607 1 14621 14622
14608 1 14622 14623
14609 1 14623 14624
14610 1 14624 14625
14611 1 14625 14626
14612 1 14626 14627
14613 1 14627 14628
14614 1 14628 14629
14615 1 14629 14630
14616 1 14630 14631
14617 1 14631 14632
14618 1 14632 14633
14619 1 14633 14634
14620 1 14634 14635
14621 1 14635 14636
14622 1 14636 14637
14623 1 14637 14638
14624 1 14638 14639
14625 1 14639 14640
14626 1 14640 14641
14627 1 14641 14642
14628 1 14642 14643
14629 1 14643 14644
14630 1 14644 14645
14631 1 14645 14646
14632 1 14646 14647
14633 1 14647 14648
14634 1 14648 14649
14635 1 14649 14650
14636 1 14650 14651
14637 1 14651 14652
14638 1 14652 14653
14639 1 14653 14654
14640 1 14654 14655
14641 1 14655 14656
14642 1 14656 14657
14643 1 14657 14658
14644 1 14658 14659
14645 1 14659 14660
14646 1 14660 14661
14647 1 14661 14662
14648 1 14662 14663
14649 1 14663 14664
14650 1 14664 14665
14651 1 14665 14666
14652 1 14666 14667
14653 1 14667 14668
14654 1 14668 14669
14655 1 14669 14670
14656 1 14670 14671
14657 1 14671 14672
14658 1 14672 14673
14659 1 14673 14674
14660 1 14674 14675
14661 1 14675 14676
14662 1 14676 14677
14663 1 14677 14678
14664 1 14678 14679
14665 1 14679 14680
14666 1 14680 14681
14667 1 14681 14682
14668 1 14682 14683
14669 1 14683 14684
14670 1 14684 14685
14671 1 14685 14686
14672 1 14686 14687
14673 1 14687 14688
14674 1 14688 14689
14675 1 14689 14690
14676 1 14690 14691
14677 1 14691 14692
14678 1 14692 14693
14679 1 14693 14694
14680 1 14694 14695
14681 1 14695 14696
14682 1 14696 14697
14683 1 14697 14698
14684 1 14698 14699
14685 1 14699 14700
14686 1 14700 14701
14687 1 14701 14702
14688 1 14702 14703
14689 1 14703 14704
14690 1 14704 14705
14691 1 14705 14706
14692 1 14706 14707
14693 1 14707 14708
14694 1 14708 14709
14695 1 14709 14710
14696 1 14710 14711
14697 1 14711 14712
14698 1 14712 14713
14699 1 14713 14714
14700 1 14714 14715
14701 1 14715 14716
14702 1 14716 14717
14703 1 14717 14718
14704 1 14718 14719
14705 1 14719 14720
14706 1 14720 14721
14707 1 14721 14722
14708 1 14722 14723
14709 1 14723 14724
14710 1 14724 14725
14711 1 14725 14726
14712 1 14726 14727
14713 1 14727 14728
14714 1 14728 14729
14715 1 14729 14730
14716 1 14730 14731
14717 1 14731 14732
14718 1 14732 14733
14719 1 14733 14734
14720 1 14734 14735
14721 1 14735 14736
14722 1 14736 14737
14723 1 14737 14738
14724 1 14738 14739
14725 1 14739 14740
14726 1 14740 14741
14727 1 14741 14742
14728 1 14742 14743
14729 1 14743 14744
14730 1 14744 14745
14731 1 14745 14746
14732 1 14746 14747
14733 1 14747 14748
14734 1 14748 14749
14735 1 14749 14750
14736 1 14750 14751
14737 1 14751 14752
14738 1 14752 14753
14739 1 14753 14754
14740 1 14754 14755
14741 1 14755 14756
14742 1 14756 14757
14743 1 14757 14758
14744 1 14758 14759
14745 1 14759 14760
14746 1 14760 14761
14747 1 14761 14762
14748 1 14762 14763
14749 1 14763 14764
14750 1 14764 14765
14751 1 14765 14766
14752 1 14766 14767
14753 1 14767 14768
14754 1 14768 14769
14755 1 14769 14770
14756 1 14770 14771
14757 1 14771 14772
14758 1 14772 14773
14759 1 14773 14774
14760 1 14774 14775
14761 1 14775 14776
14762 1 14776 14777
14763 1 14777 14778
14764 1 14778 14779
14765 1 14779 14780
14766 1 14780 14781
14767 1 14781 14782
14768 1 14782 14783
14769 1 14783 14784
14770 1 14784 14785
14771 1 14785 14786
14772 1 14786 14787
14773 1 14787 14788
14774 1 14788 14789
14775 1 14789 14790
14776 1 14790 14791
14777 1 14791 14792
14778 1 14792 14793
14779 1 14793 14794
14780 1 14794 14795
14781 1 14795 14796
14782 1 14796 14797
14783 1 14797 14798
14784 1 14798 14799
14785 1 14799 14800
14786 1 14800 14801
14787 1 14801 14802
14788 1 14802 14803
14789 1 14803 14804
14790 1 14804 14805
14791 1 14805 14806
14792 1 14806 14807
14793 1 14807 14808
14794 1 14808 14809
14795 1 14809 14810
14796 1 14810 14811
14797 1 14811 14812
14798 1 14812 14813
14799 1 14813 14814
14800 1 14814 14815
14801 1 14815 14816
14802 1 14816 14817
14803 1 14817 14818
14804 1 14818 14819
14805 1 14819 14820
14806 1 14820 14821
14807 1 14821 14822
14808 1 14822 14823
14809 1 14823 14824
14810 1 14824 14825
14811 1 14825 14826
14812 1 14826 14827
14813 1 14827 14828
14814 1 14828 14829
14815 1 14829 14830
14816 1 14830 14831
14817 1 14831 14832
14818 1 14832 14833
14819 1 14833 14834
14820 1 14834 14835
14821 1 14835 14836
14822 1 14836 14837
14823 1 14837 14838
14824 1 14838 14839
14825 1 14839 14840
14826 1 14840 14841
14827 1 14841 14842
14828 1 14842 14843
14829 1 14843 14844
14830 1 14844 14845
14831 1 14845 14846
14832 1 14846 14847
14833 1 14847 14848
14834 1 14848 14849
14835 1 14849 14850
14836 1 14850 14851
14837 1 14851 14852
14838 1 14852 14853
14839 1 14853 14854
14840 1 14854 14855
14841 1 14855 14856
14842 1 14856 14857
14843 1 14857 14858
14844 1 14858 14859
14845 1 14859 14860
14846 1 14860 14861
14847 1 14861 14862
14848 1 14862 14863
14849 1 14863 14864
14850 1 14864 14865
14851 1 14865 14866
14852 1 14866 14867
14853 1 14867 14868
14854 1 14868 14869
14855 1 14869 14870
14856 1 14870 14871
14857 1 14871 14872
14858 1 14872 14873
14859 1 14873 14874
14860 1 14874 14875
14861 1 14875 14876
14862 1 14876 14877
14863 1 14877 14878
14864 1 14878 14879
14865 1 14879 14880
14866 1 14880 14881
14867 1 14881 14882
14868 1 14882 14883
14869 1 14883 14884
14870 1 14884 14885
14871 1 14885 14886
14872 1 14886 14887
14873 1 14887 14888
14874 1 14888 14889
14875 1 14889 14890
14876 1 14890 14891
14877 1 14891 14892
14878 1 14892 14893
14879 1 14893 14894
14880 1 14894 14895
14881 1 14895 14896
14882 1 14896 14897
14883 1 14897 14898
14884 1 14898 14899
14885 1 14899 14900
14886 1 14900 14901
14887 1 14901 14902
14888 1 14902 14903
14889 1 14903 14904
14890 1 14904 14905
14891 1 14905 14906
14892 1 14906 14907
14893 1 14907 14908
14894 1 14908 14909
14895 1 14909 14910
14896 1 14910 14911
14897 1 14911 14912
14898 1 14912 14913
14899 1 14913 14914
14900 1 14914 14915
14901 1 14915 14916
14902 1 14916 14917
14903 1 14917 14918
14904 1 14918 14919
14905 1 14919 14920
14906 1 14920 14921
14907 1 14921 14922
14908 1 14922 14923
14909 1 14923 14924
14910 1 14924 14925
14911 1 14925 14926
14912 1 14926 14927
14913 1 14927 14928
14914 1 14928 14929
14915 1 14929 14930
14916 1 14930 14931
14917 1 14931 14932
14918 1 14932 14933
14919 1 14933 14934
14920 1 14934 14935
14921 1 14935 14936
14922 1 14936 14937
14923 1 14937 14938
14924 1 14938 14939
14925 1 14939 14940
14926 1 14940 14941
14927 1 14941 14942
14928 1 14942 14943
14929 1 14943 14944
14930 1 14944 14945
14931 1 14945 14946
14932 1 14946 14947
14933 1 14947 14948
14934 1 14948 14949
14935 1 14949 14950
14936 1 14950 14951
14937 1 14951 14952
14938 1 14952 14953
14939 1 14953 14954
14940 1 14954 14955
14941 1 14955 14956
14942 1 14956 14957
14943 1 14957 14958
14944 1 14958 14959
14945 1 14959 14960
14946 1 14960 14961
14947 1 14961 14962
14948 1 14962 14963
14949 1 14963 14964
14950 1 14964 14965
14951 1 14965 14966
14952 1 14966 14967
14953 1 14967 14968
14954 1 14968 14969
14955 1 14969 14970
14956 1 14970 14971
14957 1 14971 14972
14958 1 14972 14973
14959 1 14973 14974
14960 1 14974 14975
14961 1 14975 14976
14962 1 14976 14977
14963 1 14977 14978
14964 1 14978 14979
14965 1 14979 14980
14966 1 14980 14981
14967 1 14981 14982
14968 1 14982 14983
14969 1 14983 14984
14970 1 14984 14985
14971 1 14985 14986
14972 1 14986 14987
14973 1 14987 14988
14974 1 14988 14989
14975 1 14989 14990
14976 1 14990 14991
14977 1 14991 14992
14978 1 14992 14993
14979 1 14993 14994
14980 1 14994 14995
14981 1 14995 14996
14982 1 14996 14997
14983 1 14997 14998
14984 1 14998 14999
14985 1 14999 15000
14986 1 15001 15002
14987 1 15002 15003
14988 1 15003 15004
14989 1 15004 15005
14990 1 15005 15006
14991 1 15006 15007
14992 1 15007 15008
14993 1 15008 15009
14994 1 15009 15010
14995 1 15010 15011
14996 1 15011 15012
14997 1 15012 15013
14998 1 15013 15014
14999 1 15014 15015
15000 1 15015 15016
15001 1 15016 15017
15002 1 15017 15018
15003 1 15018 15019
15004 1 15019 15020
15005 1 15020 15021
15006 1 15021 15022
15007 1 15022 15023
15008 1 15023 15024
15009 1 15024 15025
15010 1 15025 15026
15011 1 15026 15027
15012 1 15027 15028
15013 1 15028 15029
15014 1 15029 15030
15015 1 15030 15031
15016 1 15031 15032
15017 1 15032 15033
15018 1 15033 15034
15019 1 15034 15035
15020 1 15035 15036
15021 1 15036 15037
15022 1 15037 15038
15023 1 15038 15039
15024 1 15039 15040
15025 1 15040 15041
15026 1 15041 15042
15027 1 15042 15043
15028 1 15043 15044
15029 1 15044 15045
15030 1 15045 15046
15031 1 15046 15047
15032 1 15047 15048
15033 1 15048 15049
15034 1 15049 15050
15035 1 15050 15051
15036 1 15051 15052
15037 1 15052 15053
15038 1 15053 15054
15039 1 15054 15055
15040 1 15055 15056
15041 1 15056 15057
15042 1 15057 15058
15043 1 15058 15059
15044 1 15059 15060
15045 1 15060 15061
15046 1 15061 15062
15047 1 15062 15063
15048 1 15063 15064
15049 1 15064 15065
15050 1 15065 15066
15051 1 15066 15067
15052 1 15067 15068
15053 1 15068 15069
15054 1 15069 15070
15055 1 15070 15071
15056 1 15071 15072
15057 1 15072 15073
15058 1 15073 15074
15059 1 15074 15075
15060 1 15075 15076
15061 1 15076 15077
15062 1 15077 15078
15063 1 15078 15079
15064 1 15079 15080
15065 1 15080 15081
15066 1 15081 15082
15067 1 15082 15083
15068 1 15083 15084
15069 1 15084 15085
15070 1 15085 15086
15071 1 15086 15087
15072 1 15087 15088
15073 1 15088 15089
15074 1 15089 15090
15075 1 15090 15091
15076 1 15091 15092
15077 1 15092 15093
15078 1 15093 15094
15079 1 15094 15095
15080 1 15095 15096
15081 1 15096 15097
15082 1 15097 15098
15083 1 15098 15099
15084 1 15099 15100
15085 1 15100 15101
15086 1 15101 15102
15087 1 15102 15103
15088 1 15103 15104
15089 1 15104 15105
15090 1 15105 15106
15091 1 15106 15107
15092 1 15107 15108
15093 1 15108 15109
15094 1 15109 15110
15095 1 15110 15111
15096 1 15111 15112
15097 1 15112 15113
15098 1 15113 15114
15099 1 15114 15115
15100 1 15115 15116
15101 1 15116 15117
15102 1 15117 15118
15103 1 15118 15119
15104 1 15119 15120
15105 1 15120 15121
15106 1 15121 15122
15107 1 15122 15123
15108 1 15123 15124
15109 1 15124 15125
15110 1 15125 15126
15111 1 15126 15127
15112 1 15127 15128
15113 1 15128 15129
15114 1 15129 15130
15115 1 15130 15131
15116 1 15131 15132
15117 1 15132 15133
15118 1 15133 15134
15119 1 15134 15135
15120 1 15135 15136
15121 1 15136 15137
15122 1 15137 15138
15123 1 15138 15139
15124 1 15139 15140
15125 1 15140 15141
15126 1 15141 15142
15127 1 15142 15143
15128 1 15143 15144
15129 1 15144 15145
15130 1 15145 15146
15131 1 15146 15147
15132 1 15147 15148
15133 1 15148 15149
15134 1 15149 15150
15135 1 15150 15151
15136 1 15151 15152
15137 1 15152 15153
15138 1 15153 15154
15139 1 15154 15155
15140 1 15155 15156
15141 1 15156 15157
15142 1 15157 15158
15143 1 15158 15159
15144 1 15159 15160
15145 1 15160 15161
15146 1 15161 15162
15147 1 15162 15163
15148 1 15163 15164
15149 1 15164 15165
15150 1 15165 15166
15151 1 15166 15167
15152 1 15167 15168
15153 1 15168 15169
15154 1 15169 15170
15155 1 15170 15171
15156 1 15171 15172
15157 1 15172 15173
15158 1 15173 15174
15159 1 15174 15175
15160 1 15175 15176
15161 1 15176 15177
15162 1 15177 15178
15163 1 15178 15179
15164 1 15179 15180
15165 1 15180 15181
15166 1 15181 15182
15167 1 15182 15183
15168 1 15183 15184
15169 1 15184 15185
15170 1 15185 15186
15171 1 15186 15187
15172 1 15187 15188
15173 1 15188 15189
15174 1 15189 15190
15175 1 15190 15191
15176 1 15191 15192
15177 1 15192 15193
15178 1 15193 15194
15179 1 15194 15195
15180 1 15195 15196
15181 1 15196 15197
15182 1 15197 15198
15183 1 15198 15199
15184 1 15199 15200
15185 1 15200 15201
15186 1 15201 15202
15187 1 15202 15203
15188 1 15203 15204
15189 1 15204 15205
15190 1 15205 15206
15191 1 15206 15207
15192 1 15207 15208
15193 1 15208 15209
15194 1 15209 15210
15195 1 15210 15211
15196 1 15211 15212
15197 1 15212 15213
15198 1 15213 15214
15199 1 15214 15215
15200 1 15215 15216
15201 1 15216 15217
15202 1 15217 15218
15203 1 15218 15219
15204 1 15219 15220
15205 1 15220 15221
15206 1 15221 15222
15207 1 15222 15223
15208 1 15223 15224
15209 1 15224 15225
15210 1 15225 15226
15211 1 15226 15227
15212 1 15227 15228
15213 1 15228 15229
15214 1 15229 15230
15215 1 15230 15231
15216 1 15231 15232
15217 1 15232 15233
15218 1 15233 15234
15219 1 15234 15235
15220 1 15235 15236
15221 1 15236 15237
15222 1 15237 15238
15223 1 15238 15239
15224 1 15239 15240
15225 1 15240 15241
15226 1 15241 15242
15227 1 15242 15243
15228 1 15243 15244
15229 1 15244 15245
15230 1 15245 15246
15231 1 15246 15247
15232 1 15247 15248
15233 1 15248 15249
15234 1 15249 15250
15235 1 15250 15251
15236 1 15251 15252
15237 1 15252 15253
15238 1 15253 15254
15239 1 15254 15255
15240 1 15255 15256
15241 1 15256 15257
15242 1 15257 15258
15243 1 15258 15259
15244 1 15259 15260
15245 1 15260 15261
15246 1 15261 15262
15247 1 15262 15263
15248 1 15263 15264
15249 1 15264 15265
15250 1 15265 15266
15251 1 15266 15267
15252 1 15267 15268
15253 1 15268 15269
15254 1 15269 15270
15255 1 15270 15271
15256 1 15271 15272
15257 1 15272 15273
15258 1 15273 15274
15259 1 15274 15275
15260 1 15275 15276
15261 1 15276 15277
15262 1 15277 15278
15263 1 15278 15279
15264 1 15279 15280
15265 1 15280 15281
15266 1 15281 15282
15267 1 15282 15283
15268 1 15283 15284
15269 1 15284 15285
15270 1 15285 15286
15271 1 15286 15287
15272 1 15287 15288
15273 1 15288 15289
15274 1 15289 15290
15275 1 15290 15291
15276 1 15291 15292
15277 1 15292 15293
15278 1 15293 15294
15279 1 15294 15295
15280 1 15295 15296
15281 1 15296 15297
15282 1 15297 15298
15283 1 15298 15299
15284 1 15299 15300
15285 1 15300 15301
15286 1 15301 15302
15287 1 15302 15303
15288 1 15303 15304
15289 1 15304 15305
15290 1 15305 15306
15291 1 15306 15307
15292 1 15307 15308
15293 1 15308 15309
15294 1 15309 15310
15295 1 15310 15311
15296 1 15311 15312
15297 1 15312 15313
15298 1 15313 15314
15299 1 15314 15315
15300 1 15315 15316
15301 1 15316 15317
15302 1 15317 15318
15303 1 15318 15319
15304 1 15319 15320
15305 1 15320 15321
15306 1 15321 15322
15307 1 15322 15323
15308 1 15323 15324
15309 1 15324 15325
15310 1 15325 15326
15311 1 15326 15327
15312 1 15327 15328
15313 1 15328 15329
15314 1 15329 15330
15315 1 15330 15331
15316 1 15331 15332
15317 1 15332 15333
15318 1 15333 15334
15319 1 15334 15335
15320 1 15335 15336
15321 1 15336 15337
15322 1 15337 15338
15323 1 15338 15339
15324 1 15339 15340
15325 1 15340 15341
15326 1 15341 15342
15327 1 15342 15343
15328 1 15343 15344
15329 1 15344 15345
15330 1 15345 15346
15331 1 15346 15347
15332 1 15347 15348
15333 1 15348 15349
15334 1 15349 15350
15335 1 15350 15351
15336 1 15351 15352
15337 1 15352 15353
15338 1 15353 15354
15339 1 15354 15355
15340 1 15355 15356
15341 1 15356 15357
15342 1 15357 15358
15343 1 15358 15359
15344 1 15359 15360
15345 1 15360 15361
15346 1 15361 15362
15347 1 15362 15363
15348 1 15363 15364
15349 1 15364 15365
15350 1 15365 15366
15351 1 15366 15367
15352 1 15367 15368
15353 1 15368 15369
15354 1 15369 15370
15355 1 15370 15371
15356 1 15371 15372
15357 1 15372 15373
15358 1 15373 15374
15359 1 15374 15375
15360 1 15375 15376
15361 1 15376 15377
15362 1 15377 15378
15363 1 15378 15379
15364 1 15379 15380
15365 1 15380 15381
15366 1 15381 15382
15367 1 15382 15383
15368 1 15383 15384
15369 1 15384 15385
15370 1 15385 15386
15371 1 15386 15387
15372 1 15387 15388
15373 1 15388 15389
15374 1 15389 15390
15375 1 15390 15391
15376 1 15391 15392
15377 1 15392 15393
15378 1 15393 15394
15379 1 15394 15395
15380 1 15395 15396
15381 1 15396 15397
15382 1 15397 15398
15383 1 15398 15399
15384 1 15399 15400
15385 1 15400 15401
15386 1 15401 15402
15387 1 15402 15403
15388 1 15403 15404
15389 1 15404 15405
15390 1 15405 15406
15391 1 15406 15407
15392 1 15407 15408
15393 1 15408 15409
15394 1 15409 15410
15395 1 15410 15411
15396 1 15411 15412
15397 1 15412 15413
15398 1 15413 15414
15399 1 15414 15415
15400 1 15415 15416
15401 1 15416 15417
15402 1 15417 15418
15403 1 15418 15419
15404 1 15419 15420
15405 1 15420 15421
15406 1 15421 15422
15407 1 15422 15423
15408 1 15423 15424
15409 1 15424 15425
15410 1 15425 15426
15411 1 15426 15427
15412 1 15427 15428
15413 1 15428 15429
15414 1 15429 15430
15415 1 15430 15431
15416 1 15431 15432
15417 1 15432 15433
15418 1 15433 15434
15419 1 15434 15435
15420 1 15435 15436
15421 1 15436 15437
15422 1 15437 15438
15423 1 15438 15439
15424 1 15439 15440
15425 1 15440 15441
15426 1 15441 15442
15427 1 15442 15443
15428 1 15443 15444
15429 1 15444 15445
15430 1 15445 15446
15431 1 15446 15447
15432 1 15447 15448
15433 1 15448 15449
15434 1 15449 15450
15435 1 15450 15451
15436 1 15451 15452
15437 1 15452 15453
15438 1 15453 15454
15439 1 15454 15455
15440 1 15455 15456
15441 1 15456 15457
15442 1 15457 15458
15443 1 15458 15459
15444 1 15459 15460
15445 1 15460 15461
15446 1 15461 15462
15447 1 15462 15463
15448 1 15463 15464
15449 1 15464 15465
15450 1 15465 15466
15451 1 15466 15467
15452 1 15467 15468
15453 1 15468 15469
15454 1 15469 15470
15455 1 15470 15471
15456 1 15471 15472
15457 1 15472 15473
15458 1 15473 15474
15459 1 15474 15475
15460 1 15475 15476
15461 1 15476 15477
15462 1 15477 15478
15463 1 15478 15479
15464 1 15479 15480
15465 1 15480 15481
15466 1 15481 15482
15467 1 15482 15483
15468 1 15483 15484
15469 1 15484 15485
15470 1 15485 15486
15471 1 15486 15487
15472 1 15487 15488
15473 1 15488 15489
15474 1 15489 15490
15475 1 15490 15491
15476 1 15491 15492
15477 1 15492 15493
15478 1 15493 15494
15479 1 15494 15495
15480 1 15495 15496
15481 1 15496 15497
15482 1 15497 15498
15483 1 15498 15499
15484 1 15499 15500
15485 1 15500 15501
15486 1 15501 15502
15487 1 15502 15503
15488 1 15503 15504
15489 1 15504 15505
15490 1 15505 15506
15491 1 15506 15507
15492 1 15507 15508
15493 1 15508 15509
15494 1 15509 15510
15495 1 15510 15511
15496 1 15511 15512
15497 1 15512 15513
15498 1 15513 15514
15499 1 15514 15515
15500 1 15515 15516
15501 1 15516 15517
15502 1 15517 15518
15503 1 15518 15519
15504 1 15519 15520
15505 1 15520 15521
15506 1 15521 15522
15507 1 15522 15523
15508 1 15523 15524
15509 1 15524 15525
15510 1 15525 15526
15511 1 15526 15527
15512 1 15527 15528
15513 1 15528 15529
15514 1 15529 15530
15515 1 15530 15531
15516 1 15531 15532
15517 1 15532 15533
15518 1 15533 15534
15519 1 15534 15535
15520 1 15535 15536
15521 1 15536 15537
15522 1 15537 15538
15523 1 15538 15539
15524 1 15539 15540
15525 1 15540 15541
15526 1 15541 15542
15527 1 15542 15543
15528 1 15543 15544
15529 1 15544 15545
15530 1 15545 15546
15531 1 15546 15547
15532 1 15547 15548
15533 1 15548 15549
15534 1 15549 15550
15535 1 15550 15551
15536 1 15551 15552
15537 1 15552 15553
15538 1 15553 15554
15539 1 15554 15555
15540 1 15555 15556
15541 1 15556 15557
15542 1 15557 15558
15543 1 15558 15559
15544 1 15559 15560
15545 1 15560 15561
15546 1 15561 15562
15547 1 15562 15563
15548 1 15563 15564
15549 1 15564 15565
15550 1 15565 15566
15551 1 15566 15567
15552 1 15567 15568
15553 1 15568 15569
15554 1 15569 15570
15555 1 15570 15571
15556 1 15571 15572
15557 1 15572 15573
15558 1 15573 15574
15559 1 15574 15575
15560 1 15575 15576
15561 1 15576 15577
15562 1 15577 15578
15563 1 15578 15579
15564 1 15579 15580
15565 1 15580 15581
15566 1 15581 15582
15567 1 15582 15583
15568 1 15583 15584
15569 1 15584 15585
15570 1 15585 15586
15571 1 15586 15587
15572 1 15587 15588
15573 1 15588 15589
15574 1 15589 15590
15575 1 15590 15591
15576 1 15591 15592
15577 1 15592 15593
15578 1 15593 15594
15579 1 15594 15595
15580 1 15595 15596
15581 1 15596 15597
15582 1 15597 15598
15583 1 15598 15599
15584 1 15599 15600
15585 1 15600 15601
15586 1 15601 15602
15587 1 15602 15603
15588 1 15603 15604
15589 1 15604 15605
15590 1 15605 15606
15591 1 15606 15607
15592 1 15607 15608
15593 1 15608 15609
15594 1 15609 15610
15595 1 15610 15611
15596 1 15611 15612
15597 1 15612 15613
15598 1 15613 15614
15599 1 15614 15615
15600 1 15615 15616
15601 1 15616 15617
15602 1 15617 15618
15603 1 15618 15619
15604 1 15619 15620
15605 1 15620 15621
15606 1 15621 15622
15607 1 15622 15623
15608 1 15623 15624
15609 1 15624 15625
15610 1 15625 15626
15611 1 15626 15627
15612 1 15627 15628
15613 1 15628 15629
15614 1 15629 15630
15615 1 15630 15631
15616 1 15631 15632
15617 1 15632 15633
15618 1 15633 15634
15619 1 15634 15635
15620 1 15635 15636
15621 1 15636 15637
15622 1 15637 15638
15623 1 15638 15639
15624 1 15639 15640
15625 1 15640 15641
15626 1 15641 15642
15627 1 15642 15643
15628 1 15643 15644
15629 1 15644 15645
15630 1 15645 15646
15631 1 15646 15647
15632 1 15647 15648
15633 1 15648 15649
15634 1 15649 15650
15635 1 15650 15651
15636 1 15651 15652
15637 1 15652 15653
15638 1 15653 15654
15639 1 15654 15655
15640 1 15655 15656
15641 1 15656 15657
15642 1 15657 15658
15643 1 15658 15659
15644 1 15659 15660
15645 1 15660 15661
15646 1 15661 15662
15647 1 15662 15663
15648 1 15663 15664
15649 1 15664 15665
15650 1 15665 15666
15651 1 15666 15667
15652 1 15667 15668
15653 1 15668 15669
15654 1 15669 15670
15655 1 15670 15671
15656 1 15671 15672
15657 1 15672 15673
15658 1 15673 15674
15659 1 15674 15675
15660 1 15675 15676
15661 1 15676 15677
15662 1 15677 15678
15663 1 15678 15679
15664 1 15679 15680
15665 1 15680 15681
15666 1 15681 15682
15667 1 15682 15683
15668 1 15683 15684
15669 1 15684 15685
15670 1 15685 15686
15671 1 15686 15687
15672 1 15687 15688
15673 1 15688 15689
15674 1 15689 15690
15675 1 15690 15691
15676 1 15691 15692
15677 1 15692 15693
15678 1 15693 15694
15679 1 15694 15695
15680 1 15695 15696
15681 1 15696 15697
15682 1 15697 15698
15683 1 15698 15699
15684 1 15699 15700
15685 1 15700 15701
15686 1 15701 15702
15687 1 15702 15703
15688 1 15703 15704
15689 1 15704 15705
15690 1 15705 15706
15691 1 15706 15707
15692 1 15707 15708
15693 1 15708 15709
15694 1 15709 15710
15695 1 15710 15711
15696 1 15711 15712
15697 1 15712 15713
15698 1 15713 15714
15699 1 15714 15715
15700 1 15715 15716
15701 1 15716 15717
15702 1 15717 15718
15703 1 15718 15719
15704 1 15719 15720
15705 1 15720 15721
15706 1 15721 15722
15707 1 15722 15723
15708 1 15723 15724
15709 1 15724 15725
15710 1 15725 15726
15711 1 15726 15727
15712 1 15727 15728
15713 1 15728 15729
15714 1 15729 15730
15715 1 15730 15731
15716 1 15731 15732
15717 1 15732 15733
15718 1 15733 15734
15719 1 15734 15735
15720 1 15735 15736
15721 1 15736 15737
15722 1 15737 15738
15723 1 15738 15739
15724 1 15739 15740
15725 1 15740 15741
15726 1 15741 15742
15727 1 15742 15743
15728 1 15743 15744
15729 1 15744 15745
15730 1 15745 15746
15731 1 15746 15747
15732 1 15747 15748
15733 1 15748 15749
15734 1 15749 15750
15735 1 15750 15751
15736 1 15751 15752
15737 1 15752 15753
15738 1 15753 15754
15739 1 15754 15755
15740 1 15755 15756
15741 1 15756 15757
15742 1 15757 15758
15743 1 15758 15759
15744 1 15759 15760
15745 1 15760 15761
15746 1 15761 15762
15747 1 15762 15763
15748 1 15763 15764
15749 1 15764 15765
15750 1 15765 15766
15751 1 15766 15767
15752 1 15767 15768
15753 1 15768 15769
15754 1 15769 15770
15755 1 15770 15771
15756 1 15771 15772
15757 1 15772 15773
15758 1 15773 15774
15759 1 15774 15775
15760 1 15775 15776
15761 1 15776 15777
15762 1 15777 15778
15763 1 15778 15779
15764 1 15779 15780
15765 1 15780 15781
15766 1 15781 15782
15767 1 15782 15783
15768 1 15783 15784
15769 1 15784 15785
15770 1 15785 15786
15771 1 15786 15787
15772 1 15787 15788
15773 1 15788 15789
15774 1 15789 15790
15775 1 15790 15791
15776 1 15791 15792
15777 1 15792 15793
15778 1 15793 15794
15779 1 15794 15795
15780 1 15795 15796
15781 1 15796 15797
15782 1 15797 15798
15783 1 15798 15799
15784 1 15799 15800
15785 1 15800 15801
15786 1 15801 15802
15787 1 15802 15803
15788 1 15803 15804
15789 1 15804 15805
15790 1 15805 15806
15791 1 15806 15807
15792 1 15807 15808
15793 1 15808 15809
15794 1 15809 15810
15795 1 15810 15811
15796 1 15811 15812
15797 1 15812 15813
15798 1 15813 15814
15799 1 15814 15815
15800 1 15815 15816
15801 1 15816 15817
15802 1 15817 15818
15803 1 15818 15819
15804 1 15819 15820
15805 1 15820 15821
15806 1 15821 15822
15807 1 15822 15823
15808 1 15823 15824
15809 1 15824 15825
15810 1 15825 15826
15811 1 15826 15827
15812 1 15827 15828
15813 1 15828 15829
15814 1 15829 15830
15815 1 15830 15831
15816 1 15831 15832
15817 1 15832 15833
15818 1 15833 15834
15819 1 15834 15835
15820 1 15835 15836
15821 1 15836 15837
15822 1 15837 15838
15823 1 15838 15839
15824 1 15839 15840
15825 1 15840 15841
15826 1 15841 15842
15827 1 15842 15843
15828 1 15843 15844
15829 1 15844 15845
15830 1 15845 15846
15831 1 15846 15847
15832 1 15847 15848
15833 1 15848 15849
15834 1 15849 15850
15835 1 15850 15851
15836 1 15851 15852
15837 1 15852 15853
15838 1 15853 15854
15839 1 15854 15855
15840 1 15855 15856
15841 1 15856 15857
15842 1 15857 15858
15843 1 15858 15859
15844 1 15859 15860
15845 1 15860 15861
15846 1 15861 15862
15847 1 15862 15863
15848 1 15863 15864
15849 1 15864 15865
15850 1 15865 15866
15851 1 15866 15867
15852 1 15867 15868
15853 1 15868 15869
15854 1 15869 15870
15855 1 15870 15871
15856 1 15871 15872
15857 1 15872 15873
15858 1 15873 15874
15859 1 15874 15875
15860 1 15875 15876
15861 1 15876 15877
15862 1 15877 15878
15863 1 15878 15879
15864 1 15879 15880
15865 1 15880 15881
15866 1 15881 15882
15867 1 15882 15883
15868 1 15883 15884
15869 1 15884 15885
15870 1 15885 15886
15871 1 15886 15887
15872 1 15887 15888
15873 1 15888 15889
15874 1 15889 15890
15875 1 15890 15891
15876 1 15891 15892
15877 1 15892 15893
15878 1 15893 15894
15879 1 15894 15895
15880 1 15895 15896
15881 1 15896 15897
15882 1 15897 15898
15883 1 15898 15899
15884 1 15899 15900
15885 1 15900 15901
15886 1 15901 15902
15887 1 15902 15903
15888 1 15903 15904
15889 1 15904 15905
15890 1 15905 15906
15891 1 15906 15907
15892 1 15907 15908
15893 1 15908 15909
15894 1 15909 15910
15895 1 15910 15911
15896 1 15911 15912
15897 1 15912 15913
15898 1 15913 15914
15899 1 15914 15915
15900 1 15915 15916
15901 1 15916 15917
15902 1 15917 15918
15903 1 15918 15919
15904 1 15919 15920
15905 1 15920 15921
15906 1 15921 15922
15907 1 15922 15923
15908 1 15923 15924
15909 1 15924 15925
15910 1 15925 15926
15911 1 15926 15927
15912 1 15927 15928
15913 1 15928 15929
15914 1 15929 15930
15915 1 15930 15931
15916 1 15931 15932
15917 1 15932 15933
15918 1 15933 15934
15919 1 15934 15935
15920 1 15935 15936
15921 1 15936 15937
15922 1 15937 15938
15923 1 15938 15939
15924 1 15939 15940
15925 1 15940 15941
15926 1 15941 15942
15927 1 15942 15943
15928 1 15943 15944
15929 1 15944 15945
15930 1 15945 15946
15931 1 15946 15947
15932 1 15947 15948
15933 1 15948 15949
15934 1 15949 15950
15935 1 15950 15951
15936 1 15951 15952
15937 1 15952 15953
15938 1 15953 15954
15939 1 15954 15955
15940 1 15955 15956
15941 1 15956 15957
15942 1 15957 15958
15943 1 15958 15959
15944 1 15959 15960
15945 1 15960 15961
15946 1 15961 15962
15947 1 15962 15963
15948 1 15963 15964
15949 1 15964 15965
15950 1 15965 15966
15951 1 15966 15967
15952 1 15967 15968
15953 1 15968 15969
15954 1 15969 15970
15955 1 15970 15971
15956 1 15971 15972
15957 1 15972 15973
15958 1 15973 15974
15959 1 15974 15975
15960 1 15975 15976
15961 1 15976 15977
15962 1 15977 15978
15963 1 15978 15979
15964 1 15979 15980
15965 1 15980 15981
15966 1 15981 15982
15967 1 15982 15983
15968 1 15983 15984
15969 1 15984 15985
15970 1 15985 15986
15971 1 15986 15987
15972 1 15987 15988
15973 1 15988 15989
15974 1 15989 15990
15975 1 15990 15991
15976 1 15991 15992
15977 1 15992 15993
15978 1 15993 15994
15979 1 15994 15995
15980 1 15995 15996
15981 1 15996 15997
15982 1 15997 15998
15983 1 15998 15999
15984 1 15999 16000
15985 2 16001 16002
15986 2 16001 16003
15987 2 16001 16004
15988 2 16001 16005
15989 2 16006 16007
15990 2 16006 16008
15991 2 16006 16009
15992 2 16006 16010
15993 2 16011 16012
15994 2 16011 16013
15995 2 16011 16014
15996 2 16011 16015
15997 2 16016 16017
15998 2 16016 16018
15999 2 16016 16019
16000 2 16016 16020
16001 2 16021 16022
16002 2 16021 16023
16003 2 16021 16024
16004 2 16021 16025
16005 2 16026 16027
16006 2 16026 16028
16007 2 16026 16029
16008 2 16026 16030
16009 2 16031 16032
16010 2 16031 16033
16011 2 16031 16034
16012 2 16031 16035
16013 2 16036 16037
16014 2 16036 16038
16015 2 16036 16039
16016 2 16036 16040
16017 2 16041 16042
16018 2 16041 16043
16019 2 16041 16044
16020 2 16041 16045
16021 2 16046 16047
16022 2 16046 16048
16023 2 16046 16049
16024 2 16046 16050
16025 2 16051 16052
16026 2 16051 16053
16027 2 16051 16054
16028 2 16051 16055
16029 2 16056 16057
16030 2 16056 16058
16031 2 16056 16059
16032 2 16056 16060
16033 2 16061 16062
16034 2 16061 16063
16035 2 16061 16064
16036 2 16061 16065
16037 2 16066 16067
16038 2 16066 16068
16039 2 16066 16069
16040 2 16066 16070
16041 2 16071 16072
16042 2 16071 16073
16043 2 16071 16074
16044 2 16071 16075
16045 2 16076 16077
16046 2 16076 16078
16047 2 16076 16079
16048 2 16076 16080
16049 2 16081 16082
16050 2 16081 16083
16051 2 16081 16084
16052 2 16081 16085
16053 2 16086 16087
16054 2 16086 16088
16055 2 16086 16089
16056 2 16086 16090
16057 2 16091 16092
16058 2 16091 16093
16059 2 16091 16094
16060 2 16091 16095
16061 2 16096 16097
16062 2 16096 16098
16063 2 16096 16099
16064 2 16096 16100
16065 2 16101 16102
16066 2 16101 16103
16067 2 16101 16104
16068 2 16101 16105
16069 2 16106 16107
16070 2 16106 16108
16071 2 16106 16109
16072 2 16106 16110
16073 2 16111 16112
16074 2 16111 16113
16075 2 16111 16114
16076 2 16111 16115
16077 2 16116 16117
16078 2 16116 16118
16079 2 16116 16119
16080 2 16116 16120
16081 2 16121 16122
16082 2 16121 16123
16083 2 16121 16124
16084 2 16121 16125
16085 2 16126 16127
16086 2 16126 16128
16087 2 16126 16129
16088 2 16126 16130
16089 2 16131 16132
16090 2 16131 16133
16091 2 16131 16134
16092 2 16131 16135
16093 2 16136 16137
16094 2 16136 16138
16095 2 16136 16139
16096 2 16136 16140
16097 2 16141 16142
16098 2 16141 16143
16099 2 16141 16144
16100 2 16141 16145
16101 2 16146 16147
16102 2 16146 16148
16103 2 16146 16149
16104 2 16146 16150
16105 2 16151 16152
16106 2 16151 16153
16107 2 16151 16154
16108 2 16151 16155
16109 2 16156 16157
16110 2 16156 16158
16111 2 16156 16159
16112 2 16156 16160
16113 2 16161 16162
16114 2 16161 16163
16115 2 16161 16164
16116 2 16161 16165
16117 2 16166 16167
16118 2 16166 16168
16119 2 16166 16169
16120 2 16166 16170
16121 2 16171 16172
16122 2 16171 16173
16123 2 16171 16174
16124 2 16171 16175
16125 2 16176 16177
16126 2 16176 16178
16127 2 16176 16179
16128 2 16176 16180
16129 2 16181 16182
16130 2 16181 16183
16131 2 16181 16184
16132 2 16181 16185
16133 2 16186 16187
16134 2 16186 16188
16135 2 16186 16189
16136 2 16186 16190
16137 2 16191 16192
16138 2 16191 16193
16139 2 16191 16194
16140 2 16191 16195
16141 2 16196 16197
16142 2 16196 16198
16143 2 16196 16199
16144 2 16196 16200
16145 2 16201 16202
16146 2 16201 16203
16147 2 16201 16204
16148 2 16201 16205
16149 2 16206 16207
16150 2 16206 16208
16151 2 16206 16209
16152 2 16206 16210
16153 2 16211 16212
16154 2 16211 16213
16155 2 16211 16214
16156 2 16211 16215
16157 2 16216 16217
16158 2 16216 16218
16159 2 16216 16219
16160 2 16216 16220
16161 2 16221 16222
16162 2 16221 16223
16163 2 16221 16224
16164 2 16221 16225
16165 2 16226 16227
16166 2 16226 16228
16167 2 16226 16229
16168 2 16226 16230
16169 2 16231 16232
16170 2 16231 16233
16171 2 16231 16234
16172 2 16231 16235
16173 2 16236 16237
16174 2 16236 16238
16175 2 16236 16239
16176 2 16236 16240
16177 2 16241 16242
16178 2 16241 16243
16179 2 16241 16244
16180 2 16241 16245
16181 2 16246 16247
16182 2 16246 16248
16183 2 16246 16249
16184 2 16246 16250
16185 2 16251 16252
16186 2 16251 16253
16187 2 16251 16254
16188 2 16251 16255
16189 2 16256 16257
16190 2 16256 16258
16191 2 16256 16259
16192 2 16256 16260
16193 2 16261 16262
16194 2 16261 16263
16195 2 16261 16264
16196 2 16261 16265
16197 2 16266 16267
16198 2 16266 16268
16199 2 16266 16269
16200 2 16266 16270
16201 2 16271 16272
16202 2 16271 16273
16203 2 16271 16274
16204 2 16271 16275
16205 2 16276 16277
16206 2 16276 16278
16207 2 16276 16279
16208 2 16276 16280
16209 2 16281 16282
16210 2 16281 16283
16211 2 16281 16284
16212 2 16281 16285
16213 2 16286 16287
16214 2 16286 16288
16215 2 16286 16289
16216 2 16286 16290
16217 2 16291 16292
16218 2 16291 16293
16219 2 16291 16294
16220 2 16291 16295
16221 2 16296 16297
16222 2 16296 16298
16223 2 16296 16299
16224 2 16296 16300
16225 2 16301 16302
16226 2 16301 16303
16227 2 16301 16304
16228 2 16301 16305
16229 2 16306 16307
16230 2 16306 16308
16231 2 16306 16309
16232 2 16306 16310
16233 2 16311 16312
16234 2 16311 16313
16235 2 16311 16314
16236 2 16311 16315
16237 2 16316 16317
16238 2 16316 16318
16239 2 16316 16319
16240 2 16316 16320
16241 2 16321 16322
16242 2 16321 16323
16243 2 16321 16324
16244 2 16321 16325
16245 2 16326 16327
16246 2 16326 16328
16247 2 16326 16329
16248 2 16326 16330
16249 2 16331 16332
16250 2 16331 16333
16251 2 16331 16334
16252 2 16331 16335
16253 2 16336 16337
16254 2 16336 16338
16255 2 16336 16339
16256 2 16336 16340
16257 2 16341 16342
16258 2 16341 16343
16259 2 16341 16344
16260 2 16341 16345
16261 2 16346 16347
16262 2 16346 16348
16263 2 16346 16349
16264 2 16346 16350
16265 2 16351 16352
16266 2 16351 16353
16267 2 16351 16354
16268 2 16351 16355
16269 2 16356 16357
16270 2 16356 16358
16271 2 16356 16359
16272 2 16356 16360
16273 2 16361 16362
16274 2 16361 16363
16275 2 16361 16364
16276 2 16361 16365
16277 2 16366 16367
16278 2 16366 16368
16279 2 16366 16369
16280 2 16366 16370
16281 2 16371 16372
16282 2 16371 16373
16283 2 16371 16374
16284 2 16371 16375
16285 2 16376 16377
16286 2 16376 16378
16287 2 16376 16379
16288 2 16376 16380
16289 2 16381 16382
16290 2 16381 16383
16291 2 16381 16384
16292 2 16381 16385
16293 2 16386 16387
16294 2 16386 16388
16295 2 16386 16389
16296 2 16386 16390
16297 2 16391 16392
16298 2 16391 16393
16299 2 16391 16394
16300 2 16391 16395
16301 2 16396 16397
16302 2 16396 16398
16303 2 16396 16399
16304 2 16396 16400
16305 2 16401 16402
16306 2 16401 16403
16307 2 16401 16404
16308 2 16401 16405
16309 2 16406 16407
16310 2 16406 16408
16311 2 16406 16409
16312 2 16406 16410
16313 2 16411 16412
16314 2 16411 16413
16315 2 16411 16414
16316 2 16411 16415
16317 2 16416 16417
16318 2 16416 16418
16319 2 16416 16419
16320 2 16416 16420
16321 2 16421 16422
16322 2 16421 16423
16323 2 16421 16424
16324 2 16421 16425
16325 2 16426 16427
16326 2 16426 16428
16327 2 16426 16429
16328 2 16426 16430
16329 2 16431 16432
16330 2 16431 16433
16331 2 16431 16434
16332 2 16431 16435
16333 2 16436 16437
16334 2 16436 16438
16335 2 16436 16439
16336 2 16436 16440
16337 2 16441 16442
16338 2 16441 16443
16339 2 16441 16444
16340 2 16441 16445
16341 2 16446 16447
16342 2 16446 16448
16343 2 16446 16449
16344 2 16446 16450
16345 2 16451 16452
16346 2 16451 16453
16347 2 16451 16454
16348 2 16451 16455
16349 2 16456 16457
16350 2 16456 16458
16351 2 16456 16459
16352 2 16456 16460
16353 2 16461 16462
16354 2 16461 16463
16355 2 16461 16464
16356 2 16461 16465
16357 2 16466 16467
16358 2 16466 16468
16359 2 16466 16469
16360 2 16466 16470
16361 2 16471 16472
16362 2 16471 16473
16363 2 16471 16474
16364 2 16471 16475
16365 2 16476 16477
16366 2 16476 16478
16367 2 16476 16479
16368 2 16476 16480
16369 2 16481 16482
16370 2 16481 16483
16371 2 16481 16484
16372 2 16481 16485
16373 2 16486 16487
16374 2 16486 16488
16375 2 16486 16489
16376 2 16486 16490
16377 2 16491 16492
16378 2 16491 16493
16379 2 16491 16494
16380 2 16491 16495
16381 2 16496 16497
16382 2 16496 16498
16383 2 16496 16499
16384 2 16496 16500
16385 2 16501 16502
16386 2 16501 16503
16387 2 16501 16504
16388 2 16501 16505
16389 2 16506 16507
16390 2 16506 16508
16391 2 16506 16509
16392 2 16506 16510
16393 2 16511 16512
16394 2 16511 16513
16395 2 16511 16514
16396 2 16511 16515
16397 2 16516 16517
16398 2 16516 16518
16399 2 16516 16519
16400 2 16516 16520
16401 2 16521 16522
16402 2 16521 16523
16403 2 16521 16524
16404 2 16521 16525
16405 2 16526 16527
16406 2 16526 16528
16407 2 16526 16529
16408 2 16526 16530
16409 2 16531 16532
16410 2 16531 16533
16411 2 16531 16534
16412 2 16531 16535
16413 2 16536 16537
16414 2 16536 16538
16415 2 16536 16539
16416 2 16536 16540
16417 2 16541 16542
16418 2 16541 16543
16419 2 16541 16544
16420 2 16541 16545
16421 2 16546 16547
16422 2 16546 16548
16423 2 16546 16549
16424 2 16546 16550
16425 2 16551 16552
16426 2 16551 16553
16427 2 16551 16554
16428 2 16551 16555
16429 2 16556 16557
16430 2 16556 16558
16431 2 16556 16559
16432 2 16556 16560
16433 2 16561 16562
16434 2 16561 16563
16435 2 16561 16564
16436 2 16561 16565
16437 2 16566 16567
16438 2 16566 16568
16439 2 16566 16569
16440 2 16566 16570
16441 2 16571 16572
16442 2 16571 16573
16443 2 16571 16574
16444 2 16571 16575
16445 2 16576 16577
16446 2 16576 16578
16447 2 16576 16579
16448 2 16576 16580
16449 2 16581 16582
16450 2 16581 16583
16451 2 16581 16584
16452 2 16581 16585
16453 2 16586 16587
16454 2 16586 16588
16455 2 16586 16589
16456 2 16586 16590
16457 2 16591 16592
16458 2 16591 16593
16459 2 16591 16594
16460 2 16591 16595
16461 2 16596 16597
16462 2 16596 16598
16463 2 16596 16599
16464 2 16596 16600
16465 2 16601 16602
16466 2 16601 16603
16467 2 16601 16604
16468 2 16601 16605
16469 2 16606 16607
16470 2 16606 16608
16471 2 16606 16609
16472 2 16606 16610
16473 2 16611 16612
16474 2 16611 16613
16475 2 16611 16614
16476 2 16611 16615
16477 2 16616 16617
16478 2 16616 16618
16479 2 16616 16619
16480 2 16616 16620
16481 2 16621 16622
16482 2 16621 16623
16483 2 16621 16624
16484 2 16621 16625
16485 2 16626 16627
16486 2 16626 16628
16487 2 16626 16629
16488 2 16626 16630
16489 2 16631 16632
16490 2 16631 16633
16491 2 16631 16634
16492 2 16631 16635
16493 2 16636 16637
16494 2 16636 16638
16495 2 16636 16639
16496 2 16636 16640
16497 2 16641 16642
16498 2 16641 16643
16499 2 16641 16644
16500 2 16641 16645
16501 2 16646 16647
16502 2 16646 16648
16503 2 16646 16649
16504 2 16646 16650
16505 2 16651 16652
16506 2 16651 16653
16507 2 16651 16654
16508 2 16651 16655
16509 2 16656 16657
16510 2 16656 16658
16511 2 16656 16659
16512 2 16656 16660
16513 2 16661 16662
16514 2 16661 16663
16515 2 16661 16664
16516 2 16661 16665
16517 2 16666 16667
16518 2 16666 16668
16519 2 16666 16669
16520 2 16666 16670
16521 2 16671 16672
16522 2 16671 16673
16523 2 16671 16674
16524 2 16671 16675
16525 2 16676 16677
16526 2 16676 16678
16527 2 16676 16679
16528 2 16676 16680
16529 2 16681 16682
16530 2 16681 16683
16531 2 16681 16684
16532 2 16681 16685
16533 2 16686 16687
16534 2 16686 16688
16535 2 16686 16689
16536 2 16686 16690
16537 2 16691 16692
16538 2 16691 16693
16539 2 16691 16694
16540 2 16691 16695
16541 2 16696 16697
16542 2 16696 16698
16543 2 16696 16699
16544 2 16696 16700
16545 2 16701 16702
16546 2 16701 16703
16547 2 16701 16704
16548 2 16701 16705
16549 2 16706 16707
16550 2 16706 16708
16551 2 16706 16709
16552 2 16706 16710
16553 2 16711 16712
16554 2 16711 16713
16555 2 16711 16714
16556 2 16711 16715
16557 2 16716 16717
16558 2 16716 16718
16559 2 16716 16719
16560 2 16716 16720
16561 2 16721 16722
16562 2 16721 16723
16563 2 16721 16724
16564 2 16721 16725
16565 2 16726 16727
16566 2 16726 16728
16567 2 16726 16729
16568 2 16726 16730
16569 2 16731 16732
16570 2 16731 16733
16571 2 16731 16734
16572 2 16731 16735
16573 2 16736 16737
16574 2 16736 16738
16575 2 16736 16739
16576 2 16736 16740
16577 2 16741 16742
16578 2 16741 16743
16579 2 16741 16744
16580 2 16741 16745
16581 2 16746 16747
16582 2 16746 16748
16583 2 16746 16749
16584 2 16746 16750
16585 2 16751 16752
16586 2 16751 16753
16587 2 16751 16754
16588 2 16751 16755
16589 2 16756 16757
16590 2 16756 16758
16591 2 16756 16759
16592 2 16756 16760
16593 2 16761 16762
16594 2 16761 16763
16595 2 16761 16764
16596 2 16761 16765
16597 2 16766 16767
16598 2 16766 16768
16599 2 16766 16769
16600 2 16766 16770
16601 2 16771 16772
16602 2 16771 16773
16603 2 16771 16774
16604 2 16771 16775
16605 2 16776 16777
16606 2 16776 16778
16607 2 16776 16779
16608 2 16776 16780
16609 2 16781 16782
16610 2 16781 16783
16611 2 16781 16784
16612 2 16781 16785
16613 2 16786 16787
16614 2 16786 16788
16615 2 16786 16789
16616 2 16786 16790
16617 2 16791 16792
16618 2 16791 16793
16619 2 16791 16794
16620 2 16791 16795
16621 2 16796 16797
16622 2 16796 16798
16623 2 16796 16799
16624 2 16796 16800

