Test system of 16 polymers of length 1000 and 160 tetrahedral crosslinkers, bond length = 1.0, crosslinker radius = 3.0

16800 atoms
16624 bonds
0 angles
0 dihedrals
0 impropers

3 atom types
3 bond types
0 angle types
0 dihedral types
0 improper types

-100.0 100.0 xlo xhi
-100.0 100.0 ylo yhi
-100.0 100.0 zlo zhi

Masses

1 1.000
2 20.000
3 20.000

PairIJ Coeffs

1 1 1.0000000000 1.0000000000 1.1224620483
1 2 4.0000000000 1.0000000000 5.0000000000
1 3 4.0000000000 1.0000000000 5.0000000000
2 2 2.0000000000 1.0000000000 5.0000000000
2 3 2.0000000000 1.0000000000 5.0000000000
3 3 2.0000000000 1.0000000000 5.0000000000

Bond Coeffs

1 fene 30.0000000000 2.5000000000 1.0000000000 1.0000000000
2 harmonic 100.0000000000 1.0000000000
3 harmonic 100.0000000000 3.0000000000

Atoms

1 1 1 2.364325 90.092739 -71.168077
2 1 1 1.573754 90.641981 -70.897281
3 1 1 0.957392 91.309039 -70.478793
4 1 1 1.430682 91.354773 -69.599074
5 1 1 2.327660 91.414271 -70.037128
6 1 1 2.161888 92.192634 -69.431596
7 1 1 1.351057 92.602943 -69.014222
8 1 1 2.261812 92.891271 -68.718600
9 1 1 1.965465 91.941083 -68.622049
10 1 1 2.042839 91.069958 -69.106976
11 1 1 1.967209 90.078173 -69.210138
12 1 1 2.152094 90.147079 -70.190480
13 1 1 2.681488 89.501693 -69.639826
14 1 1 2.665908 88.531982 -69.883583
15 1 1 2.718908 88.799215 -70.845757
16 1 1 1.809869 88.963053 -71.228910
17 1 1 1.938524 89.377971 -72.129627
18 1 1 2.136385 90.330493 -72.361041
19 1 1 1.421817 90.993443 -72.137679
20 1 1 1.929209 90.797927 -72.976921
21 1 1 2.024541 89.995009 -73.565338
22 1 1 2.711929 90.523712 -74.063303
23 1 1 2.710307 91.212940 -73.338760
24 1 1 3.664902 91.492360 -73.442067
25 1 1 3.561346 91.914727 -74.342558
26 1 1 3.464550 91.937765 -75.337595
27 1 1 3.678391 91.448732 -76.183242
28 1 1 4.607570 91.389754 -76.548137
29 1 1 4.770534 91.173521 -75.585491
30 1 1 5.127253 90.388119 -75.079632
31 1 1 5.592497 89.922646 -75.832549
32 1 1 5.812332 90.830633 -76.189245
33 1 1 5.168093 90.586698 -76.914125
34 1 1 5.172249 89.869788 -77.611278
35 1 1 6.170901 89.833334 -77.648225
36 1 1 6.900909 89.232733 -77.974365
37 1 1 7.236549 89.455691 -78.889589
38 1 1 7.803780 89.053800 -79.608430
39 1 1 7.322979 89.119272 -80.482813
40 1 1 7.321295 90.086362 -80.737240
41 1 1 6.672129 90.325160 -80.015050
42 1 1 6.989424 91.268200 -79.915047
43 1 1 6.018229 91.061670 -80.033901
44 1 1 6.542670 90.916846 -79.194861
45 1 1 5.917230 91.256847 -78.492562
46 1 1 5.469531 91.306794 -79.385350
47 1 1 5.803933 90.364474 -79.370856
48 1 1 6.054809 89.877216 -78.534412
49 1 1 5.310220 89.525493 -79.101753
50 1 1 5.380188 89.163735 -78.172111
51 1 1 5.020715 88.300413 -77.817915
52 1 1 4.210949 87.771783 -77.563298
53 1 1 4.402877 87.581027 -78.525990
54 1 1 4.683906 87.754493 -79.469882
55 1 1 5.186063 87.297461 -80.204021
56 1 1 5.520221 86.674491 -79.496740
57 1 1 6.205943 85.957634 -79.622842
58 1 1 6.442594 85.238695 -78.969296
59 1 1 5.968671 84.361562 -78.891604
60 1 1 6.414946 84.131848 -79.756514
61 1 1 6.705647 83.306191 -80.240026
62 1 1 6.734667 82.306824 -80.219471
63 1 1 6.489963 82.437085 -81.180279
64 1 1 7.440742 82.222809 -81.404119
65 1 1 7.876261 82.202664 -82.304073
66 1 1 8.420458 82.945164 -82.694643
67 1 1 8.156872 83.400058 -83.545286
68 1 1 8.685612 83.640432 -84.359322
69 1 1 7.846937 83.504515 -84.886722
70 1 1 8.007804 83.818669 -85.822366
71 1 1 8.353829 84.743080 -85.982773
72 1 1 7.593564 84.540646 -86.600040
73 1 1 6.684775 84.719681 -86.976933
74 1 1 6.104260 83.978017 -87.312994
75 1 1 6.022694 82.981661 -87.337947
76 1 1 5.255587 83.622097 -87.375208
77 1 1 4.710099 82.850259 -87.701869
78 1 1 4.551835 82.109227 -88.354421
79 1 1 4.380134 81.631498 -87.492856
80 1 1 5.303281 81.644496 -87.108628
81 1 1 5.474654 82.210365 -87.915116
82 1 1 6.084947 82.284767 -88.703790
83 1 1 5.554461 83.132444 -88.709060
84 1 1 4.681474 83.569848 -88.493253
85 1 1 3.865568 84.008150 -88.870332
86 1 1 4.341485 84.717873 -89.389750
87 1 1 4.298486 84.750570 -88.391210
88 1 1 4.563825 85.506892 -88.989182
89 1 1 4.292293 86.181918 -89.675194
90 1 1 3.568100 86.494114 -89.060313
91 1 1 2.797284 87.116742 -88.925494
92 1 1 3.634955 87.115905 -88.379320
93 1 1 4.403177 87.506800 -88.886307
94 1 1 5.062024 88.251304 -88.994168
95 1 1 4.912687 88.138979 -89.976553
96 1 1 5.118649 88.394957 -90.921040
97 1 1 5.567115 87.565632 -91.254356
98 1 1 5.383978 88.331567 -91.870640
99 1 1 5.868783 89.143372 -91.545163
100 1 1 6.297421 88.779683 -92.372205
101 1 1 6.823509 87.959265 -92.596137
102 1 1 6.271807 88.186520 -93.398621
103 1 1 7.067985 88.588292 -93.851036
104 1 1 7.898274 88.083747 -93.614280
105 1 1 8.159055 88.997260 -93.926509
106 1 1 9.147944 89.097202 -94.036557
107 1 1 8.788541 89.676867 -93.305244
108 1 1 9.629841 90.023505 -93.720042
109 1 1 9.653448 90.406832 -92.796731
110 1 1 10.608611 90.113438 -92.756945
111 1 1 10.093907 89.278896 -92.953466
112 1 1 10.844474 89.343650 -93.611080
113 1 1 10.341949 89.338318 -94.475626
114 1 1 10.716905 90.234891 -94.239902
115 1 1 11.023002 90.866613 -94.952105
116 1 1 10.815091 91.310984 -94.080722
117 1 1 10.967874 92.298611 -94.116067
118 1 1 11.585253 93.080927 -94.198681
119 1 1 12.545679 93.315926 -94.049157
120 1 1 12.376433 93.566318 -95.002394
121 1 1 12.543586 93.586550 -95.988117
122 1 1 13.321618 93.090386 -96.373458
123 1 1 12.676373 93.687006 -96.850641
124 1 1 13.397531 94.320646 -96.570582
125 1 1 14.115841 94.544079 -95.911714
126 1 1 13.420430 95.159661 -95.540955
127 1 1 12.920394 95.642561 -94.822086
128 1 1 12.438771 95.677435 -93.946402
129 1 1 11.909611 94.966575 -94.409724
130 1 1 11.349511 94.395239 -93.809838
131 1 1 11.541974 93.502158 -93.403189
132 1 1 12.311735 93.993836 -92.996101
133 1 1 12.326369 94.707184 -93.696759
134 1 1 12.878439 94.643048 -92.865431
135 1 1 13.269315 93.728887 -92.758074
136 1 1 13.964379 93.084595 -93.077095
137 1 1 13.567536 92.312438 -92.580821
138 1 1 14.410691 92.826978 -92.424814
139 1 1 14.948562 93.456102 -91.863657
140 1 1 14.003354 93.595679 -92.158784
141 1 1 14.690583 93.664724 -92.881937
142 1 1 14.885704 94.586342 -92.546453
143 1 1 15.293064 94.603045 -93.459568
144 1 1 15.666990 95.434629 -93.870234
145 1 1 16.450864 95.205471 -94.447321
146 1 1 16.734596 94.900815 -95.356541
147 1 1 16.409338 94.929709 -96.301724
148 1 1 16.172433 94.709419 -97.247953
149 1 1 15.272043 94.428546 -97.580231
150 1 1 15.884853 94.610875 -98.349140
151 1 1 15.869183 94.397235 -99.325927
152 1 1 15.675713 95.218875 -99.862096
153 1 1 16.431140 95.011519 -99.240539
154 1 1 16.807676 95.245024 -98.344048
155 1 1 17.529842 94.962255 -98.975332
156 1 1 18.356901 95.520599 -99.040342
157 1 1 18.227924 96.182926 -99.778372
158 1 1 18.415956 96.732674 -98.964479
159 1 1 18.438487 97.568458 -99.513075
160 1 1 17.972282 98.440753 -99.365582
161 1 1 17.523976 97.639441 -99.761712
162 1 1 17.411688 96.649444 -99.676287
163 1 1 17.074659 95.709045 -99.630882
164 1 1 16.389158 96.372946 -99.332011
165 1 1 17.224756 96.108496 -98.850512
166 1 1 17.664855 96.113479 -97.952577
167 1 1 18.136732 96.973806 -98.145369
168 1 1 18.723964 97.783066 -98.161462
169 1 1 19.089278 98.002387 -99.066141
170 1 1 19.406334 97.058949 -99.163098
171 1 1 18.943082 96.669955 -99.959391
172 1 1 19.071863 95.682468 -99.868373
173 1 1 19.485841 95.793249 -98.964852
174 1 1 19.039661 94.996054 -98.558156
175 1 1 19.526473 94.598855 -99.336132
176 1 1 19.486748 93.620491 -99.539170
177 1 1 18.650598 94.166443 -99.591994
178 1 1 18.146874 94.422369 -98.766910
179 1 1 17.835544 94.239804 -97.834310
180 1 1 17.329893 93.939886 -97.025380
181 1 1 17.031071 93.593181 -96.136279
182 1 1 17.819807 93.727603 -95.536423
183 1 1 17.124785 93.947020 -94.851733
184 1 1 17.435109 93.006425 -94.713962
185 1 1 16.477314 92.731631 -94.629605
186 1 1 15.787113 93.452561 -94.691907
187 1 1 16.251241 93.819630 -93.885777
188 1 1 16.856911 93.023919 -93.883247
189 1 1 15.923235 92.815997 -93.591669
190 1 1 16.148760 92.866213 -92.618726
191 1 1 16.529954 92.770250 -91.699225
192 1 1 16.478087 92.196208 -90.882044
193 1 1 17.169008 92.208566 -90.159219
194 1 1 17.808738 91.600532 -90.629369
195 1 1 18.066787 90.732592 -90.204997
196 1 1 18.777663 90.037888 -90.314723
197 1 1 19.442203 89.614864 -90.930708
198 1 1 20.198330 90.161622 -90.571086
199 1 1 19.872138 91.095711 -90.425911
200 1 1 19.178178 90.683324 -91.016127
201 1 1 18.319480 90.970193 -91.440795
202 1 1 17.586862 91.354500 -92.002560
203 1 1 17.949259 91.842884 -92.796379
204 1 1 17.855806 90.848369 -92.843343
205 1 1 18.225834 90.281792 -92.107088
206 1 1 17.965827 89.322654 -92.218668
207 1 1 18.452851 88.449311 -92.227613
208 1 1 18.194605 89.042874 -92.989841
209 1 1 17.975479 90.015595 -93.065990
210 1 1 18.850279 90.130531 -93.536644
211 1 1 18.327196 90.242397 -94.381552
212 1 1 17.883279 89.820715 -95.172198
213 1 1 16.964424 90.214820 -95.191859
214 1 1 16.087794 90.260648 -94.712882
215 1 1 16.483703 90.817088 -93.982382
216 1 1 15.687702 91.158010 -94.482536
217 1 1 16.337436 91.917701 -94.455783
218 1 1 17.146720 91.484356 -94.059209
219 1 1 17.164039 90.525338 -94.342024
220 1 1 16.878260 89.687178 -93.877461
221 1 1 16.188373 89.141983 -93.401207
222 1 1 17.031051 88.684380 -93.684920
223 1 1 17.773925 89.333393 -93.848996
224 1 1 17.377149 88.665724 -94.478907
225 1 1 16.390840 88.634649 -94.640865
226 1 1 16.380569 88.925319 -95.597633
227 1 1 15.913072 89.642457 -96.114509
228 1 1 15.662470 90.234224 -96.880674
229 1 1 15.944756 89.659487 -97.648783
230 1 1 15.317526 88.880794 -97.663658
231 1 1 15.027646 89.155251 -98.580524
232 1 1 16.026428 89.111954 -98.604189
233 1 1 16.562762 88.799135 -99.388083
234 1 1 16.627017 89.608857 -98.804798
235 1 1 17.315603 89.180175 -99.389675
236 1 1 18.282022 89.057920 -99.163649
237 1 1 18.629308 89.731757 -99.815827
238 1 1 18.971218 90.359198 -99.116245
239 1 1 18.284769 90.893094 -99.609950
240 1 1 17.770185 91.730601 -99.426147
241 1 1 17.017998 91.821726 -98.773529
242 1 1 17.897146 92.061020 -98.361417
243 1 1 17.464821 91.717741 -97.527598
244 1 1 17.161063 92.664487 -97.420811
245 1 1 16.996568 93.565363 -97.822511
246 1 1 17.871076 93.112747 -97.996789
247 1 1 18.569534 92.913864 -98.684250
248 1 1 18.495396 93.166186 -99.649049
249 1 1 17.588639 92.993818 -99.264235
250 1 1 16.705875 92.980273 -98.794614
251 1 1 16.166752 92.479227 -98.117636
252 1 1 15.301674 92.760679 -98.532877
253 1 1 14.970931 91.901480 -98.923245
254 1 1 15.431662 91.085756 -98.573501
255 1 1 16.235800 91.651503 -98.755960
256 1 1 16.541119 90.699265 -98.751273
257 1 1 15.845900 90.228112 -99.294123
258 1 1 16.582920 90.563740 -99.880770
259 1 1 17.390378 89.998450 -99.712074
260 1 1 17.668870 90.736572 -99.097568
261 1 1 17.668761 90.696981 -98.098352
262 1 1 16.880182 90.783703 -97.489563
263 1 1 17.256567 90.625240 -96.576752
264 1 1 16.759137 89.811980 -96.274804
265 1 1 17.676745 89.810867 -96.672290
266 1 1 18.477612 90.320386 -96.357643
267 1 1 18.328249 91.132473 -96.921740
268 1 1 19.029207 91.742095 -96.551579
269 1 1 18.481824 92.554321 -96.349932
270 1 1 18.178066 92.614535 -97.300777
271 1 1 18.843678 93.101586 -97.866235
272 1 1 19.583441 92.885822 -97.228899
273 1 1 20.138798 92.631857 -96.437015
274 1 1 19.301994 92.289613 -96.009666
275 1 1 19.886431 92.335443 -95.199522
276 1 1 20.283624 91.509826 -94.798779
277 1 1 21.000871 91.180039 -94.184942
278 1 1 20.037095 90.917832 -94.136120
279 1 1 20.437233 90.377394 -93.395974
280 1 1 20.779278 90.004796 -92.533318
281 1 1 20.818814 90.450651 -91.639086
282 1 1 21.569088 89.936482 -92.054682
283 1 1 22.120486 90.208990 -92.843160
284 1 1 22.788016 90.952197 -92.797904
285 1 1 23.691599 90.797180 -93.197287
286 1 1 23.493435 89.841415 -92.979932
287 1 1 24.045387 89.532051 -93.754298
288 1 1 23.259232 88.914037 -93.758741
289 1 1 22.700858 88.096885 -93.901851
290 1 1 23.616978 87.762441 -93.680784
291 1 1 24.230009 87.045314 -94.012329
292 1 1 24.200511 88.017392 -94.245123
293 1 1 23.426492 88.549020 -94.589022
294 1 1 24.130243 88.196921 -95.206079
295 1 1 24.274983 88.721716 -96.044912
296 1 1 23.622900 88.533548 -96.779337
297 1 1 24.081890 87.646273 -96.733822
298 1 1 23.176913 87.239535 -96.858642
299 1 1 23.034076 86.251605 -96.798721
300 1 1 23.759829 86.734197 -97.289013
301 1 1 24.389765 86.504380 -98.030879
302 1 1 24.460695 86.755386 -98.996262
303 1 1 24.520360 87.688764 -98.642363
304 1 1 24.956582 88.007433 -97.800840
305 1 1 24.248458 87.371410 -97.494189
306 1 1 23.407948 87.402206 -98.035109
307 1 1 22.814910 86.767824 -97.539260
308 1 1 22.526744 85.816718 -97.428102
309 1 1 22.129786 85.262366 -98.159620
310 1 1 21.531384 85.932997 -98.597991
311 1 1 20.663290 85.570339 -98.936949
312 1 1 20.966978 84.754632 -98.444612
313 1 1 21.119941 85.253381 -97.591470
314 1 1 20.929439 85.370098 -96.616746
315 1 1 21.415703 86.234922 -96.741760
316 1 1 21.985699 86.928430 -97.182385
317 1 1 22.568994 87.731950 -97.301220
318 1 1 22.569460 87.284780 -98.195669
319 1 1 22.858769 86.521766 -98.773692
320 1 1 22.463851 85.737513 -99.252217
321 1 1 22.700796 84.885413 -99.718889
322 1 1 23.026306 84.534597 -98.840840
323 1 1 22.637346 84.588866 -97.921185
324 1 1 23.248389 83.830526 -98.148227
325 1 1 23.403435 83.758524 -99.133507
326 1 1 24.000702 83.178930 -98.579122
327 1 1 24.744563 82.873848 -97.984482
328 1 1 25.448767 82.615408 -98.645773
329 1 1 25.321527 83.603750 -98.562160
330 1 1 24.557620 83.444611 -99.187557
331 1 1 24.802268 84.404921 -99.321536
332 1 1 25.460957 84.798658 -99.962707
333 1 1 26.153013 84.447203 -99.332201
334 1 1 25.969664 83.464191 -99.323724
335 1 1 26.497604 83.033090 -98.591992
336 1 1 26.832647 82.563689 -97.775041
337 1 1 25.849679 82.399791 -97.858177
338 1 1 26.618270 81.795509 -97.648150
339 1 1 26.444280 82.263437 -96.781680
340 1 1 26.614545 83.202852 -97.079186
341 1 1 25.983903 83.044180 -96.319506
342 1 1 25.002609 83.089396 -96.132376
343 1 1 25.551952 83.886033 -96.384552
344 1 1 26.456681 83.658203 -96.024611
345 1 1 27.399996 83.872968 -96.277662
346 1 1 27.135093 82.949315 -96.000727
347 1 1 27.896997 83.334169 -95.479776
348 1 1 28.220130 84.236470 -95.765147
349 1 1 28.329400 84.725844 -94.899946
350 1 1 27.355202 84.516231 -94.983613
351 1 1 26.593253 85.143257 -94.821523
352 1 1 26.408003 84.379674 -95.440088
353 1 1 25.804347 84.658310 -96.187057
354 1 1 26.353294 85.479112 -96.344982
355 1 1 26.798021 86.139333 -95.739732
356 1 1 25.881624 86.256781 -95.357079
357 1 1 24.893702 86.229737 -95.204504
358 1 1 25.510439 86.910305 -94.808949
359 1 1 25.031690 86.653515 -93.969390
360 1 1 24.669917 86.628290 -93.037465
361 1 1 24.760501 85.654660 -93.246844
362 1 1 25.237872 85.512543 -92.379712
363 1 1 26.079411 85.085333 -92.710324
364 1 1 25.996894 84.134620 -92.411433
365 1 1 25.402984 83.391767 -92.720367
366 1 1 24.611054 83.352876 -93.329739
367 1 1 24.144284 83.759119 -92.544187
368 1 1 24.631771 82.990711 -92.129572
369 1 1 24.996838 82.914793 -91.201691
370 1 1 25.337084 82.321308 -91.931081
371 1 1 26.056631 81.774373 -91.503163
372 1 1 25.915208 82.763603 -91.465456
373 1 1 26.647022 83.407729 -91.688054
374 1 1 26.433189 84.384588 -91.683412
375 1 1 26.144611 84.791518 -90.816734
376 1 1 26.128126 85.786557 -90.914844
377 1 1 26.835545 85.678243 -90.216399
378 1 1 27.715147 85.454705 -89.796479
379 1 1 27.394866 84.762231 -90.442931
380 1 1 27.387190 83.864226 -90.003013
381 1 1 27.472157 83.891190 -89.006994
382 1 1 26.572368 83.504687 -89.209467
383 1 1 26.487108 82.735128 -89.842325
384 1 1 27.176692 82.373364 -89.214948
385 1 1 27.868144 82.816380 -89.785589
386 1 1 28.583427 83.281776 -89.264267
387 1 1 29.014465 83.642333 -88.437100
388 1 1 28.843129 82.859397 -87.839056
389 1 1 29.384090 82.675870 -87.018277
390 1 1 29.897284 81.840504 -87.215247
391 1 1 29.068007 81.737923 -86.665904
392 1 1 28.378173 81.590140 -85.957180
393 1 1 28.339642 80.939306 -86.715423
394 1 1 28.318511 79.946552 -86.597134
395 1 1 27.755635 80.043412 -87.417980
396 1 1 28.351421 80.223724 -88.200622
397 1 1 28.924327 79.459958 -87.903232
398 1 1 28.946357 80.408422 -87.587114
399 1 1 29.337531 79.694513 -87.006325
400 1 1 30.288311 80.004149 -86.994423
401 1 1 30.531187 79.071473 -86.727728
402 1 1 30.092422 79.444558 -87.545219
403 1 1 30.775730 80.075325 -87.912947
404 1 1 29.923142 80.277641 -88.394779
405 1 1 29.503038 81.182550 -88.462994
406 1 1 28.600608 81.092034 -88.884215
407 1 1 29.143998 80.263574 -88.748639
408 1 1 29.917742 80.419427 -89.362667
409 1 1 29.073891 80.935140 -89.510845
410 1 1 28.392360 81.229493 -90.180823
411 1 1 28.901123 82.045359 -90.455638
412 1 1 28.723419 82.066751 -91.439490
413 1 1 29.158248 82.182528 -92.332529
414 1 1 29.707701 82.800162 -92.895228
415 1 1 30.072105 83.569986 -92.371223
416 1 1 29.084818 83.624932 -92.520372
417 1 1 29.411784 83.878720 -93.430694
418 1 1 30.342856 83.972802 -93.078197
419 1 1 29.977698 83.480989 -93.868627
420 1 1 30.884468 83.097994 -94.044930
421 1 1 30.492820 83.999610 -94.228505
422 1 1 31.482897 84.140134 -94.229808
423 1 1 30.754816 84.763809 -93.945330
424 1 1 29.977611 85.366512 -93.764494
425 1 1 29.939867 86.268150 -93.333652
426 1 1 29.042277 86.366721 -92.903984
427 1 1 29.627367 85.557263 -92.953459
428 1 1 29.205728 84.963821 -92.267859
429 1 1 28.575002 84.918999 -91.493149
430 1 1 29.188304 85.665385 -91.751545
431 1 1 29.431406 86.635385 -91.752625
432 1 1 30.276751 86.102614 -91.713286
433 1 1 30.514884 86.932165 -92.218399
434 1 1 31.349259 87.366738 -92.557463
435 1 1 31.799257 88.226689 -92.316660
436 1 1 31.437325 89.077878 -92.696769
437 1 1 30.734856 89.602239 -93.177999
438 1 1 30.147115 89.049934 -93.769201
439 1 1 29.983082 88.132735 -93.406107
440 1 1 30.035853 88.195656 -92.409484
441 1 1 30.472749 88.725001 -91.682219
442 1 1 30.772941 87.783015 -91.532066
443 1 1 30.219085 88.313295 -90.890157
444 1 1 29.337912 88.772121 -91.004229
445 1 1 28.887030 89.664214 -91.033807
446 1 1 28.628907 89.704710 -91.999070
447 1 1 28.261703 89.435823 -92.889497
448 1 1 28.555034 89.862302 -93.745109
449 1 1 28.437187 90.398557 -92.909321
450 1 1 27.879640 90.663309 -92.122525
451 1 1 27.742809 90.215188 -91.239086
452 1 1 26.945935 90.757734 -90.973314
453 1 1 27.080304 91.603862 -90.457550
454 1 1 27.894537 92.174510 -90.350854
455 1 1 28.016677 91.819593 -91.277739
456 1 1 28.786326 92.397752 -91.548613
457 1 1 29.488870 91.817174 -91.960148
458 1 1 28.860899 91.046473 -91.852114
459 1 1 28.660078 91.451211 -92.744223
460 1 1 27.873251 91.578666 -93.348093
461 1 1 28.239870 91.132378 -94.164437
462 1 1 27.363859 91.071539 -94.642874
463 1 1 26.685868 90.366532 -94.434800
464 1 1 26.772284 89.374617 -94.527736
465 1 1 26.922654 88.554789 -95.080249
466 1 1 27.515137 88.099896 -94.415391
467 1 1 28.257455 87.480985 -94.158653
468 1 1 28.206441 88.403960 -93.777190
469 1 1 29.082594 88.880660 -93.848702
470 1 1 29.199656 89.370489 -94.712625
471 1 1 29.348932 89.758659 -93.803208
472 1 1 28.955708 90.160267 -94.630303
473 1 1 29.751778 90.519143 -94.142982
474 1 1 29.272039 91.047731 -93.442664
475 1 1 29.989716 91.291004 -94.095165
476 1 1 29.026435 91.554431 -94.043239
477 1 1 29.771761 91.900991 -94.612788
478 1 1 29.373209 91.573431 -95.469444
479 1 1 29.290787 92.013938 -96.363402
480 1 1 28.504653 91.590101 -95.913563
481 1 1 28.373158 90.601829 -95.835934
482 1 1 28.894083 90.800753 -96.666034
483 1 1 29.009173 90.014938 -97.273692
484 1 1 29.911344 90.378151 -97.506420
485 1 1 29.657557 90.159571 -96.564181
486 1 1 30.199774 90.945938 -96.268163
487 1 1 30.361854 91.685966 -95.615408
488 1 1 29.926965 92.475816 -95.182962
489 1 1 30.025738 93.287267 -94.606949
490 1 1 30.632971 92.873850 -93.928454
491 1 1 30.755293 93.728188 -93.423336
492 1 1 29.761529 93.810515 -93.498532
493 1 1 28.958633 93.618198 -94.062777
494 1 1 28.112338 93.182395 -93.756412
495 1 1 29.017404 92.824013 -93.527464
496 1 1 29.103094 93.612214 -92.918042
497 1 1 28.175308 93.957488 -93.059457
498 1 1 28.811088 94.113973 -92.303615
499 1 1 29.050261 93.999402 -91.339422
500 1 1 28.223134 93.767417 -91.851324
501 1 1 27.921476 92.865949 -92.161739
502 1 1 27.645756 92.601945 -93.086012
503 1 1 27.302661 92.265305 -92.209108
504 1 1 27.031528 91.788829 -91.372773
505 1 1 26.046829 91.962538 -91.386695
506 1 1 25.919719 91.183632 -92.000819
507 1 1 25.094320 90.860325 -91.538015
508 1 1 24.510646 91.629980 -91.796773
509 1 1 23.977440 91.453770 -92.624203
510 1 1 24.552875 90.665463 -92.406382
511 1 1 24.761636 91.050983 -93.305155
512 1 1 25.488231 91.728831 -93.192989
513 1 1 24.721570 92.246838 -92.813647
514 1 1 24.590227 93.237068 -92.766823
515 1 1 25.298617 93.299238 -93.469902
516 1 1 25.466462 92.736084 -94.279028
517 1 1 25.815256 91.831729 -94.033090
518 1 1 26.584007 91.719748 -94.662758
519 1 1 26.165105 91.204835 -95.410679
520 1 1 25.428621 91.445515 -94.778489
521 1 1 24.611374 91.312725 -95.339270
522 1 1 23.775601 91.070321 -95.831938
523 1 1 23.989725 91.533539 -96.691926
524 1 1 24.398506 90.626492 -96.591111
525 1 1 25.115854 89.969317 -96.822486
526 1 1 24.885065 90.233459 -97.758950
527 1 1 24.438535 89.342892 -97.672331
528 1 1 24.608498 88.818364 -96.838075
529 1 1 25.492414 88.394172 -97.034934
530 1 1 26.359261 88.532129 -96.555827
531 1 1 26.153585 88.291692 -97.504451
532 1 1 26.898483 88.359731 -98.168151
533 1 1 27.728068 88.415331 -97.612546
534 1 1 27.559241 87.706732 -98.297663
535 1 1 27.519015 87.379406 -99.241718
536 1 1 26.768967 88.040710 -99.231416
537 1 1 26.508712 88.859392 -98.719530
538 1 1 26.602027 89.845238 -98.858808
539 1 1 26.784859 90.691010 -98.357567
540 1 1 26.631074 91.201395 -97.511483
541 1 1 26.598956 91.017892 -96.528989
542 1 1 26.417882 90.048183 -96.365049
543 1 1 27.299848 90.313235 -95.975326
544 1 1 26.468611 90.131539 -95.449939
545 1 1 25.843813 90.568755 -94.803046
546 1 1 25.025727 90.414255 -94.249091
547 1 1 25.699173 90.897032 -93.689273
548 1 1 26.317587 90.756650 -92.916060
549 1 1 26.340431 90.266144 -92.044922
550 1 1 25.758466 89.531771 -91.695617
551 1 1 24.843821 89.924485 -91.599691
552 1 1 23.925157 89.529838 -91.617302
553 1 1 24.613004 88.823262 -91.783483
554 1 1 24.023542 88.736943 -92.586654
555 1 1 24.532489 88.928976 -93.425759
556 1 1 25.041311 89.643298 -93.906222
557 1 1 25.481411 88.750566 -94.002870
558 1 1 25.767386 89.408737 -94.699310
559 1 1 25.970759 89.511463 -95.673008
560 1 1 25.639031 90.342857 -96.118812
561 1 1 25.511002 91.322339 -95.963177
562 1 1 24.806164 92.030597 -96.002863
563 1 1 25.473222 92.567951 -96.518890
564 1 1 25.568017 92.232321 -95.581677
565 1 1 26.104435 93.066535 -95.709516
566 1 1 26.726811 93.349697 -96.439221
567 1 1 27.635286 93.009759 -96.196084
568 1 1 28.202089 93.154456 -95.385037
569 1 1 28.908358 93.836215 -95.575798
570 1 1 29.395186 94.459555 -96.187717
571 1 1 29.547190 95.321189 -96.671950
572 1 1 28.713491 95.325399 -96.119748
573 1 1 27.945854 95.205141 -96.749250
574 1 1 27.008523 95.155463 -96.404370
575 1 1 26.514680 95.357651 -95.558652
576 1 1 27.169131 94.680053 -95.223160
577 1 1 26.877595 93.795904 -95.588245
578 1 1 27.367558 94.030395 -96.427858
579 1 1 28.336725 94.273232 -96.469631
580 1 1 29.088645 93.771714 -96.897529
581 1 1 30.065903 93.965709 -96.811905
582 1 1 30.854605 93.575969 -97.287355
583 1 1 31.130408 94.187813 -96.546019
584 1 1 30.952182 93.400443 -95.955863
585 1 1 31.248957 93.000883 -96.823202
586 1 1 31.813862 93.752286 -97.164195
587 1 1 32.276546 92.983871 -97.606304
588 1 1 31.956852 92.531119 -96.773951
589 1 1 31.875166 92.086795 -97.666086
590 1 1 31.788363 91.100605 -97.525036
591 1 1 30.790061 91.103127 -97.583239
592 1 1 30.817605 91.802314 -96.868831
593 1 1 31.491463 91.258523 -96.368625
594 1 1 32.423326 91.412133 -96.697312
595 1 1 32.565034 91.425106 -97.687135
596 1 1 32.397150 92.018756 -98.474152
597 1 1 32.653980 92.324035 -99.391127
598 1 1 33.181290 92.767866 -98.666587
599 1 1 33.948055 92.891218 -99.296551
600 1 1 34.021506 93.670386 -98.674055
601 1 1 34.903219 93.581845 -99.137459
602 1 1 34.384430 94.131272 -99.792430
603 1 1 35.356478 93.897528 -99.814513
604 1 1 36.235897 93.844723 -99.341404
605 1 1 35.703449 93.328076 -98.670901
606 1 1 35.822532 92.682486 -99.425243
607 1 1 36.044451 91.799677 -99.839249
608 1 1 36.518357 92.044950 -98.993522
609 1 1 37.396727 92.475371 -99.201375
610 1 1 38.147994 93.087428 -98.954425
611 1 1 37.579001 93.453144 -98.217880
612 1 1 38.423674 93.971958 -98.086126
613 1 1 37.865942 94.319689 -97.332456
614 1 1 38.541227 95.052816 -97.251745
615 1 1 39.411805 94.650391 -97.534849
616 1 1 39.202143 94.372572 -96.597375
617 1 1 39.183375 95.371998 -96.625592
618 1 1 38.197716 95.529761 -96.685477
619 1 1 37.846402 94.754474 -96.160587
620 1 1 38.722387 94.546360 -95.725457
621 1 1 38.257664 95.132198 -95.061511
622 1 1 37.499349 94.727174 -94.550714
623 1 1 36.514295 94.738597 -94.722581
624 1 1 35.572552 94.803398 -94.392547
625 1 1 35.746637 93.976157 -93.858350
626 1 1 35.569895 93.959184 -92.874239
627 1 1 36.537282 93.751152 -92.729719
628 1 1 37.422031 94.211700 -92.658206
629 1 1 37.285073 93.403141 -92.085951
630 1 1 37.746257 93.383790 -91.198857
631 1 1 38.279742 93.505958 -90.361917
632 1 1 38.080704 94.451810 -90.618331
633 1 1 38.480825 94.775979 -89.761116
634 1 1 39.394923 94.896190 -89.373851
635 1 1 39.744873 94.066742 -89.809226
636 1 1 40.718921 93.845395 -89.856501
637 1 1 40.507661 93.051695 -90.426947
638 1 1 40.678683 92.741633 -89.491740
639 1 1 40.075583 91.959730 -89.649528
640 1 1 39.433702 92.692416 -89.875715
641 1 1 39.914045 92.842756 -89.011616
642 1 1 39.713257 92.630435 -88.055266
643 1 1 39.079562 91.951256 -88.425598
644 1 1 39.003604 91.061515 -87.975497
645 1 1 38.746442 90.896472 -87.023326
646 1 1 37.777134 90.865976 -86.779374
647 1 1 38.096221 91.135602 -85.870812
648 1 1 38.310277 91.914208 -85.280938
649 1 1 37.754183 91.625332 -84.501636
650 1 1 37.550982 91.574760 -85.479466
651 1 1 37.319823 90.692253 -85.889035
652 1 1 37.790892 89.983148 -86.413691
653 1 1 38.677605 90.294556 -86.071981
654 1 1 39.504254 89.835463 -86.397382
655 1 1 39.500212 88.965787 -85.903775
656 1 1 39.864459 89.071044 -86.829110
657 1 1 39.155380 89.041509 -87.533621
658 1 1 39.448371 89.805742 -88.108168
659 1 1 39.767592 90.753419 -88.105633
660 1 1 39.915785 91.717476 -88.326160
661 1 1 40.154733 91.299433 -89.202598
662 1 1 40.874803 91.044137 -88.557367
663 1 1 41.859907 91.168580 -88.438684
664 1 1 41.772646 90.730519 -89.333384
665 1 1 42.517812 91.337223 -89.610220
666 1 1 42.631992 90.568922 -88.980398
667 1 1 43.289487 90.687725 -89.724432
668 1 1 44.056519 91.308706 -89.885812
669 1 1 44.516809 90.495858 -90.242760
670 1 1 44.031638 90.562575 -89.370890
671 1 1 43.712714 91.396138 -88.919824
672 1 1 44.460603 91.911314 -89.338460
673 1 1 43.553330 91.964132 -89.755673
674 1 1 42.855643 91.962219 -90.472073
675 1 1 41.938960 92.030003 -90.078248
676 1 1 41.283776 92.618705 -90.551707
677 1 1 40.577932 91.935131 -90.737478
678 1 1 41.400232 91.490919 -91.093146
679 1 1 42.399842 91.518733 -91.090905
680 1 1 43.181737 92.134507 -91.188179
681 1 1 43.611278 93.024870 -91.037354
682 1 1 42.636014 93.179584 -91.195228
683 1 1 42.535525 93.957779 -91.815159
684 1 1 41.580173 93.952992 -92.110591
685 1 1 41.192606 94.033675 -93.028894
686 1 1 40.540812 93.358726 -93.374739
687 1 1 39.889924 93.326453 -94.133226
688 1 1 39.474936 93.657699 -93.285841
689 1 1 39.240376 94.360703 -92.614449
690 1 1 39.472538 95.226442 -93.057841
691 1 1 38.502997 95.287476 -92.820636
692 1 1 38.153752 95.782320 -93.616348
693 1 1 38.817345 95.058155 -93.804046
694 1 1 39.474298 94.305181 -93.842022
695 1 1 39.908388 94.044879 -94.704465
696 1 1 40.355984 94.354600 -95.543351
697 1 1 40.401954 93.447462 -95.961666
698 1 1 41.131965 92.944206 -96.424070
699 1 1 42.107328 92.747576 -96.524092
700 1 1 43.015596 92.329746 -96.502498
701 1 1 43.125994 92.979951 -97.254193
702 1 1 42.444066 93.468423 -97.798592
703 1 1 42.152473 94.408981 -97.972730
704 1 1 43.081258 94.521652 -97.619653
705 1 1 43.402249 93.848561 -98.285921
706 1 1 43.769463 93.015056 -98.698746
707 1 1 43.550136 92.417434 -97.927550
708 1 1 44.348404 92.596524 -97.352488
709 1 1 45.222309 92.222612 -97.663099
710 1 1 45.932470 92.618483 -98.245301
711 1 1 46.932007 92.617453 -98.214901
712 1 1 47.393189 93.076965 -97.455849
713 1 1 48.208913 93.631079 -97.621834
714 1 1 48.796188 93.326956 -96.871756
715 1 1 49.504798 94.031230 -96.914996
716 1 1 50.305275 94.469147 -96.505771
717 1 1 51.288280 94.530362 -96.332696
718 1 1 50.800187 93.665405 -96.216016
719 1 1 49.944356 93.832013 -95.726327
720 1 1 48.988607 93.691514 -95.984791
721 1 1 49.653196 92.965689 -96.162271
722 1 1 49.025141 92.237686 -95.887391
723 1 1 49.250930 92.131475 -94.919022
724 1 1 48.279261 92.150425 -94.683434
725 1 1 48.800445 91.311672 -94.841109
726 1 1 49.402404 90.521697 -94.724556
727 1 1 49.757090 90.768718 -95.626320
728 1 1 49.371683 89.869208 -95.420546
729 1 1 48.811818 90.388386 -96.066306
730 1 1 49.538241 90.042755 -96.660318
731 1 1 48.788938 89.520486 -96.253158
732 1 1 49.009190 89.325503 -97.208914
733 1 1 49.916381 89.353790 -97.628682
734 1 1 49.914940 88.359214 -97.732679
735 1 1 49.807649 87.679180 -97.007391
736 1 1 50.194147 87.367721 -97.875499
737 1 1 51.110765 87.120404 -98.189579
738 1 1 51.252548 86.969638 -99.167928
739 1 1 51.580909 86.299682 -99.833765
740 1 1 52.575761 86.335981 -99.739147
741 1 1 52.717115 87.315953 -99.598885
742 1 1 52.504539 88.275172 -99.785196
743 1 1 53.439243 87.954468 -99.938419
744 1 1 53.239950 88.450117 -99.093071
745 1 1 52.835517 87.589833 -98.782678
746 1 1 52.001923 87.049415 -98.897001
747 1 1 51.378129 87.767449 -99.205721
748 1 1 51.075668 88.385495 -99.931349
749 1 1 51.008075 89.383011 -99.911488
750 1 1 51.751094 89.013856 -99.353235
751 1 1 52.719101 89.078992 -99.110915
752 1 1 52.050740 89.822174 -99.079704
753 1 1 51.503332 89.883663 -98.245100
754 1 1 50.555124 89.642540 -98.451884
755 1 1 51.053738 88.852421 -98.095379
756 1 1 50.734308 87.913262 -98.221651
757 1 1 51.120841 87.592974 -97.356776
758 1 1 51.459089 88.531874 -97.420458
759 1 1 50.729444 89.035668 -96.958063
760 1 1 50.479090 89.917426 -96.558281
761 1 1 51.468546 89.978101 -96.426768
762 1 1 51.982820 89.236065 -96.856775
763 1 1 52.021584 88.570183 -96.111726
764 1 1 51.264193 88.048164 -95.719482
765 1 1 50.433048 88.255122 -96.235589
766 1 1 50.064011 88.395329 -95.316811
767 1 1 49.220148 88.210226 -94.813193
768 1 1 48.412069 88.293420 -95.396363
769 1 1 48.933330 87.440209 -95.378530
770 1 1 48.254084 87.728967 -94.703813
771 1 1 48.158993 86.907245 -95.265713
772 1 1 47.468048 87.591639 -95.032903
773 1 1 46.658345 87.721862 -95.605112
774 1 1 46.185145 87.810844 -94.728662
775 1 1 45.386711 87.209873 -94.765252
776 1 1 45.558526 88.091419 -95.204976
777 1 1 45.440870 87.424170 -95.940459
778 1 1 45.071361 86.558041 -95.603880
779 1 1 45.830132 86.171163 -96.127895
780 1 1 46.490807 86.052997 -95.386581
781 1 1 46.100438 86.600723 -94.646575
782 1 1 46.835267 86.014486 -94.305470
783 1 1 46.041787 86.164496 -93.715652
784 1 1 46.005906 85.511578 -92.959074
785 1 1 46.397115 84.592394 -92.913723
786 1 1 46.289755 84.215519 -91.993702
787 1 1 47.242694 83.921943 -92.069338
788 1 1 46.762926 83.246342 -91.509529
789 1 1 46.324272 83.452581 -92.384199
790 1 1 46.214542 82.556996 -92.815346
791 1 1 46.055690 83.221423 -93.545621
792 1 1 45.807210 82.575841 -94.267758
793 1 1 45.950516 81.745500 -93.729244
794 1 1 46.597929 81.019173 -93.960123
795 1 1 46.592738 80.250236 -94.599427
796 1 1 45.653930 80.144175 -94.271721
797 1 1 44.662515 80.246124 -94.353593
798 1 1 44.393124 79.805508 -93.497272
799 1 1 45.333541 79.493188 -93.631701
800 1 1 45.392028 80.144376 -92.875041
801 1 1 46.189060 80.321035 -92.297520
802 1 1 46.529918 81.250509 -92.438566
803 1 1 46.423703 81.210553 -91.445026
804 1 1 46.117753 81.226288 -90.493108
805 1 1 46.570577 80.981317 -89.635822
806 1 1 46.863034 81.863472 -89.266672
807 1 1 47.299971 81.446273 -88.469784
808 1 1 46.759059 81.505596 -87.630800
809 1 1 45.815978 81.837362 -87.607761
810 1 1 45.912860 82.202246 -88.533760
811 1 1 45.731552 82.916697 -89.209546
812 1 1 45.429031 83.295947 -90.083989
813 1 1 44.731470 83.803482 -90.589772
814 1 1 44.737099 83.193378 -91.382073
815 1 1 44.417194 82.253621 -91.502565
816 1 1 44.491803 82.511477 -90.539267
817 1 1 45.220024 81.944540 -90.924333
818 1 1 45.610503 82.449056 -90.154275
819 1 1 46.399613 81.851646 -90.011429
820 1 1 45.626701 81.723960 -89.389897
821 1 1 45.803460 80.926715 -88.812699
822 1 1 44.811469 81.043946 -88.859705
823 1 1 45.449376 81.260228 -88.120586
824 1 1 44.553954 81.694099 -88.220464
825 1 1 44.689687 81.239342 -87.340253
826 1 1 44.745080 80.371334 -87.833703
827 1 1 43.921185 80.698910 -88.296185
828 1 1 43.136097 81.267346 -88.542187
829 1 1 43.000631 82.167053 -88.127246
830 1 1 43.155687 82.487683 -89.061673
831 1 1 43.649934 82.995823 -88.356327
832 1 1 44.324369 83.224577 -87.654324
833 1 1 44.640648 82.810683 -88.507939
834 1 1 44.325289 83.631101 -88.984872
835 1 1 45.160605 84.064522 -88.646650
836 1 1 45.292418 83.329105 -87.981980
837 1 1 46.266097 83.430872 -88.185923
838 1 1 46.493631 83.861625 -87.312607
839 1 1 45.996182 84.728542 -87.280980
840 1 1 45.839300 85.439573 -87.966417
841 1 1 46.214058 86.347169 -87.777143
842 1 1 46.352156 86.055758 -86.830566
843 1 1 46.889658 85.350258 -86.368655
844 1 1 46.399054 84.480427 -86.420624
845 1 1 45.596818 83.890063 -86.509441
846 1 1 46.005491 83.130667 -87.015705
847 1 1 45.503543 83.920525 -87.368088
848 1 1 44.978700 84.648709 -86.927307
849 1 1 44.042322 84.953766 -86.753709
850 1 1 43.930194 85.042987 -85.764029
851 1 1 44.257061 84.269193 -85.221441
852 1 1 44.336850 83.662182 -84.430764
853 1 1 45.063209 83.461256 -83.773473
854 1 1 45.618563 82.666952 -83.527172
855 1 1 45.868487 82.630273 -84.494743
856 1 1 46.745330 82.278438 -84.167089
857 1 1 46.390671 81.653694 -83.471451
858 1 1 45.630975 82.018802 -84.009556
859 1 1 45.553541 81.542026 -83.133948
860 1 1 45.068591 80.784084 -83.570236
861 1 1 44.321770 80.685748 -82.912522
862 1 1 43.541901 81.045787 -83.424553
863 1 1 42.636586 80.830582 -83.058368
864 1 1 41.900670 81.352493 -83.489689
865 1 1 41.395037 80.558525 -83.827254
866 1 1 41.008053 80.990586 -84.641850
867 1 1 41.243831 81.921539 -84.920660
868 1 1 41.933250 81.299752 -84.549066
869 1 1 42.539408 82.013469 -84.198096
870 1 1 42.671854 82.904792 -84.631688
871 1 1 43.381815 83.138324 -85.296081
872 1 1 43.473117 82.146221 -85.382074
873 1 1 42.589471 82.464359 -85.725522
874 1 1 41.594368 82.371435 -85.691816
875 1 1 41.763011 83.191275 -85.144622
876 1 1 41.692614 84.110565 -85.531856
877 1 1 41.903750 85.066829 -85.329417
878 1 1 42.660653 84.419564 -85.419674
879 1 1 41.891335 84.435402 -84.781004
880 1 1 41.384426 85.153699 -84.304462
881 1 1 41.644804 84.735036 -83.434448
882 1 1 41.927975 85.391452 -82.735212
883 1 1 41.484630 85.584214 -81.859833
884 1 1 41.538962 86.410394 -81.299053
885 1 1 41.768951 87.375105 -81.170841
886 1 1 42.711339 87.665942 -81.336121
887 1 1 42.961435 86.709098 -81.484111
888 1 1 43.513094 86.652160 -82.316235
889 1 1 43.142191 87.357025 -82.920879
890 1 1 43.022764 87.778551 -83.819797
891 1 1 43.940445 87.381233 -83.819915
892 1 1 44.420773 86.824711 -83.142001
893 1 1 43.838286 86.374526 -83.818789
894 1 1 43.797471 85.452509 -84.203780
895 1 1 43.266121 85.065639 -83.450123
896 1 1 42.868237 85.813152 -82.918228
897 1 1 42.828712 85.341387 -82.037390
898 1 1 42.205065 84.815169 -81.459326
899 1 1 41.636348 84.127055 -81.008704
900 1 1 41.753388 83.186593 -81.327818
901 1 1 40.929295 83.144731 -81.892723
902 1 1 41.587266 82.472374 -82.231854
903 1 1 42.512609 82.315619 -82.577061
904 1 1 43.300318 82.899688 -82.381159
905 1 1 43.809450 82.054275 -82.219723
906 1 1 43.824470 81.177517 -81.739026
907 1 1 43.672706 82.014510 -81.213278
908 1 1 44.479549 82.594775 -81.324167
909 1 1 44.787542 83.538309 -81.202169
910 1 1 45.718724 83.379515 -81.530321
911 1 1 46.142281 82.569600 -81.124566
912 1 1 46.140602 81.585228 -80.948471
913 1 1 46.343435 81.362577 -81.902036
914 1 1 46.415637 80.428721 -81.551752
915 1 1 46.415013 79.481922 -81.229925
916 1 1 45.981144 79.254453 -82.101713
917 1 1 45.008968 79.461459 -82.211364
918 1 1 45.308127 78.704262 -81.630713
919 1 1 44.828739 78.519031 -82.488545
920 1 1 44.359604 77.689830 -82.792416
921 1 1 44.662597 78.393083 -83.435556
922 1 1 45.324458 77.889478 -82.880289
923 1 1 46.147440 78.453994 -82.943708
924 1 1 46.477888 77.605400 -82.530560
925 1 1 46.635135 77.056672 -81.709481
926 1 1 46.631748 77.871832 -81.130254
927 1 1 46.188528 78.055279 -80.252813
928 1 1 45.563425 77.469125 -80.768246
929 1 1 46.367246 76.967082 -80.449146
930 1 1 46.891651 76.449900 -79.772741
931 1 1 46.909976 76.335472 -78.779479
932 1 1 47.237068 75.391472 -78.822771
933 1 1 46.417711 75.671936 -79.322765
934 1 1 46.245386 76.156421 -80.180424
935 1 1 45.329472 75.787438 -80.338389
936 1 1 46.028725 75.254793 -80.815186
937 1 1 45.759603 75.695233 -81.671683
938 1 1 45.425204 74.958378 -82.259239
939 1 1 46.325618 74.855689 -82.681979
940 1 1 46.288843 74.807283 -81.683829
941 1 1 47.050443 75.206152 -81.173075
942 1 1 46.530250 74.393389 -80.910747
943 1 1 47.373433 74.668753 -80.448992
944 1 1 47.843925 73.822745 -80.699805
945 1 1 47.435734 72.945385 -80.447573
946 1 1 47.148783 73.465441 -79.643085
947 1 1 46.643255 74.311150 -79.472152
948 1 1 47.141097 75.146292 -79.706014
949 1 1 47.565720 74.414996 -79.172252
950 1 1 48.365826 73.881460 -78.898079
951 1 1 48.469234 73.494841 -77.981656
952 1 1 49.257457 73.707190 -78.559248
953 1 1 49.386338 73.468534 -77.596734
954 1 1 49.413574 74.419655 -77.289118
955 1 1 49.945246 74.114906 -78.079341
956 1 1 50.522966 73.311149 -77.937167
957 1 1 50.191329 72.601729 -78.559052
958 1 1 50.736871 73.404788 -78.798802
959 1 1 50.501092 74.347656 -79.034192
960 1 1 51.486897 74.387995 -79.197171
961 1 1 51.445981 75.289535 -79.627929
962 1 1 51.316426 75.052011 -80.590632
963 1 1 50.744607 74.684542 -81.324110
964 1 1 51.711491 74.466178 -81.456215
965 1 1 51.300414 75.147417 -82.061961
966 1 1 52.094221 75.658650 -82.391371
967 1 1 51.952481 76.103284 -81.506944
968 1 1 51.656222 75.916690 -80.570240
969 1 1 52.052376 76.302902 -79.737233
970 1 1 52.599939 75.582800 -79.311053
971 1 1 52.700356 74.608730 -79.513794
972 1 1 53.204676 75.122845 -78.820003
973 1 1 53.826292 74.513347 -78.327961
974 1 1 54.259712 74.684132 -77.443100
975 1 1 53.938503 75.630294 -77.403069
976 1 1 54.516957 75.960972 -76.657386
977 1 1 53.822254 76.405802 -76.092130
978 1 1 54.438226 77.147850 -76.356600
979 1 1 53.975121 76.506082 -76.967884
980 1 1 53.197921 76.936835 -77.426590
981 1 1 52.808531 77.649489 -76.843066
982 1 1 53.001379 78.611130 -77.038144
983 1 1 52.744754 78.881719 -76.110284
984 1 1 51.855884 79.053476 -76.535030
985 1 1 51.475325 79.317075 -75.648638
986 1 1 52.023430 78.785581 -75.002810
987 1 1 52.257218 79.590830 -75.547711
988 1 1 52.340580 80.587283 -75.536186
989 1 1 53.337917 80.576652 -75.464035
990 1 1 53.104358 81.473008 -75.087210
991 1 1 53.712071 82.068906 -75.612177
992 1 1 53.302859 81.971069 -76.519356
993 1 1 52.935916 82.308086 -77.386404
994 1 1 51.948220 82.193870 -77.493229
995 1 1 51.917613 81.548049 -76.730354
996 1 1 51.084611 81.693274 -77.264223
997 1 1 50.671156 81.649452 -76.354754
998 1 1 50.207120 80.913340 -75.861996
999 1 1 50.053283 80.930173 -74.874043
1000 1 1 49.219639 81.446129 -74.676998
1001 2 1 12.850468 11.147813 -48.059294
1002 2 1 12.157008 10.999672 -48.764395
1003 2 1 11.591353 11.194905 -49.565593
1004 2 1 10.834308 11.422118 -50.178175
1005 2 1 10.160992 10.800628 -50.578670
1006 2 1 10.552412 10.351223 -51.381680
1007 2 1 10.714681 9.627348 -50.711103
1008 2 1 11.001517 9.576986 -51.667758
1009 2 1 10.770022 8.906813 -52.372938
1010 2 1 10.397461 9.756914 -52.745130
1011 2 1 10.594554 8.886536 -53.196346
1012 2 1 10.586850 7.887522 -53.152636
1013 2 1 10.460022 8.385574 -54.010459
1014 2 1 10.871996 7.510942 -54.265991
1015 2 1 11.564541 7.323316 -53.569443
1016 2 1 12.377131 6.781856 -53.353760
1017 2 1 13.189369 6.624474 -53.915453
1018 2 1 13.599262 7.211400 -53.217237
1019 2 1 13.255283 6.548979 -52.551748
1020 2 1 13.222826 6.527013 -51.552516
1021 2 1 13.262696 5.745061 -52.174578
1022 2 1 12.897933 4.972387 -51.655037
1023 2 1 13.757539 4.679760 -51.236174
1024 2 1 13.386413 4.340431 -52.100536
1025 2 1 14.292033 3.939400 -51.962597
1026 2 1 14.252196 3.459271 -52.838890
1027 2 1 13.303267 3.584177 -52.549178
1028 2 1 13.398719 4.460524 -53.021306
1029 2 1 14.301170 4.577091 -52.606585
1030 2 1 14.817905 4.102090 -53.318875
1031 2 1 14.467102 4.907301 -53.796967
1032 2 1 14.375984 5.617904 -54.494636
1033 2 1 13.430186 5.503192 -54.798457
1034 2 1 14.178998 6.035085 -55.193894
1035 2 1 14.716953 6.570018 -54.542394
1036 2 1 15.336520 6.739928 -55.308727
1037 2 1 15.282682 6.003153 -55.982719
1038 2 1 16.191375 5.602100 -55.866823
1039 2 1 15.886336 4.677246 -56.093969
1040 2 1 16.805971 4.618108 -56.482266
1041 2 1 17.469269 4.154302 -57.069564
1042 2 1 16.806349 3.426587 -56.893585
1043 2 1 17.000427 3.479118 -55.914006
1044 2 1 16.423983 2.977758 -55.268754
1045 2 1 16.978316 2.184578 -55.520906
1046 2 1 17.089990 1.421179 -54.884706
1047 2 1 16.234949 1.054401 -55.251282
1048 2 1 15.548109 0.402724 -55.573102
1049 2 1 14.749081 -0.196448 -55.522629
1050 2 1 14.903870 -1.090743 -55.942481
1051 2 1 14.424524 -0.282274 -56.283954
1052 2 1 13.758778 0.370163 -56.646043
1053 2 1 13.450459 0.813461 -57.487723
1054 2 1 13.287799 0.845901 -58.473872
1055 2 1 13.719838 0.052316 -58.902316
1056 2 1 13.462599 -0.042656 -57.940646
1057 2 1 12.481292 0.098512 -57.809848
1058 2 1 12.273688 -0.852094 -58.040601
1059 2 1 11.588443 -0.806518 -58.767487
1060 2 1 11.214228 -1.449778 -59.435454
1061 2 1 11.275410 -0.508895 -59.768615
1062 2 1 10.915146 0.351917 -59.409153
1063 2 1 11.832419 0.561666 -59.070603
1064 2 1 11.497490 0.760108 -59.991713
1065 2 1 12.359745 0.331193 -59.722365
1066 2 1 12.942929 0.140410 -60.511985
1067 2 1 12.300067 0.863097 -60.765861
1068 2 1 11.311702 0.907575 -60.911315
1069 2 1 11.998789 1.388136 -61.456267
1070 2 1 11.055053 1.280971 -61.769122
1071 2 1 11.151403 0.285865 -61.791058
1072 2 1 10.236369 0.674038 -61.681355
1073 2 1 10.039411 -0.180008 -61.199885
1074 2 1 9.208233 -0.700563 -61.395244
1075 2 1 9.467939 -1.394957 -62.066340
1076 2 1 8.648476 -0.927791 -62.398356
1077 2 1 8.395134 -1.846604 -62.701011
1078 2 1 8.837804 -1.296424 -63.409069
1079 2 1 8.788507 -0.996701 -64.361820
1080 2 1 8.370918 -0.532852 -63.580499
1081 2 1 7.670442 -1.081461 -63.124033
1082 2 1 7.292837 -0.921581 -64.036092
1083 2 1 6.714082 -1.287719 -64.764780
1084 2 1 6.032976 -2.019879 -64.758719
1085 2 1 5.266322 -2.168840 -65.383260
1086 2 1 5.439286 -1.458547 -64.700935
1087 2 1 5.273413 -1.406400 -63.716168
1088 2 1 4.980434 -0.836154 -64.483620
1089 2 1 4.862918 0.131667 -64.706133
1090 2 1 4.456991 -0.319345 -63.911267
1091 2 1 3.581321 -0.427215 -63.440559
1092 2 1 2.692157 -0.021534 -63.228873
1093 2 1 3.558422 0.245693 -62.806765
1094 2 1 3.484299 0.731175 -61.935666
1095 2 1 4.101878 -0.043854 -61.801778
1096 2 1 4.422628 0.844278 -61.472627
1097 2 1 5.235657 1.234442 -61.904780
1098 2 1 4.278870 1.523442 -61.872543
1099 2 1 4.318762 1.968865 -62.766974
1100 2 1 3.670935 2.700844 -62.555961
1101 2 1 3.254686 2.510271 -61.666906
1102 2 1 3.562826 2.011065 -60.857065
1103 2 1 2.874318 1.635106 -60.236895
1104 2 1 2.807313 0.666890 -60.477870
1105 2 1 3.719553 0.962991 -60.194775
1106 2 1 4.124335 1.311402 -59.349340
1107 2 1 4.800533 0.747024 -59.822872
1108 2 1 3.983794 0.193407 -59.985494
1109 2 1 3.312553 -0.384270 -59.521032
1110 2 1 2.540094 -0.403701 -60.155799
1111 2 1 2.527750 0.115689 -59.301351
1112 2 1 1.776231 -0.422306 -59.683162
1113 2 1 1.179094 -0.236746 -60.463543
1114 2 1 0.333882 0.110874 -60.869471
1115 2 1 -0.524427 -0.368133 -61.053478
1116 2 1 -0.649044 -0.269171 -60.066221
1117 2 1 -1.290436 0.494664 -59.994301
1118 2 1 -1.436229 -0.485626 -60.127621
1119 2 1 -1.118037 -1.025917 -60.906620
1120 2 1 -2.111909 -0.915758 -60.897560
1121 2 1 -2.862876 -1.066963 -60.254764
1122 2 1 -3.084597 -0.720892 -61.166398
1123 2 1 -3.683301 -1.075862 -61.884416
1124 2 1 -4.004582 -0.144140 -62.053747
1125 2 1 -3.860394 0.845411 -62.053795
1126 2 1 -4.000073 0.429831 -61.155028
1127 2 1 -3.705226 1.102397 -60.476264
1128 2 1 -4.262566 1.383129 -59.694880
1129 2 1 -3.513469 0.731747 -59.574239
1130 2 1 -3.020218 0.384832 -58.776521
1131 2 1 -2.675681 1.176085 -58.271334
1132 2 1 -3.165006 0.372032 -57.933605
1133 2 1 -3.666546 0.654763 -57.115975
1134 2 1 -3.792136 -0.301904 -56.853267
1135 2 1 -3.587124 -0.721114 -57.737706
1136 2 1 -4.279307 -0.073431 -58.056125
1137 2 1 -4.865293 -0.873583 -58.184098
1138 2 1 -5.639415 -1.471613 -57.976502
1139 2 1 -6.615936 -1.304758 -58.112754
1140 2 1 -5.834355 -0.688574 -58.209947
1141 2 1 -5.140597 -0.177310 -58.717204
1142 2 1 -5.111444 0.388016 -57.892852
1143 2 1 -5.667313 0.799864 -57.170778
1144 2 1 -5.462335 0.691503 -56.198028
1145 2 1 -6.060911 0.583382 -55.404292
1146 2 1 -5.581406 1.048495 -54.660151
1147 2 1 -5.727003 1.156564 -53.676727
1148 2 1 -4.950325 0.569121 -53.904063
1149 2 1 -4.254071 0.126076 -53.339313
1150 2 1 -4.086001 0.959515 -53.865747
1151 2 1 -3.411010 0.710314 -54.560214
1152 2 1 -2.772762 0.127445 -54.057319
1153 2 1 -3.360583 -0.550786 -53.616331
1154 2 1 -2.887879 -0.895514 -54.427326
1155 2 1 -3.771203 -1.358289 -54.352646
1156 2 1 -4.446254 -1.192238 -55.071487
1157 2 1 -3.490533 -1.032086 -55.318367
1158 2 1 -2.780662 -1.725460 -55.442122
1159 2 1 -1.934225 -1.196360 -55.382139
1160 2 1 -1.088932 -1.729306 -55.420191
1161 2 1 -1.690540 -1.788615 -56.216777
1162 2 1 -2.441420 -1.813611 -56.876742
1163 2 1 -2.031810 -1.538982 -57.746684
1164 2 1 -2.733498 -1.353914 -58.434712
1165 2 1 -2.514800 -0.428949 -58.745534
1166 2 1 -2.028582 0.402339 -58.476177
1167 2 1 -1.654155 0.783333 -59.321545
1168 2 1 -2.049451 1.366899 -60.030905
1169 2 1 -1.848749 1.747863 -59.128361
1170 2 1 -2.028445 2.730455 -59.175511
1171 2 1 -1.154668 2.358739 -59.489105
1172 2 1 -0.935729 3.325114 -59.354258
1173 2 1 -0.983441 2.788743 -58.511625
1174 2 1 -0.325140 2.252442 -59.039849
1175 2 1 -0.211553 2.259244 -60.033354
1176 2 1 -1.017560 1.667379 -60.026399
1177 2 1 -0.667830 1.480858 -60.944494
1178 2 1 -0.404679 0.980921 -60.119379
1179 2 1 0.584918 1.059529 -59.998886
1180 2 1 0.684575 2.049731 -60.096707
1181 2 1 0.003931 1.560810 -59.551106
1182 2 1 -0.196468 0.617779 -59.285525
1183 2 1 -0.480114 0.850955 -58.355377
1184 2 1 0.515891 0.850609 -58.266072
1185 2 1 1.198608 0.123333 -58.336546
1186 2 1 1.564898 -0.656049 -58.844872
1187 2 1 1.052029 -0.697047 -57.987385
1188 2 1 0.410913 -0.011063 -57.643298
1189 2 1 -0.005911 -0.889827 -57.875745
1190 2 1 0.334814 -1.742683 -58.271401
1191 2 1 -0.116459 -2.102144 -59.088188
1192 2 1 -0.032297 -2.072893 -60.084210
1193 2 1 0.446872 -2.757580 -59.535027
1194 2 1 0.839538 -3.676005 -59.486975
1195 2 1 1.537083 -2.964929 -59.398640
1196 2 1 1.160639 -2.389743 -60.124899
1197 2 1 1.557331 -3.179344 -60.593050
1198 2 1 2.431703 -3.242752 -60.111955
1199 2 1 2.204190 -3.780562 -60.923742
1200 2 1 3.178121 -3.614837 -61.078645
1201 2 1 3.414966 -2.928514 -61.766296
1202 2 1 4.238483 -3.331581 -62.165492
1203 2 1 5.141891 -2.948081 -62.357279
1204 2 1 5.632844 -2.170476 -61.964476
1205 2 1 6.499413 -1.885824 -61.554560
1206 2 1 5.606343 -1.439323 -61.609904
1207 2 1 6.375177 -0.858142 -61.876595
1208 2 1 7.336686 -0.850001 -61.601944
1209 2 1 7.328816 -1.825161 -61.380581
1210 2 1 7.179080 -2.722430 -60.965266
1211 2 1 6.277949 -2.666700 -61.395216
1212 2 1 6.370600 -3.629340 -61.140774
1213 2 1 6.762693 -3.575732 -62.059137
1214 2 1 7.620375 -3.826633 -61.610325
1215 2 1 8.336081 -3.199054 -61.916772
1216 2 1 7.394760 -3.085654 -62.234664
1217 2 1 7.849584 -3.174057 -63.120847
1218 2 1 8.774479 -3.350137 -63.457841
1219 2 1 8.797882 -4.011076 -64.207915
1220 2 1 9.066601 -4.829138 -63.699422
1221 2 1 9.144175 -5.230015 -62.786580
1222 2 1 9.393894 -5.031836 -61.838759
1223 2 1 8.434691 -5.306687 -61.772536
1224 2 1 7.772888 -5.883950 -61.294221
1225 2 1 7.128603 -6.548802 -61.672199
1226 2 1 6.594343 -6.109595 -60.949937
1227 2 1 6.985630 -5.534532 -61.668405
1228 2 1 6.689396 -5.132100 -60.802210
1229 2 1 7.641702 -4.879311 -60.973125
1230 2 1 7.997637 -3.976211 -60.732873
1231 2 1 8.660077 -3.229851 -60.668685
1232 2 1 8.664923 -4.154274 -60.287346
1233 2 1 9.207291 -4.968901 -60.492822
1234 2 1 9.953864 -5.358538 -59.953551
1235 2 1 10.363349 -5.572907 -59.066778
1236 2 1 11.332732 -5.548250 -58.822468
1237 2 1 11.853435 -4.912330 -58.252841
1238 2 1 12.293923 -5.147621 -57.386465
1239 2 1 12.277300 -5.219199 -56.389168
1240 2 1 12.795761 -6.073533 -56.352946
1241 2 1 13.239608 -5.746817 -57.187366
1242 2 1 14.145247 -5.324979 -57.144110
1243 2 1 13.855802 -4.868570 -57.985485
1244 2 1 14.477931 -4.187369 -57.599583
1245 2 1 14.572000 -3.905250 -56.644827
1246 2 1 13.987306 -3.097824 -56.566119
1247 2 1 13.853903 -3.611886 -55.718803
1248 2 1 13.175126 -3.006045 -55.303811
1249 2 1 12.307468 -3.501965 -55.268689
1250 2 1 12.775792 -3.007536 -54.536423
1251 2 1 13.428412 -3.438848 -53.913480
1252 2 1 13.507752 -4.369538 -53.556377
1253 2 1 13.623720 -4.671575 -54.502593
1254 2 1 13.893226 -5.033208 -55.395111
1255 2 1 13.536782 -5.530052 -56.186372
1256 2 1 13.325466 -4.962389 -56.982051
1257 2 1 13.852052 -4.426799 -56.321861
1258 2 1 12.991612 -4.293231 -55.830127
1259 2 1 12.484155 -4.557251 -55.009895
1260 2 1 11.657658 -4.181095 -55.428713
1261 2 1 10.735751 -4.367733 -55.089221
1262 2 1 10.019291 -3.757409 -54.751302
1263 2 1 10.001328 -4.719713 -55.022687
1264 2 1 9.256358 -4.649862 -55.686117
1265 2 1 8.548094 -3.945044 -55.646190
1266 2 1 8.939659 -4.093411 -54.738080
1267 2 1 8.626496 -3.164852 -54.538815
1268 2 1 8.004374 -2.383899 -54.483347
1269 2 1 8.338918 -1.505386 -54.142325
1270 2 1 9.137318 -1.513865 -53.540258
1271 2 1 10.038607 -1.080868 -53.554082
1272 2 1 9.790024 -1.585061 -52.727042
1273 2 1 9.943016 -1.896540 -51.789186
1274 2 1 9.551699 -1.942521 -50.870080
1275 2 1 9.185172 -2.577836 -51.549809
1276 2 1 9.687912 -3.028423 -50.812093
1277 2 1 10.181727 -3.076753 -49.943871
1278 2 1 9.469532 -3.778553 -49.959855
1279 2 1 8.996768 -3.837607 -49.080647
1280 2 1 9.012049 -2.841119 -48.998307
1281 2 1 8.232051 -3.247139 -49.474490
1282 2 1 7.813013 -4.042858 -49.911800
1283 2 1 7.473185 -4.348031 -49.022201
1284 2 1 8.084386 -5.139141 -49.046263
1285 2 1 8.443666 -5.257947 -49.971900
1286 2 1 9.012849 -5.114928 -49.162223
1287 2 1 9.875088 -5.609466 -49.052792
1288 2 1 9.434970 -6.362309 -49.542203
1289 2 1 9.557243 -6.882571 -50.387411
1290 2 1 10.153053 -7.666948 -50.559931
1291 2 1 10.882531 -8.295935 -50.828703
1292 2 1 11.230290 -9.215831 -50.647445
1293 2 1 11.654824 -8.601503 -49.982335
1294 2 1 12.519203 -8.805626 -49.522789
1295 2 1 13.425695 -8.689600 -49.116822
1296 2 1 13.322008 -7.701805 -49.000586
1297 2 1 13.491814 -8.093641 -49.904816
1298 2 1 14.107584 -7.935302 -49.132964
1299 2 1 14.513422 -7.108892 -48.742652
1300 2 1 14.748096 -6.183411 -49.039996
1301 2 1 15.639800 -5.861676 -48.721641
1302 2 1 14.841023 -5.457184 -48.276285
1303 2 1 14.815894 -5.238095 -49.251667
1304 2 1 14.164691 -5.605802 -49.915539
1305 2 1 14.901440 -6.106300 -50.370185
1306 2 1 14.783220 -6.865911 -51.009727
1307 2 1 15.078800 -7.478912 -51.742437
1308 2 1 15.494980 -8.386554 -51.687860
1309 2 1 15.843837 -7.776698 -50.976260
1310 2 1 16.216261 -7.109341 -51.621190
1311 2 1 16.081425 -6.970399 -52.602268
1312 2 1 15.577619 -6.226492 -53.041337
1313 2 1 16.173534 -5.849567 -52.332244
1314 2 1 16.862605 -5.400998 -51.763063
1315 2 1 16.399512 -4.523307 -51.886360
1316 2 1 15.915436 -4.250170 -52.717664
1317 2 1 16.530568 -3.546173 -52.362697
1318 2 1 15.678534 -3.105108 -52.080741
1319 2 1 15.005241 -3.458186 -51.431116
1320 2 1 14.023056 -3.442506 -51.243856
1321 2 1 13.086422 -3.656098 -51.521516
1322 2 1 13.069650 -4.654314 -51.464214
1323 2 1 12.554723 -4.861125 -52.296127
1324 2 1 11.650041 -4.769680 -52.712286
1325 2 1 12.029764 -3.865770 -52.515418
1326 2 1 12.128028 -3.095754 -53.145830
1327 2 1 12.423808 -2.331283 -53.718628
1328 2 1 12.897069 -1.455482 -53.813472
1329 2 1 13.808660 -1.071943 -53.961461
1330 2 1 14.106040 -0.925990 -53.017924
1331 2 1 13.117693 -0.774316 -53.005038
1332 2 1 13.147102 -1.771098 -52.930479
1333 2 1 14.113671 -1.778624 -53.186777
1334 2 1 14.301623 -2.576992 -53.758863
1335 2 1 15.185330 -3.027812 -53.633075
1336 2 1 14.470281 -3.464541 -54.178943
1337 2 1 14.205514 -2.638452 -54.676412
1338 2 1 15.113153 -3.045119 -54.780397
1339 2 1 16.078142 -3.259662 -54.629511
1340 2 1 16.819993 -3.361634 -53.966745
1341 2 1 16.820401 -3.116227 -52.997325
1342 2 1 16.879851 -2.651718 -52.113754
1343 2 1 17.775389 -2.649058 -52.558731
1344 2 1 18.093382 -3.186743 -53.339612
1345 2 1 18.516514 -2.800780 -54.159363
1346 2 1 18.926775 -1.890353 -54.106367
1347 2 1 19.538622 -1.100412 -54.065904
1348 2 1 19.968623 -1.859995 -53.577916
1349 2 1 20.122453 -2.845372 -53.504643
1350 2 1 21.016474 -3.004795 -53.923343
1351 2 1 20.379224 -3.775452 -53.923813
1352 2 1 20.484697 -2.994680 -54.539663
1353 2 1 20.863275 -3.900783 -54.728494
1354 2 1 19.934705 -4.265254 -54.658358
1355 2 1 19.354275 -3.766554 -55.302096
1356 2 1 19.148585 -3.062751 -54.622131
1357 2 1 19.749418 -2.429674 -54.134059
1358 2 1 20.690259 -2.109327 -54.244494
1359 2 1 21.447673 -1.804945 -54.822141
1360 2 1 22.065034 -1.642417 -54.052433
1361 2 1 21.801094 -2.473428 -53.562782
1362 2 1 22.540104 -2.365000 -52.897870
1363 2 1 22.210777 -2.968248 -52.171485
1364 2 1 22.573028 -2.744522 -51.266653
1365 2 1 21.702535 -3.134994 -50.967033
1366 2 1 21.418263 -2.349946 -50.416679
1367 2 1 21.628664 -2.099318 -49.471736
1368 2 1 20.977172 -2.856534 -49.518445
1369 2 1 20.339694 -2.260839 -49.029805
1370 2 1 19.754263 -3.071197 -49.005530
1371 2 1 18.904282 -2.548032 -49.067433
1372 2 1 18.436189 -3.249665 -48.530218
1373 2 1 17.956992 -2.591406 -49.110791
1374 2 1 17.528787 -2.596752 -50.014457
1375 2 1 16.932540 -3.185962 -50.559727
1376 2 1 16.213039 -3.644066 -51.081705
1377 2 1 15.645268 -3.553226 -50.263546
1378 2 1 16.486122 -3.232151 -49.827799
1379 2 1 16.237509 -3.396069 -48.873167
1380 2 1 15.844843 -4.298523 -48.696000
1381 2 1 16.762758 -4.200180 -49.080395
1382 2 1 16.599032 -4.123119 -48.096903
1383 2 1 17.475009 -4.393860 -48.496108
1384 2 1 17.920380 -4.835745 -49.274814
1385 2 1 17.489688 -5.435082 -49.949573
1386 2 1 17.231697 -6.322585 -50.331382
1387 2 1 17.454673 -6.657353 -51.246921
1388 2 1 16.712349 -6.388437 -51.860630
1389 2 1 17.085895 -7.181118 -52.342420
1390 2 1 18.052799 -7.317720 -52.126931
1391 2 1 18.560107 -8.129139 -51.836691
1392 2 1 17.944943 -8.294826 -51.065898
1393 2 1 17.851458 -7.309415 -50.923680
1394 2 1 18.446746 -6.526386 -50.743408
1395 2 1 18.507521 -6.907277 -49.820787
1396 2 1 19.254445 -6.272861 -49.621734
1397 2 1 19.499483 -5.496985 -50.203087
1398 2 1 19.070084 -4.654226 -50.527700
1399 2 1 18.555081 -3.847439 -50.238101
1400 2 1 18.825589 -2.903498 -50.048891
1401 2 1 19.050273 -1.934028 -49.950688
1402 2 1 18.312945 -1.313864 -50.218537
1403 2 1 18.037607 -2.027621 -50.862539
1404 2 1 17.284739 -1.720769 -51.444804
1405 2 1 17.571675 -1.370102 -52.336264
1406 2 1 16.699076 -0.895950 -52.453529
1407 2 1 15.802134 -0.743116 -52.868422
1408 2 1 15.240385 -0.312245 -52.162173
1409 2 1 14.969349 0.407413 -52.801416
1410 2 1 15.557187 0.555593 -53.596708
1411 2 1 15.921537 1.126767 -54.332241
1412 2 1 16.842145 0.876799 -54.032246
1413 2 1 17.115118 0.028813 -54.486566
1414 2 1 17.302980 -0.140648 -55.454032
1415 2 1 16.679079 -0.922127 -55.460282
1416 2 1 17.581909 -1.325308 -55.609756
1417 2 1 17.800175 -1.468954 -54.644497
1418 2 1 17.979369 -1.080673 -53.740545
1419 2 1 17.008699 -1.230731 -53.552708
1420 2 1 17.385866 -0.332963 -53.780212
1421 2 1 18.270422 -0.121810 -54.196114
1422 2 1 18.914123 0.096448 -53.462620
1423 2 1 18.831199 -0.637103 -52.788064
1424 2 1 18.466466 -0.877712 -51.888576
1425 2 1 18.202927 -0.486642 -51.006753
1426 2 1 18.731574 -0.120425 -50.240974
1427 2 1 19.614052 -0.003148 -49.785476
1428 2 1 19.308646 0.530188 -50.574323
1429 2 1 19.864763 1.264522 -50.185109
1430 2 1 20.413979 1.714252 -50.889456
1431 2 1 20.630168 1.712011 -49.913107
1432 2 1 21.239202 0.938963 -50.090519
1433 2 1 21.982114 1.258665 -50.678627
1434 2 1 22.430571 0.418744 -50.372982
1435 2 1 21.953517 -0.443730 -50.541972
1436 2 1 22.564867 -1.231976 -50.612123
1437 2 1 22.496743 -1.085512 -49.625256
1438 2 1 21.551100 -0.993242 -49.313413
1439 2 1 20.720316 -0.688287 -48.847795
1440 2 1 19.902094 -1.045324 -49.298392
1441 2 1 20.616006 -1.526574 -48.789738
1442 2 1 21.021659 -2.128183 -48.101616
1443 2 1 20.058785 -2.379570 -48.199999
1444 2 1 19.678478 -2.632941 -47.310523
1445 2 1 20.483479 -2.954518 -47.809081
1446 2 1 21.376165 -3.294529 -48.104892
1447 2 1 21.178545 -4.181130 -48.523083
1448 2 1 20.681897 -3.856012 -47.718322
1449 2 1 21.491134 -4.425901 -47.575622
1450 2 1 22.315806 -4.084628 -47.124569
1451 2 1 23.229731 -3.687178 -47.042272
1452 2 1 24.097410 -4.175587 -46.949588
1453 2 1 25.065135 -3.942393 -46.854041
1454 2 1 24.911102 -3.389841 -47.673162
1455 2 1 24.325174 -4.120004 -48.024659
1456 2 1 24.756372 -4.921790 -47.610889
1457 2 1 25.382354 -4.676629 -46.870590
1458 2 1 25.725542 -3.890340 -46.356807
1459 2 1 25.408032 -4.453315 -45.593757
1460 2 1 24.935206 -5.059008 -44.953779
1461 2 1 25.590534 -5.130610 -44.201835
1462 2 1 26.525065 -5.053671 -43.854372
1463 2 1 26.187362 -4.637319 -43.010211
1464 2 1 26.647297 -4.998885 -42.199205
1465 2 1 26.925008 -4.106716 -41.842958
1466 2 1 26.850955 -3.168602 -42.181273
1467 2 1 26.265544 -3.944605 -42.416036
1468 2 1 25.914321 -3.860422 -43.348535
1469 2 1 25.541252 -3.221145 -44.020952
1470 2 1 25.097851 -2.350015 -44.231970
1471 2 1 26.052525 -2.352666 -43.934328
1472 2 1 26.770014 -2.786028 -44.479679
1473 2 1 26.949800 -2.780272 -43.495990
1474 2 1 26.872969 -3.727556 -43.807036
1475 2 1 27.724314 -3.692712 -44.330484
1476 2 1 28.057510 -4.533614 -44.756939
1477 2 1 28.252491 -4.975480 -43.881304
1478 2 1 27.430640 -5.463663 -43.587641
1479 2 1 27.605976 -4.536802 -43.255697
1480 2 1 28.452725 -4.016339 -43.365852
1481 2 1 28.668671 -4.663616 -42.634825
1482 2 1 28.300422 -5.586781 -42.524558
1483 2 1 28.286761 -6.361539 -43.156668
1484 2 1 28.355088 -5.768871 -43.959211
1485 2 1 28.814517 -6.640761 -43.789705
1486 2 1 29.135351 -5.835335 -44.288057
1487 2 1 28.307638 -6.045517 -44.808359
1488 2 1 27.850569 -6.492718 -44.039529
1489 2 1 27.539888 -6.989178 -43.228970
1490 2 1 27.463986 -7.725082 -43.901788
1491 2 1 26.532164 -7.432189 -43.687498
1492 2 1 25.822293 -8.069201 -43.386999
1493 2 1 25.236769 -7.263976 -43.293330
1494 2 1 24.970012 -7.108583 -44.244484
1495 2 1 25.818240 -7.603670 -44.056342
1496 2 1 25.367351 -8.328239 -44.577590
1497 2 1 25.599540 -9.289780 -44.430864
1498 2 1 25.085794 -9.456428 -43.589262
1499 2 1 25.331516 -9.638075 -42.637093
1500 2 1 24.483260 -9.601338 -42.108782
1501 2 1 23.560714 -9.251614 -42.271882
1502 2 1 24.402479 -8.797609 -41.979804
1503 2 1 23.743982 -8.910661 -41.235760
1504 2 1 22.872193 -8.843813 -41.721059
1505 2 1 22.124019 -9.363524 -41.308582
1506 2 1 21.725281 -10.094298 -40.754527
1507 2 1 21.383281 -10.438752 -41.628819
1508 2 1 21.217748 -9.478960 -41.402107
1509 2 1 20.951023 -9.304419 -42.349943
1510 2 1 21.039952 -9.712654 -43.258478
1511 2 1 21.396359 -10.160268 -44.078609
1512 2 1 20.970907 -11.015667 -43.783172
1513 2 1 21.200580 -11.892671 -43.361136
1514 2 1 21.463863 -12.854115 -43.440550
1515 2 1 22.388119 -12.807876 -43.819512
1516 2 1 23.382895 -12.909179 -43.806933
1517 2 1 24.204182 -13.287578 -43.379964
1518 2 1 24.165352 -13.165328 -42.388225
1519 2 1 24.529655 -13.880397 -41.791601
1520 2 1 23.782360 -14.537956 -41.695857
1521 2 1 24.516336 -14.911771 -42.262903
1522 2 1 24.630455 -15.591120 -42.987790
1523 2 1 24.740308 -15.173567 -43.889778
1524 2 1 24.933949 -16.121248 -44.143557
1525 2 1 25.238019 -16.406609 -43.234651
1526 2 1 24.653110 -17.071641 -43.698993
1527 2 1 23.809581 -17.055623 -44.235837
1528 2 1 23.798028 -17.623622 -43.412889
1529 2 1 23.232719 -16.948205 -42.939352
1530 2 1 23.533813 -16.133999 -42.442954
1531 2 1 24.241944 -16.474338 -41.824311
1532 2 1 24.533005 -17.294878 -42.316244
1533 2 1 24.992128 -17.980646 -42.880982
1534 2 1 25.634053 -17.745627 -43.610843
1535 2 1 26.353188 -17.149704 -43.968224
1536 2 1 26.133067 -17.074816 -42.995631
1537 2 1 25.570889 -17.470059 -42.269174
1538 2 1 25.473579 -16.629451 -41.736344
1539 2 1 25.711080 -17.066559 -40.868860
1540 2 1 26.692711 -17.239138 -40.787517
1541 2 1 27.097287 -17.633921 -41.612419
1542 2 1 27.320374 -17.495253 -42.577305
1543 2 1 27.178878 -18.116624 -43.347938
1544 2 1 27.167777 -18.835852 -44.042624
1545 2 1 28.063709 -18.404726 -44.149559
1546 2 1 28.261345 -17.427955 -44.232377
1547 2 1 29.200674 -17.686680 -44.007161
1548 2 1 28.647137 -17.421704 -43.217613
1549 2 1 29.465768 -17.980084 -43.083241
1550 2 1 30.023934 -18.809463 -43.059159
1551 2 1 30.840295 -19.351464 -43.258633
1552 2 1 30.837672 -20.314425 -43.528263
1553 2 1 30.921276 -19.581491 -44.203406
1554 2 1 30.148566 -19.866776 -44.770443
1555 2 1 29.205190 -20.151210 -44.941147
1556 2 1 28.210797 -20.100852 -45.034129
1557 2 1 28.228088 -20.817749 -44.337166
1558 2 1 28.223986 -21.656862 -43.793224
1559 2 1 28.641720 -22.036356 -42.967704
1560 2 1 29.046307 -22.796795 -43.475683
1561 2 1 29.279096 -21.859670 -43.735695
1562 2 1 30.159817 -21.757079 -44.198085
1563 2 1 30.977784 -22.319004 -44.321259
1564 2 1 30.476999 -22.929221 -43.707378
1565 2 1 31.125523 -23.686329 -43.786156
1566 2 1 31.906116 -24.169298 -43.389401
1567 2 1 32.732217 -23.620601 -43.517804
1568 2 1 33.375284 -24.382750 -43.443012
1569 2 1 34.362053 -24.500638 -43.331708
1570 2 1 34.680562 -25.085766 -44.077481
1571 2 1 35.600405 -24.873086 -43.747851
1572 2 1 35.125332 -24.797534 -42.871154
1573 2 1 34.604571 -25.639211 -43.013944
1574 2 1 34.362516 -24.962553 -42.318571
1575 2 1 33.737217 -25.404684 -41.675515
1576 2 1 33.540953 -24.456801 -41.424520
1577 2 1 32.822630 -23.765916 -41.506316
1578 2 1 33.491822 -23.151672 -41.924511
1579 2 1 33.153541 -22.561490 -41.191537
1580 2 1 32.778985 -23.353997 -40.710247
1581 2 1 32.386927 -24.273922 -40.715526
1582 2 1 31.668615 -24.670785 -40.144100
1583 2 1 31.429147 -23.885593 -39.573022
1584 2 1 31.004447 -23.931734 -38.668865
1585 2 1 31.090163 -23.063219 -38.180669
1586 2 1 30.846819 -23.906534 -37.701499
1587 2 1 31.256245 -23.366170 -36.966396
1588 2 1 30.610074 -23.905693 -36.426603
1589 2 1 30.727987 -24.799836 -36.858581
1590 2 1 31.718099 -24.914055 -36.940016
1591 2 1 32.006399 -24.545063 -37.823604
1592 2 1 31.684414 -23.719270 -38.286628
1593 2 1 31.674600 -24.487312 -38.926952
1594 2 1 32.529993 -24.025546 -38.692272
1595 2 1 32.361402 -23.354151 -37.970603
1596 2 1 33.013220 -22.613829 -38.135090
1597 2 1 33.136442 -23.540218 -38.490927
1598 2 1 33.985107 -23.177359 -38.106087
1599 2 1 33.724434 -24.109906 -38.355896
1600 2 1 34.540705 -23.802206 -37.866997
1601 2 1 35.247771 -24.487560 -37.692794
1602 2 1 34.647706 -25.194211 -37.317872
1603 2 1 34.018486 -24.428307 -37.185681
1604 2 1 33.275109 -24.732265 -37.781500
1605 2 1 32.696638 -25.495919 -37.494790
1606 2 1 33.627330 -25.539372 -37.131577
1607 2 1 32.829307 -26.093507 -36.894737
1608 2 1 31.866652 -25.995242 -37.147006
1609 2 1 31.911978 -26.671052 -37.882688
1610 2 1 31.810295 -25.945041 -38.562812
1611 2 1 31.654541 -25.348327 -39.350005
1612 2 1 32.638234 -25.493187 -39.456605
1613 2 1 32.539951 -25.575386 -38.464847
1614 2 1 33.099299 -26.215685 -38.991295
1615 2 1 32.679930 -27.123321 -38.973235
1616 2 1 33.052758 -27.013009 -38.051915
1617 2 1 33.114927 -28.010159 -38.094645
1618 2 1 33.307357 -28.879916 -38.549060
1619 2 1 33.569825 -29.843354 -38.602899
1620 2 1 34.233750 -30.379054 -39.124654
1621 2 1 35.095707 -30.254577 -39.616117
1622 2 1 35.382728 -29.524253 -40.235993
1623 2 1 35.924514 -29.630200 -39.402181
1624 2 1 35.156932 -28.990589 -39.443596
1625 2 1 36.091404 -28.915369 -39.791595
1626 2 1 36.823953 -29.386270 -40.283148
1627 2 1 36.770735 -29.716217 -41.225646
1628 2 1 35.884990 -30.088208 -41.503274
1629 2 1 36.359871 -29.580895 -42.222386
1630 2 1 36.879569 -30.289277 -42.699994
1631 2 1 36.523629 -31.011856 -42.107385
1632 2 1 37.337289 -31.557780 -41.907575
1633 2 1 38.163186 -31.122175 -41.549604
1634 2 1 39.110999 -31.440162 -41.572726
1635 2 1 39.675967 -30.618080 -41.502066
1636 2 1 40.090170 -29.714082 -41.608004
1637 2 1 39.992140 -29.680632 -42.602625
1638 2 1 39.062398 -29.460814 -42.307229
1639 2 1 39.273422 -29.812349 -43.219310
1640 2 1 38.645765 -30.585465 -43.310624
1641 2 1 37.955335 -31.280087 -43.108617
1642 2 1 38.207722 -31.779481 -43.937414
1643 2 1 37.404928 -31.237212 -44.185336
1644 2 1 37.035586 -31.107053 -43.265202
1645 2 1 36.754349 -31.742905 -42.546455
1646 2 1 36.277139 -32.420824 -41.987262
1647 2 1 35.514443 -32.940657 -41.602465
1648 2 1 35.981760 -33.808281 -41.772298
1649 2 1 35.722741 -34.720314 -41.454327
1650 2 1 35.009115 -35.412796 -41.348472
1651 2 1 34.616994 -35.733778 -42.210569
1652 2 1 34.564147 -34.938078 -42.813951
1653 2 1 35.125963 -34.185410 -42.470653
1654 2 1 34.803449 -33.520330 -41.797115
1655 2 1 33.830027 -33.741810 -41.738835
1656 2 1 33.180122 -34.501405 -41.713554
1657 2 1 33.549089 -35.347882 -41.329705
1658 2 1 33.002180 -36.038268 -40.856147
1659 2 1 33.047474 -36.781185 -41.523997
1660 2 1 33.072351 -37.497039 -42.221803
1661 2 1 32.536243 -37.615405 -41.385993
1662 2 1 31.864346 -36.976308 -41.760304
1663 2 1 31.035650 -36.453161 -41.959250
1664 2 1 30.883918 -35.975424 -41.093949
1665 2 1 30.709869 -35.052529 -40.750480
1666 2 1 30.793479 -34.636494 -41.655976
1667 2 1 31.791105 -34.632375 -41.724725
1668 2 1 32.073756 -34.919598 -42.639936
1669 2 1 31.228923 -34.806907 -43.162964
1670 2 1 31.143284 -35.801694 -43.218333
1671 2 1 31.744503 -36.422138 -42.714761
1672 2 1 30.927866 -36.979659 -42.565517
1673 2 1 30.820931 -37.953181 -42.363478
1674 2 1 31.721480 -37.858429 -42.787783
1675 2 1 30.814468 -37.629601 -43.141288
1676 2 1 31.015705 -38.055992 -44.023158
1677 2 1 31.194442 -38.533072 -44.883651
1678 2 1 31.815410 -39.316318 -44.914033
1679 2 1 31.355561 -39.235216 -45.798319
1680 2 1 31.945364 -39.197139 -46.604969
1681 2 1 32.571806 -39.976219 -46.580380
1682 2 1 33.077380 -40.828116 -46.717003
1683 2 1 32.167420 -40.654049 -46.340607
1684 2 1 31.215872 -40.832630 -46.090278
1685 2 1 31.077730 -41.760199 -46.437454
1686 2 1 31.166929 -42.529881 -47.069620
1687 2 1 30.251608 -42.301268 -46.738073
1688 2 1 30.836525 -42.851820 -46.142451
1689 2 1 31.169737 -42.288011 -45.386746
1690 2 1 31.872828 -41.738014 -45.837487
1691 2 1 31.086855 -41.297563 -45.403609
1692 2 1 30.164692 -40.962151 -45.210959
1693 2 1 29.420751 -41.456580 -45.660505
1694 2 1 29.009924 -41.619990 -44.763555
1695 2 1 28.932187 -40.624106 -44.810153
1696 2 1 29.642961 -40.855965 -44.146044
1697 2 1 29.254929 -41.681055 -43.735364
1698 2 1 28.651262 -42.226550 -43.153969
1699 2 1 27.703383 -42.330909 -42.852912
1700 2 1 28.073381 -41.481904 -43.230128
1701 2 1 27.303211 -40.869038 -43.406857
1702 2 1 26.670504 -40.358621 -42.824485
1703 2 1 26.700549 -41.107275 -42.162205
1704 2 1 26.591330 -42.064017 -41.892546
1705 2 1 27.329544 -41.412312 -41.718419
1706 2 1 28.320395 -41.311018 -41.629237
1707 2 1 27.624286 -40.663286 -41.938875
1708 2 1 27.694830 -40.367456 -42.891507
1709 2 1 28.545983 -40.607624 -42.424755
1710 2 1 29.084306 -41.427351 -42.229160
1711 2 1 28.114634 -41.313013 -42.445176
1712 2 1 27.183144 -41.541548 -42.728193
1713 2 1 26.797773 -42.335171 -43.198992
1714 2 1 26.670996 -43.220007 -43.647314
1715 2 1 26.436533 -43.142465 -42.678287
1716 2 1 25.751486 -43.747138 -43.084588
1717 2 1 25.117416 -43.240209 -43.668521
1718 2 1 24.638167 -42.597587 -44.266316
1719 2 1 24.856750 -41.852919 -44.896944
1720 2 1 25.693995 -41.392413 -44.602062
1721 2 1 25.621206 -41.844507 -43.713066
1722 2 1 25.729756 -42.252235 -42.806438
1723 2 1 24.956480 -41.624727 -42.897423
1724 2 1 24.795955 -41.072311 -43.715389
1725 2 1 24.372495 -40.768958 -44.569004
1726 2 1 23.639746 -40.956662 -45.223104
1727 2 1 23.576252 -40.276368 -45.953289
1728 2 1 24.483219 -40.466304 -45.577343
1729 2 1 25.019413 -40.016123 -46.291370
1730 2 1 25.082631 -40.738051 -46.980444
1731 2 1 25.602365 -41.537954 -46.680390
1732 2 1 25.055058 -40.949418 -46.085344
1733 2 1 24.151689 -41.313076 -45.858019
1734 2 1 24.962359 -41.897859 -45.887032
1735 2 1 25.845593 -42.213071 -45.539843
1736 2 1 25.590224 -42.370232 -44.585859
1737 2 1 26.470842 -42.214563 -45.033384
1738 2 1 26.166848 -43.167198 -45.041967
1739 2 1 25.222444 -43.495647 -45.056885
1740 2 1 24.641086 -43.115881 -45.776470
1741 2 1 25.545565 -43.400494 -46.094140
1742 2 1 25.972193 -43.396202 -46.998557
1743 2 1 26.289123 -42.454406 -47.110700
1744 2 1 26.919745 -41.780250 -46.726212
1745 2 1 27.617599 -41.577950 -46.039136
1746 2 1 27.213812 -41.035788 -45.302239
1747 2 1 26.619368 -40.277394 -45.569584
1748 2 1 26.251957 -39.510440 -46.095694
1749 2 1 26.079604 -39.781048 -45.148559
1750 2 1 25.417493 -39.540419 -44.438835
1751 2 1 25.918847 -40.247727 -43.940479
1752 2 1 25.428576 -39.591852 -43.366491
1753 2 1 25.649953 -38.704334 -43.770600
1754 2 1 25.210994 -38.333894 -42.952011
1755 2 1 24.740287 -37.733718 -42.305308
1756 2 1 25.330798 -38.073035 -41.573078
1757 2 1 25.130285 -38.970169 -41.179449
1758 2 1 25.406134 -39.884257 -41.476688
1759 2 1 25.230489 -39.404513 -42.336337
1760 2 1 24.608972 -38.685458 -42.025411
1761 2 1 23.957097 -39.430122 -41.882116
1762 2 1 23.817419 -39.779895 -40.955753
1763 2 1 22.893181 -40.119554 -40.781347
1764 2 1 22.927400 -40.806296 -40.055252
1765 2 1 23.833550 -41.046568 -39.707170
1766 2 1 24.151089 -40.989425 -40.653692
1767 2 1 24.718875 -40.712041 -41.428726
1768 2 1 25.325640 -41.109543 -40.740374
1769 2 1 25.385908 -41.318018 -39.764205
1770 2 1 26.163172 -40.932461 -40.261404
1771 2 1 25.385818 -40.409477 -39.911819
1772 2 1 24.543989 -39.870173 -39.890065
1773 2 1 23.832800 -39.251992 -40.224823
1774 2 1 23.895493 -38.646213 -39.431664
1775 2 1 23.328995 -37.898952 -39.084272
1776 2 1 22.638024 -38.534138 -39.429378
1777 2 1 22.768192 -39.486861 -39.703926
1778 2 1 23.108613 -39.498679 -38.763727
1779 2 1 22.236094 -39.446254 -38.277966
1780 2 1 21.239381 -39.497203 -38.340951
1781 2 1 21.389464 -39.724715 -37.378811
1782 2 1 21.823521 -40.445329 -37.919468
1783 2 1 20.827839 -40.363839 -37.874997
1784 2 1 20.391157 -39.808438 -37.167298
1785 2 1 19.589875 -40.123740 -36.658837
1786 2 1 19.001712 -40.017834 -37.460615
1787 2 1 19.898823 -40.266660 -37.825686
1788 2 1 20.389084 -40.865365 -37.192285
1789 2 1 20.253901 -41.692581 -37.737665
1790 2 1 19.664663 -41.044593 -38.220273
1791 2 1 18.755968 -41.327308 -37.913113
1792 2 1 18.574262 -41.830135 -38.758186
1793 2 1 19.384684 -42.241690 -38.341246
1794 2 1 19.254194 -42.419287 -39.316660
1795 2 1 18.940295 -43.319028 -39.013456
1796 2 1 18.522078 -43.337105 -38.105288
1797 2 1 19.197143 -43.090247 -37.410055
1798 2 1 19.943701 -43.102231 -36.744843
1799 2 1 20.910030 -43.290202 -36.569132
1800 2 1 20.624930 -43.377917 -37.523608
1801 2 1 21.302224 -44.112348 -37.480211
1802 2 1 22.197363 -44.024561 -37.917268
1803 2 1 21.713357 -43.156338 -37.808064
1804 2 1 21.512137 -42.946373 -38.764842
1805 2 1 22.264651 -42.624191 -39.339230
1806 2 1 21.704926 -42.023753 -39.910353
1807 2 1 21.925224 -41.619667 -40.798150
1808 2 1 22.375045 -42.206621 -41.471311
1809 2 1 21.757763 -42.618154 -40.800786
1810 2 1 21.081622 -43.346962 -40.908821
1811 2 1 20.776609 -43.288951 -39.958241
1812 2 1 20.312800 -44.073451 -39.546609
1813 2 1 20.914136 -43.464397 -39.029454
1814 2 1 21.665846 -43.185919 -39.627269
1815 2 1 21.277447 -44.035557 -39.984005
1816 2 1 21.861691 -44.120981 -40.791075
1817 2 1 22.102870 -44.827326 -41.456589
1818 2 1 22.029866 -45.824102 -41.423301
1819 2 1 22.984335 -45.933884 -41.700677
1820 2 1 23.896554 -45.570591 -41.890085
1821 2 1 23.577949 -44.643385 -42.087011
1822 2 1 23.772180 -44.766546 -43.060205
1823 2 1 23.877080 -45.690558 -43.427898
1824 2 1 23.673425 -46.166310 -42.572220
1825 2 1 23.014551 -45.647910 -43.117333
1826 2 1 22.522440 -44.777515 -43.101871
1827 2 1 22.621808 -43.837060 -42.776801
1828 2 1 23.607004 -43.676151 -42.717673
1829 2 1 23.618663 -43.213956 -43.604375
1830 2 1 23.841738 -42.930233 -44.536973
1831 2 1 23.133256 -43.590515 -44.786134
1832 2 1 23.090549 -42.681399 -44.371787
1833 2 1 23.017090 -42.022083 -45.120056
1834 2 1 23.394920 -42.440137 -45.946177
1835 2 1 23.042869 -42.200173 -46.850874
1836 2 1 23.200900 -41.266420 -47.172015
1837 2 1 23.805765 -41.958270 -46.777704
1838 2 1 24.796044 -42.090913 -46.819584
1839 2 1 25.458209 -41.786029 -47.504115
1840 2 1 25.428287 -41.393764 -48.423480
1841 2 1 24.671147 -40.740779 -48.404755
1842 2 1 25.119186 -40.457665 -49.252757
1843 2 1 24.403368 -39.814317 -48.981265
1844 2 1 24.763366 -38.935411 -48.668334
1845 2 1 25.707726 -38.988152 -48.992990
1846 2 1 26.229902 -38.612518 -48.227333
1847 2 1 26.696947 -38.115553 -47.495968
1848 2 1 26.312648 -38.796421 -46.872484
1849 2 1 27.173533 -38.421604 -46.528407
1850 2 1 28.039919 -38.166195 -46.957525
1851 2 1 27.823184 -37.305237 -46.497330
1852 2 1 27.582359 -36.854553 -47.356915
1853 2 1 27.611304 -36.397985 -46.467697
1854 2 1 28.592281 -36.344768 -46.654382
1855 2 1 29.115020 -35.700934 -47.213149
1856 2 1 28.555849 -35.574755 -48.032543
1857 2 1 28.470417 -34.602073 -47.816698
1858 2 1 27.998059 -35.127342 -48.524490
1859 2 1 27.208041 -35.320824 -47.942737
1860 2 1 27.149081 -35.584951 -48.905421
1861 2 1 27.918476 -35.730035 -49.527501
1862 2 1 28.707681 -35.173734 -49.267342
1863 2 1 28.490992 -36.006736 -48.758272
1864 2 1 29.339862 -36.146097 -48.248371
1865 2 1 29.836769 -36.313900 -47.396945
1866 2 1 29.198944 -36.951309 -47.829252
1867 2 1 28.430229 -37.265738 -48.386218
1868 2 1 28.708043 -37.858731 -47.630455
1869 2 1 28.417607 -36.902515 -47.594431
1870 2 1 27.892268 -36.111314 -47.907511
1871 2 1 27.321060 -36.503366 -48.628633
1872 2 1 26.660192 -36.553311 -47.879795
1873 2 1 27.148091 -37.425362 -47.841292
1874 2 1 27.514138 -38.355936 -47.847623
1875 2 1 28.001579 -38.939204 -48.497392
1876 2 1 27.493212 -39.511481 -49.140869
1877 2 1 27.842024 -39.796360 -48.248023
1878 2 1 28.824901 -39.822368 -48.430443
1879 2 1 29.082517 -38.869393 -48.270840
1880 2 1 28.796448 -38.869663 -47.312630
1881 2 1 27.850512 -39.193722 -47.298846
1882 2 1 28.202481 -39.919631 -46.707936
1883 2 1 28.073769 -38.950505 -46.497629
1884 2 1 28.939976 -39.397710 -46.274709
1885 2 1 29.758205 -39.926579 -46.500094
1886 2 1 30.247260 -40.794116 -46.590675
1887 2 1 29.263805 -40.717852 -46.426361
1888 2 1 28.751328 -40.735715 -47.284876
1889 2 1 29.162631 -40.947472 -48.171436
1890 2 1 29.038151 -40.597830 -49.100012
1891 2 1 29.985536 -40.848903 -48.901457
1892 2 1 30.744732 -40.970761 -48.262105
1893 2 1 30.001752 -41.634242 -48.173939
1894 2 1 29.263098 -42.308318 -48.177367
1895 2 1 29.517103 -41.763173 -47.378431
1896 2 1 29.450464 -42.234456 -46.498970
1897 2 1 28.815959 -41.563838 -46.883256
1898 2 1 28.558943 -42.420292 -47.330950
1899 2 1 27.972230 -42.958517 -46.725902
1900 2 1 28.458393 -43.305399 -45.923831
1901 2 1 28.403911 -44.068958 -46.567266
1902 2 1 29.010912 -44.414451 -47.282937
1903 2 1 29.793005 -44.010651 -46.808305
1904 2 1 29.209101 -44.784965 -46.564395
1905 2 1 28.831726 -45.260216 -45.769584
1906 2 1 29.239776 -46.142193 -45.533763
1907 2 1 29.506831 -46.668746 -46.340872
1908 2 1 30.007591 -46.409767 -47.166807
1909 2 1 29.946448 -45.474772 -47.516157
1910 2 1 30.343710 -45.720780 -48.400275
1911 2 1 30.744306 -45.204886 -47.643059
1912 2 1 31.529740 -45.823144 -47.613910
1913 2 1 31.558853 -44.866558 -47.323917
1914 2 1 32.503008 -44.865473 -47.653417
1915 2 1 32.402613 -45.647665 -47.038522
1916 2 1 32.868889 -44.912865 -46.545922
1917 2 1 32.427482 -44.893527 -45.648823
1918 2 1 32.008945 -44.044030 -45.970042
1919 2 1 32.343907 -44.054285 -46.912218
1920 2 1 31.715718 -43.276254 -46.905530
1921 2 1 30.927610 -43.664757 -46.428088
1922 2 1 30.035016 -43.219576 -46.499427
1923 2 1 29.936626 -43.396365 -47.478746
1924 2 1 30.775190 -43.067628 -47.913191
1925 2 1 30.802540 -43.061058 -48.912796
1926 2 1 30.781920 -42.127831 -48.554098
1927 2 1 31.723148 -42.273371 -48.249287
1928 2 1 32.578269 -42.512910 -48.709057
1929 2 1 32.450902 -42.129859 -47.794153
1930 2 1 32.947853 -41.511566 -48.403048
1931 2 1 33.742418 -41.792490 -48.941332
1932 2 1 34.667790 -41.921678 -48.584966
1933 2 1 34.679012 -42.469439 -49.421526
1934 2 1 34.116246 -43.023924 -48.808467
1935 2 1 34.037461 -42.470798 -47.979102
1936 2 1 34.834813 -41.990390 -47.613810
1937 2 1 35.291646 -41.242783 -48.095876
1938 2 1 35.211321 -41.031253 -47.121810
1939 2 1 35.373169 -40.069603 -46.900375
1940 2 1 35.580483 -39.837065 -45.950140
1941 2 1 36.089522 -38.989253 -45.801499
1942 2 1 35.861860 -39.009708 -44.827973
1943 2 1 35.951908 -39.955122 -44.514792
1944 2 1 35.496034 -40.844435 -44.550878
1945 2 1 35.019187 -41.478913 -45.159199
1946 2 1 34.542899 -42.354722 -45.081048
1947 2 1 34.733653 -43.220794 -44.618952
1948 2 1 33.800102 -43.482218 -44.864187
1949 2 1 32.895104 -43.772103 -45.175549
1950 2 1 33.014787 -43.575315 -46.148663
1951 2 1 33.563962 -42.904388 -45.650401
1952 2 1 33.557331 -41.904939 -45.617888
1953 2 1 33.378646 -41.842449 -44.635968
1954 2 1 34.360164 -41.659718 -44.579125
1955 2 1 34.857693 -41.808210 -43.724482
1956 2 1 34.372597 -40.962246 -43.945903
1957 2 1 34.436417 -40.129136 -44.495316
1958 2 1 33.991131 -40.459953 -45.327351
1959 2 1 33.160351 -40.343212 -44.783131
1960 2 1 32.226663 -40.657003 -44.955645
1961 2 1 32.729734 -41.486778 -45.197293
1962 2 1 32.553693 -41.944597 -44.325851
1963 2 1 31.774213 -42.568665 -44.271538
1964 2 1 32.116464 -42.926423 -43.402703
1965 2 1 31.873200 -43.896358 -43.409620
1966 2 1 32.810436 -44.176703 -43.616975
1967 2 1 33.508844 -44.458244 -42.958978
1968 2 1 33.760828 -45.041593 -43.731123
1969 2 1 33.948727 -44.088797 -43.969606
1970 2 1 34.699654 -44.710761 -44.191573
1971 2 1 35.253882 -45.458923 -44.556384
1972 2 1 36.070731 -44.969499 -44.251062
1973 2 1 35.502562 -44.357943 -44.801682
1974 2 1 34.656111 -44.001723 -45.197445
1975 2 1 34.169082 -44.219941 -46.043130
1976 2 1 33.199771 -44.378408 -45.855178
1977 2 1 33.805425 -45.116458 -46.152613
1978 2 1 33.074122 -45.573523 -45.646365
1979 2 1 33.027976 -46.306284 -44.967445
1980 2 1 33.880797 -46.273505 -45.488618
1981 2 1 33.374667 -46.866603 -46.114770
1982 2 1 33.730923 -47.745108 -45.796474
1983 2 1 34.448520 -47.809375 -45.102987
1984 2 1 35.444772 -47.845902 -45.181394
1985 2 1 36.056319 -47.201748 -45.640825
1986 2 1 36.126832 -48.169142 -45.884090
1987 2 1 36.984625 -48.034635 -46.380174
1988 2 1 37.617817 -47.454999 -45.867251
1989 2 1 38.550995 -47.194683 -45.619432
1990 2 1 38.748485 -46.942774 -44.672046
1991 2 1 39.116966 -46.469813 -45.472377
1992 2 1 39.300190 -47.191659 -46.139735
1993 2 1 40.106762 -46.978997 -46.691294
1994 2 1 39.606240 -47.833390 -46.830899
1995 2 1 39.030061 -48.148822 -47.584902
1996 2 1 38.324694 -48.857660 -47.587415
1997 2 1 37.869552 -49.697877 -47.292658
1998 2 1 37.349432 -49.339032 -48.067710
1999 2 1 37.042398 -48.753335 -48.817837
2000 2 1 36.999829 -49.106368 -49.752479
2001 3 1 24.546677 -0.967947 35.009827
2002 3 1 24.278875 -0.039733 35.268093
2003 3 1 23.658385 -0.715030 35.666798
2004 3 1 23.098253 -1.501428 35.406356
2005 3 1 23.237269 -1.810808 36.347079
2006 3 1 24.109244 -2.250036 36.130888
2007 3 1 24.841869 -1.936538 35.526753
2008 3 1 25.452339 -2.714504 35.675396
2009 3 1 24.982203 -3.519565 36.037126
2010 3 1 25.425942 -4.244856 36.563480
2011 3 1 24.749670 -4.609719 35.923533
2012 3 1 24.881587 -4.957791 36.851673
2013 3 1 25.043106 -4.585896 37.765788
2014 3 1 24.437921 -4.080305 38.380711
2015 3 1 24.643559 -5.058548 38.353262
2016 3 1 24.735321 -5.757677 37.644179
2017 3 1 23.870589 -5.683058 38.140838
2018 3 1 23.159543 -5.848667 37.457474
2019 3 1 22.665856 -5.051103 37.110825
2020 3 1 22.393504 -6.012509 37.071802
2021 3 1 22.377957 -7.004973 36.950256
2022 3 1 22.690785 -7.760759 37.525518
2023 3 1 22.750264 -7.201769 38.352556
2024 3 1 22.300192 -7.600365 39.151654
2025 3 1 21.582252 -8.289248 39.051645
2026 3 1 21.088483 -7.806617 38.328278
2027 3 1 20.234056 -7.296343 38.230422
2028 3 1 19.403577 -6.823500 38.524911
2029 3 1 19.495696 -7.770424 38.832889
2030 3 1 18.604853 -7.407824 39.106605
2031 3 1 17.896079 -7.999101 38.721857
2032 3 1 17.804618 -7.025796 38.511351
2033 3 1 17.090555 -6.405422 38.835772
2034 3 1 16.372210 -6.775651 39.424763
2035 3 1 15.711880 -6.066387 39.671561
2036 3 1 16.098001 -5.859503 38.772612
2037 3 1 15.639613 -5.306303 38.077018
2038 3 1 14.824855 -4.880924 38.471000
2039 3 1 15.775318 -4.580336 38.550163
2040 3 1 16.713737 -4.707388 38.228871
2041 3 1 17.075013 -5.510872 37.755699
2042 3 1 16.813124 -5.727877 36.815314
2043 3 1 17.199443 -4.815507 36.679892
2044 3 1 17.702145 -4.712224 35.821625
2045 3 1 17.011765 -5.435563 35.809123
2046 3 1 17.161575 -6.423384 35.767087
2047 3 1 16.479587 -6.688477 35.085459
2048 3 1 15.500296 -6.714644 34.884698
2049 3 1 15.050304 -7.574683 35.125197
2050 3 1 14.780154 -8.530627 35.010347
2051 3 1 13.926627 -8.595657 35.527322
2052 3 1 13.319740 -9.207216 35.019698
2053 3 1 13.052666 -9.482315 34.096122
2054 3 1 12.574493 -9.049181 33.332089
2055 3 1 12.601923 -8.582727 34.216209
2056 3 1 12.875742 -7.632580 34.067067
2057 3 1 13.868970 -7.540662 34.138129
2058 3 1 13.512079 -7.820771 33.246968
2059 3 1 13.969042 -8.678468 33.482642
2060 3 1 13.405777 -8.690472 32.656452
2061 3 1 12.842614 -8.375723 31.892397
2062 3 1 12.297626 -7.677000 31.428960
2063 3 1 12.957856 -7.598293 30.682032
2064 3 1 12.523053 -6.768995 31.033048
2065 3 1 12.505890 -5.846488 31.418647
2066 3 1 12.799240 -4.920884 31.179476
2067 3 1 12.048367 -5.223813 31.766353
2068 3 1 11.185621 -5.252921 31.261555
2069 3 1 11.925156 -5.718313 30.775244
2070 3 1 11.503019 -5.281202 29.981055
2071 3 1 12.417510 -5.455985 29.616148
2072 3 1 12.624361 -6.428111 29.726534
2073 3 1 13.222364 -7.029893 29.197146
2074 3 1 12.322169 -6.888011 28.785419
2075 3 1 12.107128 -6.267592 28.031206
2076 3 1 11.537363 -5.448091 27.969671
2077 3 1 11.514970 -5.397069 28.968118
2078 3 1 11.908049 -4.703175 29.571441
2079 3 1 12.800584 -4.655744 30.019919
2080 3 1 13.153131 -3.813087 29.612930
2081 3 1 13.760539 -3.069910 29.332318
2082 3 1 13.132160 -2.641405 28.683070
2083 3 1 12.255315 -3.117403 28.615486
2084 3 1 11.809658 -3.973674 28.354356
2085 3 1 12.665750 -4.083545 28.859366
2086 3 1 12.145069 -3.840217 29.677707
2087 3 1 11.175465 -3.600805 29.627204
2088 3 1 10.495484 -3.349963 28.938216
2089 3 1 10.760371 -2.925908 29.804249
2090 3 1 9.799434 -3.055967 30.048553
2091 3 1 9.094899 -2.500084 29.607390
2092 3 1 9.504296 -2.184161 30.463303
2093 3 1 9.875585 -1.426807 29.926125
2094 3 1 10.777500 -1.092402 29.652770
2095 3 1 10.849073 -1.898279 29.065030
2096 3 1 11.491923 -1.155683 28.877161
2097 3 1 11.800364 -0.822012 27.986359
2098 3 1 11.282888 -0.372575 28.714525
2099 3 1 12.214604 -0.039785 28.569077
2100 3 1 12.417805 0.619412 27.845081
2101 3 1 12.816838 -0.290373 27.730778
2102 3 1 13.602834 0.327859 27.731617
2103 3 1 13.820838 0.380972 28.706119
2104 3 1 13.048349 1.015921 28.696110
2105 3 1 13.814985 1.538265 29.069508
2106 3 1 14.780124 1.733697 28.895402
2107 3 1 14.436821 1.832483 29.829417
2108 3 1 14.521932 1.587913 30.795306
2109 3 1 14.234558 0.785241 30.272683
2110 3 1 13.742623 -0.068435 30.443670
2111 3 1 14.436254 -0.138304 29.726736
2112 3 1 14.823541 0.458622 29.024106
2113 3 1 15.042046 0.272225 28.066238
2114 3 1 15.206511 -0.347820 28.833372
2115 3 1 15.765002 -0.707453 29.580869
2116 3 1 14.987913 -1.094812 29.084799
2117 3 1 14.852227 -1.427714 30.017948
2118 3 1 14.104090 -1.042853 30.558479
2119 3 1 13.190334 -1.059239 30.964410
2120 3 1 13.675906 -1.835404 30.562182
2121 3 1 13.258014 -2.711584 30.802337
2122 3 1 12.890420 -1.816153 31.053487
2123 3 1 12.234984 -2.069005 30.341820
2124 3 1 13.178264 -2.152988 30.020621
2125 3 1 13.826904 -1.444180 29.743389
2126 3 1 14.169410 -1.407974 28.804571
2127 3 1 14.063418 -2.357176 29.100851
2128 3 1 14.963654 -2.077209 29.434308
2129 3 1 15.830508 -2.436423 29.780039
2130 3 1 15.977103 -1.540188 30.198694
2131 3 1 16.753545 -1.629985 30.822453
2132 3 1 17.011930 -2.411057 30.253979
2133 3 1 16.513162 -2.604704 31.098805
2134 3 1 15.691505 -2.134893 30.776072
2135 3 1 15.318329 -2.920150 31.270147
2136 3 1 15.490278 -3.459378 30.445728
2137 3 1 15.791864 -3.612452 29.504657
2138 3 1 14.901182 -3.172294 29.618436
2139 3 1 14.480655 -2.816049 30.452851
2140 3 1 14.178148 -3.766600 30.382552
2141 3 1 14.894481 -4.302931 29.936216
2142 3 1 14.577403 -4.370656 28.990238
2143 3 1 14.551791 -5.267629 29.431581
2144 3 1 14.540808 -5.570175 30.384652
2145 3 1 15.231305 -5.870430 31.042726
2146 3 1 15.702866 -5.770629 30.166557
2147 3 1 16.680077 -5.798728 29.956154
2148 3 1 16.224069 -4.978594 29.610555
2149 3 1 16.914912 -4.644870 30.251932
2150 3 1 17.416479 -4.921291 29.432162
2151 3 1 17.791758 -5.772244 29.064676
2152 3 1 17.660068 -6.449774 28.341067
2153 3 1 18.386096 -7.133619 28.268679
2154 3 1 17.430799 -7.291399 28.018654
2155 3 1 16.956008 -8.154493 27.846485
2156 3 1 17.904762 -7.934291 27.619823
2157 3 1 18.340350 -7.199042 27.100523
2158 3 1 18.225233 -6.302132 26.673557
2159 3 1 17.676981 -5.489407 26.476330
2160 3 1 17.135373 -6.094505 27.059869
2161 3 1 16.165429 -6.073581 27.302297
2162 3 1 16.055699 -6.010815 26.310319
2163 3 1 15.275522 -6.506437 25.928636
2164 3 1 15.513785 -6.430875 24.960379
2165 3 1 15.148750 -7.180193 25.512893
2166 3 1 14.326434 -7.748959 25.530267
2167 3 1 13.947731 -6.868548 25.815679
2168 3 1 14.729897 -7.142522 26.375281
2169 3 1 13.998738 -6.476175 26.521529
2170 3 1 13.141591 -6.991174 26.530224
2171 3 1 12.668966 -7.065502 27.408347
2172 3 1 12.105501 -6.442819 26.865417
2173 3 1 11.972575 -5.662054 26.254896
2174 3 1 11.629390 -5.122369 27.023638
2175 3 1 10.741768 -5.502933 27.283057
2176 3 1 10.721074 -6.093045 28.090113
2177 3 1 9.741466 -5.926125 27.978278
2178 3 1 9.040318 -6.633239 27.886729
2179 3 1 8.226911 -6.051626 27.876983
2180 3 1 8.517932 -6.382220 28.774766
2181 3 1 9.008361 -7.228186 28.565432
2182 3 1 9.431650 -6.792090 29.359564
2183 3 1 9.621729 -7.127244 30.282355
2184 3 1 9.853470 -7.057692 31.252642
2185 3 1 9.630229 -6.092879 31.113722
2186 3 1 10.164245 -5.645497 30.396312
2187 3 1 10.288165 -4.954132 29.684513
2188 3 1 11.074855 -4.394740 29.423364
2189 3 1 11.530813 -4.528618 30.303239
2190 3 1 10.703468 -4.425588 30.855403
2191 3 1 9.852645 -4.196520 30.382511
2192 3 1 9.284368 -4.617731 29.675656
2193 3 1 8.554970 -4.851677 30.318499
2194 3 1 7.716215 -4.595856 29.837826
2195 3 1 7.114191 -4.454785 29.051909
2196 3 1 8.068040 -4.188258 28.913579
2197 3 1 8.877082 -3.896017 28.403632
2198 3 1 8.338949 -3.197266 27.932294
2199 3 1 9.168717 -3.024285 28.462917
2200 3 1 9.977052 -3.227596 27.910414
2201 3 1 9.962190 -2.751106 28.789468
2202 3 1 10.143546 -2.056427 28.093386
2203 3 1 11.030824 -2.366620 28.434732
2204 3 1 11.177104 -1.611259 27.795959
2205 3 1 10.425248 -0.951959 27.802000
2206 3 1 10.924835 -1.388316 27.053665
2207 3 1 10.311416 -2.051259 26.624454
2208 3 1 9.880128 -2.805051 27.120225
2209 3 1 9.542475 -3.745752 27.152960
2210 3 1 9.291590 -4.292270 26.353976
2211 3 1 10.033057 -4.939213 26.175956
2212 3 1 9.867421 -4.252258 25.468385
2213 3 1 10.548735 -3.808768 26.050732
2214 3 1 11.018042 -3.798558 25.167757
2215 3 1 11.867056 -4.286169 24.964258
2216 3 1 12.855632 -4.177666 25.068867
2217 3 1 13.362029 -4.972671 25.402828
2218 3 1 12.610866 -5.136044 26.042410
2219 3 1 12.837247 -5.846654 25.376238
2220 3 1 13.773094 -5.924284 25.719988
2221 3 1 14.154331 -5.089226 25.323332
2222 3 1 14.282313 -5.065203 26.314818
2223 3 1 14.602357 -5.925204 26.712273
2224 3 1 14.012086 -5.411850 27.335208
2225 3 1 13.087558 -5.474351 26.959253
2226 3 1 13.017044 -5.825270 27.893001
2227 3 1 13.557274 -5.631659 28.711943
2228 3 1 13.302547 -5.743077 29.672516
2229 3 1 13.905775 -6.516995 29.865304
2230 3 1 13.372672 -7.361003 29.924057
2231 3 1 13.206211 -8.342956 29.834291
2232 3 1 13.596259 -7.985462 28.985727
2233 3 1 12.753334 -8.396559 28.638631
2234 3 1 12.379014 -7.967215 27.816713
2235 3 1 12.832571 -8.209508 26.959054
2236 3 1 13.631525 -7.649134 26.740757
2237 3 1 13.931333 -8.590066 26.583399
2238 3 1 13.698458 -8.790276 25.631724
2239 3 1 13.434226 -9.753519 25.680130
2240 3 1 13.424614 -10.331053 26.496440
2241 3 1 12.757500 -10.632838 25.815350
2242 3 1 11.865307 -10.757698 26.249403
2243 3 1 12.523008 -11.001720 26.962062
2244 3 1 13.112750 -10.245314 27.244999
2245 3 1 12.457033 -9.564991 27.572405
2246 3 1 11.941750 -9.820562 26.754379
2247 3 1 11.559173 -9.632631 27.658988
2248 3 1 11.192244 -10.420078 27.163721
2249 3 1 11.514277 -10.866687 27.998487
2250 3 1 12.511301 -10.806871 27.949862
2251 3 1 12.953117 -10.070460 28.462207
2252 3 1 13.573174 -10.538017 27.832191
2253 3 1 14.537385 -10.433027 28.075654
2254 3 1 14.987329 -9.625544 27.694183
2255 3 1 15.870091 -10.095297 27.702105
2256 3 1 16.616326 -10.060218 27.037346
2257 3 1 15.911824 -9.747800 26.400109
2258 3 1 16.162447 -9.429664 27.314427
2259 3 1 17.009401 -9.714745 27.763201
2260 3 1 17.595205 -9.599885 28.565473
2261 3 1 18.076367 -10.425709 28.859580
2262 3 1 17.322401 -10.042417 29.393080
2263 3 1 17.158993 -10.516884 28.528107
2264 3 1 17.485736 -11.159573 29.221064
2265 3 1 18.372582 -11.064776 29.673301
2266 3 1 19.293715 -10.677312 29.636078
2267 3 1 19.329999 -10.377897 28.682645
2268 3 1 18.619426 -11.077983 28.753117
2269 3 1 18.166451 -11.018703 27.863568
2270 3 1 17.647236 -11.190752 27.026420
2271 3 1 18.191642 -12.029289 27.048302
2272 3 1 17.227724 -12.163850 26.818617
2273 3 1 17.268270 -12.683350 25.965109
2274 3 1 16.854512 -13.047841 25.130872
2275 3 1 16.431121 -13.797596 24.622337
2276 3 1 16.795945 -13.103051 24.002247
2277 3 1 16.604219 -13.958310 23.520819
2278 3 1 17.518548 -13.555484 23.562450
2279 3 1 17.667863 -14.433621 23.107939
2280 3 1 18.553577 -14.895811 23.064450
2281 3 1 19.179270 -15.604916 23.389531
2282 3 1 18.289352 -15.797974 22.976284
2283 3 1 17.565622 -16.390521 22.622583
2284 3 1 16.661656 -16.142251 22.274435
2285 3 1 15.920358 -15.745897 21.732789
2286 3 1 16.282190 -14.929327 22.182556
2287 3 1 15.800335 -14.369831 21.508182
2288 3 1 16.560711 -14.419426 20.860595
2289 3 1 15.772810 -14.886138 20.458858
2290 3 1 15.403820 -15.138045 19.564213
2291 3 1 14.982222 -16.010563 19.317299
2292 3 1 15.679868 -16.713520 19.178942
2293 3 1 15.226392 -17.604132 19.144771
2294 3 1 15.065165 -17.366877 20.102746
2295 3 1 14.695776 -16.452989 20.271150
2296 3 1 15.131187 -15.582258 20.499723
2297 3 1 15.682932 -16.019717 19.789648
2298 3 1 16.341865 -15.355407 20.142492
2299 3 1 17.058218 -15.781731 20.694839
2300 3 1 17.555023 -16.637872 20.552685
2301 3 1 17.701400 -17.564703 20.206912
2302 3 1 18.494057 -17.775606 19.634885
2303 3 1 18.305608 -17.912225 18.662351
2304 3 1 17.399319 -17.876218 19.083474
2305 3 1 17.301741 -17.215452 18.339251
2306 3 1 17.394121 -17.166104 17.344751
2307 3 1 18.323342 -16.851744 17.538983
2308 3 1 18.618307 -17.443909 16.789093
2309 3 1 17.885058 -17.856265 17.329749
2310 3 1 18.204401 -18.655517 17.838881
2311 3 1 18.341001 -18.867859 16.871280
2312 3 1 18.265067 -18.391970 15.995059
2313 3 1 18.871430 -18.579651 15.222337
2314 3 1 18.478675 -17.808952 14.720572
2315 3 1 18.590560 -17.696874 13.733192
2316 3 1 19.278238 -17.247488 13.162971
2317 3 1 18.292448 -17.267794 12.996217
2318 3 1 17.452769 -17.607785 12.572726
2319 3 1 17.851048 -18.518101 12.460036
2320 3 1 17.640001 -19.491929 12.375665
2321 3 1 16.971012 -20.027759 12.890777
2322 3 1 17.884037 -19.908152 13.280752
2323 3 1 17.257203 -19.241144 13.683468
2324 3 1 16.831190 -20.018987 14.145499
2325 3 1 16.360558 -20.169399 15.014914
2326 3 1 16.306275 -19.174898 14.925351
2327 3 1 15.367461 -18.842962 14.833444
2328 3 1 14.380712 -18.827665 14.671916
2329 3 1 14.240708 -18.060165 14.046341
2330 3 1 13.935215 -18.682314 13.325505
2331 3 1 13.970064 -19.681440 13.348587
2332 3 1 14.068382 -20.675903 13.311476
2333 3 1 14.872926 -20.093477 13.195334
2334 3 1 14.240166 -20.267683 12.440836
2335 3 1 14.730003 -21.133681 12.340295
2336 3 1 14.810109 -21.804712 13.077384
2337 3 1 15.136343 -20.926990 13.428348
2338 3 1 14.618532 -21.412842 14.132494
2339 3 1 14.224183 -20.589480 14.540617
2340 3 1 13.895965 -20.504792 15.481415
2341 3 1 13.920807 -20.899505 16.399884
2342 3 1 14.280808 -19.991890 16.183936
2343 3 1 14.385349 -19.118773 16.660105
2344 3 1 13.495311 -18.976472 17.093212
2345 3 1 12.506287 -19.116301 17.045463
2346 3 1 12.286138 -18.168542 16.814625
2347 3 1 12.181262 -17.243529 16.449450
2348 3 1 11.711006 -16.590160 15.856182
2349 3 1 11.569371 -15.625308 15.634820
2350 3 1 12.447741 -15.412169 15.206991
2351 3 1 13.139124 -14.723082 14.989855
2352 3 1 12.636339 -15.190513 14.262727
2353 3 1 12.027926 -15.272341 13.473336
2354 3 1 11.353571 -15.454275 12.757692
2355 3 1 11.895590 -14.617028 12.685344
2356 3 1 11.546535 -14.278443 11.811547
2357 3 1 11.899189 -15.124246 11.411231
2358 3 1 12.564368 -15.525175 10.781316
2359 3 1 13.562959 -15.544970 10.732078
2360 3 1 14.497142 -15.871557 10.875756
2361 3 1 15.465034 -15.722599 10.673280
2362 3 1 15.037691 -16.313714 11.357356
2363 3 1 14.413813 -16.983709 10.955008
2364 3 1 15.282307 -17.422828 11.184991
2365 3 1 14.829887 -18.105503 11.758812
2366 3 1 15.211277 -19.019156 11.618174
2367 3 1 15.714612 -18.169316 11.461888
2368 3 1 15.836060 -18.700883 12.300152
2369 3 1 16.806769 -18.583800 12.090352
2370 3 1 16.230630 -19.381790 11.913504
2371 3 1 15.577206 -20.087071 11.638520
2372 3 1 14.898045 -20.811543 11.520705
2373 3 1 14.073618 -20.523333 11.033616
2374 3 1 13.476335 -21.324376 10.993813
2375 3 1 12.630068 -21.594337 11.453108
2376 3 1 12.840759 -22.540783 11.697750
2377 3 1 12.774743 -22.912494 12.623749
2378 3 1 13.382795 -23.691976 12.774351
2379 3 1 13.470505 -22.800087 13.218020
2380 3 1 13.357875 -23.503803 13.919517
2381 3 1 13.019710 -22.579272 14.095262
2382 3 1 12.344248 -22.069309 14.627887
2383 3 1 12.393978 -22.070523 15.626649
2384 3 1 11.449094 -21.746180 15.671326
2385 3 1 10.559029 -21.767792 15.216005
2386 3 1 10.807557 -21.388093 16.107106
2387 3 1 10.471387 -20.838321 15.342423
2388 3 1 9.870989 -20.064514 15.140567
2389 3 1 10.045198 -20.380210 14.207836
2390 3 1 10.233146 -20.117995 13.261306
2391 3 1 10.602822 -20.916461 12.786130
2392 3 1 10.159344 -20.878909 11.890632
2393 3 1 10.931520 -21.479057 12.099358
2394 3 1 10.725236 -21.375824 11.126326
2395 3 1 10.815570 -20.978300 10.213192
2396 3 1 10.102953 -20.303013 10.403363
2397 3 1 9.459436 -20.867813 9.886752
2398 3 1 8.710700 -20.337278 9.489351
2399 3 1 8.122532 -21.142013 9.408972
2400 3 1 8.247261 -20.486566 8.664102
2401 3 1 7.321384 -20.396186 9.030959
2402 3 1 6.921395 -21.247510 9.370454
2403 3 1 6.166275 -21.401083 10.007799
2404 3 1 5.309422 -21.690072 10.434751
2405 3 1 5.074660 -22.659208 10.509998
2406 3 1 5.948636 -22.928272 10.914683
2407 3 1 5.938901 -23.422186 11.784139
2408 3 1 6.040038 -22.451223 11.567340
2409 3 1 6.276667 -22.217736 10.624212
2410 3 1 6.909819 -22.242443 9.850579
2411 3 1 7.025562 -23.223793 10.004060
2412 3 1 6.186300 -22.934005 9.543992
2413 3 1 6.278759 -23.584658 8.790267
2414 3 1 5.580967 -23.828171 9.463904
2415 3 1 5.681333 -24.633777 8.880016
2416 3 1 4.799516 -24.544782 9.343133
2417 3 1 4.072516 -25.212398 9.182634
2418 3 1 4.944798 -25.559651 9.526929
2419 3 1 5.880373 -25.831732 9.301823
2420 3 1 6.829763 -26.145589 9.314142
2421 3 1 7.110087 -25.521552 10.043523
2422 3 1 7.701244 -25.310632 10.822013
2423 3 1 8.091589 -24.390864 10.781307
2424 3 1 8.186300 -23.520383 11.264312
2425 3 1 7.207241 -23.722518 11.240125
2426 3 1 7.272786 -24.292008 10.420744
2427 3 1 6.298563 -24.137616 10.256263
2428 3 1 5.810344 -24.938644 9.909860
2429 3 1 6.139907 -25.758490 10.378091
2430 3 1 6.419937 -25.278145 11.209266
2431 3 1 6.015843 -24.895959 12.040314
2432 3 1 6.167889 -25.883957 12.013080
2433 3 1 5.503678 -25.623181 11.312495
2434 3 1 5.226402 -25.074985 10.523446
2435 3 1 5.539245 -24.357909 11.146287
2436 3 1 5.022814 -23.637508 11.609235
2437 3 1 5.160398 -22.695218 11.914457
2438 3 1 4.255435 -22.563153 12.318935
2439 3 1 3.387122 -23.053506 12.393674
2440 3 1 3.246313 -24.017540 12.168258
2441 3 1 3.958132 -23.868182 11.481959
2442 3 1 3.854595 -24.855535 11.361897
2443 3 1 3.421221 -24.121916 10.838457
2444 3 1 2.860969 -23.633349 10.169561
2445 3 1 1.967985 -23.409992 9.778804
2446 3 1 2.604354 -22.893607 10.351849
2447 3 1 2.571731 -21.894193 10.341415
2448 3 1 2.864549 -20.938916 10.300138
2449 3 1 3.387851 -21.370605 9.565426
2450 3 1 3.891964 -22.215657 9.743632
2451 3 1 4.310731 -21.988649 10.622893
2452 3 1 4.340857 -21.050753 10.277286
2453 3 1 5.241216 -20.643217 10.429823
2454 3 1 5.374381 -19.679641 10.661748
2455 3 1 6.045818 -19.277468 10.039311
2456 3 1 5.594281 -18.621502 9.434477
2457 3 1 5.955012 -17.901126 8.842083
2458 3 1 6.913681 -17.617716 8.816931
2459 3 1 6.747877 -16.889362 8.152093
2460 3 1 6.508657 -16.048273 8.637214
2461 3 1 6.814431 -15.154854 8.308116
2462 3 1 7.578540 -15.695885 8.659430
2463 3 1 8.054084 -16.527699 8.373170
2464 3 1 8.803448 -17.189349 8.399100
2465 3 1 9.227442 -17.159652 7.493922
2466 3 1 8.419564 -17.429999 6.970238
2467 3 1 7.567014 -17.179585 7.428989
2468 3 1 7.823471 -18.138453 7.307328
2469 3 1 8.643133 -18.421198 7.805534
2470 3 1 9.269031 -19.008480 7.292355
2471 3 1 9.459349 -19.982998 7.411070
2472 3 1 9.538716 -20.753667 6.778796
2473 3 1 9.003534 -21.472431 6.334997
2474 3 1 10.003443 -21.481742 6.344752
2475 3 1 9.377363 -21.926760 6.985050
2476 3 1 9.745285 -21.126729 7.458952
2477 3 1 9.647278 -20.934352 8.435367
2478 3 1 9.868927 -21.812687 8.858924
2479 3 1 10.715216 -21.282158 8.907238
2480 3 1 10.149253 -21.525424 9.694961
2481 3 1 10.740903 -22.139834 10.216928
2482 3 1 11.724217 -22.152771 10.398386
2483 3 1 12.316053 -22.946975 10.260651
2484 3 1 13.267536 -23.241025 10.351280
2485 3 1 12.906324 -22.673482 9.611402
2486 3 1 12.601734 -23.619000 9.726387
2487 3 1 12.524451 -23.706389 8.733215
2488 3 1 12.067831 -23.027539 9.308246
2489 3 1 11.755107 -23.438549 8.451932
2490 3 1 12.594880 -22.928575 8.265632
2491 3 1 12.560968 -22.844769 7.269727
2492 3 1 12.957065 -23.016143 6.367653
2493 3 1 12.271626 -22.729483 5.698326
2494 3 1 12.978876 -23.416040 5.529690
2495 3 1 12.264935 -23.642454 6.192281
2496 3 1 11.803990 -24.508638 6.385294
2497 3 1 12.145786 -24.440778 5.447973
2498 3 1 12.493926 -25.370381 5.326989
2499 3 1 13.214881 -25.871665 5.805463
2500 3 1 13.375011 -26.504165 6.563290
2501 3 1 12.465760 -26.636659 6.168691
2502 3 1 13.000412 -27.080037 5.449272
2503 3 1 13.905420 -27.449328 5.660421
2504 3 1 14.260737 -26.553236 5.394396
2505 3 1 14.702810 -26.729546 4.514916
2506 3 1 13.710895 -26.691639 4.636019
2507 3 1 13.959289 -27.325040 3.903146
2508 3 1 14.680853 -28.014531 3.840322
2509 3 1 14.978717 -28.673317 4.531175
2510 3 1 14.339916 -28.026715 4.948114
2511 3 1 14.625840 -28.160330 5.897006
2512 3 1 14.837173 -28.712684 6.703382
2513 3 1 15.603492 -29.076627 7.232817
2514 3 1 16.232876 -29.743633 7.631538
2515 3 1 16.402717 -30.099326 6.712497
2516 3 1 15.632869 -29.616178 6.295482
2517 3 1 16.414046 -29.667529 5.673289
2518 3 1 16.021821 -30.552318 5.924897
2519 3 1 16.982122 -30.708827 5.693972
2520 3 1 17.482438 -31.438959 5.228578
2521 3 1 18.066019 -30.810387 5.742709
2522 3 1 18.651502 -30.009909 5.614471
2523 3 1 19.009827 -30.918905 5.401561
2524 3 1 19.111086 -30.615143 6.348913
2525 3 1 19.711661 -31.373479 6.095463
2526 3 1 20.305894 -30.569201 6.100228
2527 3 1 20.825370 -30.030547 5.436905
2528 3 1 21.354813 -30.685968 4.898284
2529 3 1 22.105179 -30.602800 4.242514
2530 3 1 21.415400 -29.911422 4.457461
2531 3 1 20.614770 -30.486778 4.290256
2532 3 1 21.065775 -30.180831 3.451810
2533 3 1 21.930621 -29.708058 3.282911
2534 3 1 21.210421 -29.117300 3.646664
2535 3 1 20.874633 -28.774176 4.523883
2536 3 1 20.470927 -28.870708 5.433665
2537 3 1 20.121170 -28.049378 4.983013
2538 3 1 21.035700 -27.644883 4.987334
2539 3 1 20.745515 -27.464258 4.047565
2540 3 1 20.239468 -26.605096 3.971691
2541 3 1 19.412353 -27.002681 3.574440
2542 3 1 18.910942 -26.243779 3.158923
2543 3 1 19.003917 -25.677495 3.977873
2544 3 1 19.231522 -26.451912 4.568190
2545 3 1 19.332606 -25.588243 5.062010
2546 3 1 20.288948 -25.535812 4.774502
2547 3 1 20.579128 -25.041889 5.594158
2548 3 1 20.883213 -24.094763 5.491769
2549 3 1 21.626117 -23.664821 4.978695
2550 3 1 22.625815 -23.679761 4.998219
2551 3 1 22.708713 -23.236330 5.890686
2552 3 1 23.558399 -23.263889 5.364119
2553 3 1 24.305108 -23.201385 4.701910
2554 3 1 24.147419 -22.424549 5.311549
2555 3 1 23.805284 -22.570523 4.383306
2556 3 1 22.867360 -22.238868 4.484813
2557 3 1 22.095976 -21.755250 4.898431
2558 3 1 22.857001 -21.170620 4.617275
2559 3 1 23.567995 -20.719926 5.157054
2560 3 1 23.964601 -19.932724 5.629301
2561 3 1 23.058075 -19.528587 5.751302
2562 3 1 22.272483 -19.046850 6.139598
2563 3 1 23.099853 -19.005618 6.699740
2564 3 1 22.854882 -18.108506 6.332074
2565 3 1 22.665688 -17.917558 7.295269
2566 3 1 22.770767 -16.993031 6.928926
2567 3 1 21.837798 -16.738887 6.674016
2568 3 1 22.458840 -15.955459 6.697429
2569 3 1 22.147082 -16.197324 5.778566
2570 3 1 21.812767 -15.513969 6.427611
2571 3 1 20.993192 -15.536757 5.855093
2572 3 1 21.032630 -14.570575 6.109918
2573 3 1 20.353211 -14.939514 5.475668
2574 3 1 20.439339 -15.180525 4.508975
2575 3 1 20.029051 -14.701386 3.733030
2576 3 1 19.583494 -14.578091 4.619753
2577 3 1 19.803703 -13.894263 5.315374
2578 3 1 18.923896 -14.323001 5.110133
2579 3 1 18.927767 -13.446892 5.592230
2580 3 1 18.853273 -12.451197 5.647399
2581 3 1 17.901274 -12.444677 5.341367
2582 3 1 17.804006 -11.483983 5.601376
2583 3 1 16.868063 -11.378185 5.937259
2584 3 1 16.468954 -10.575972 5.493225
2585 3 1 17.041080 -11.052864 4.825958
2586 3 1 16.980066 -11.909177 4.313117
2587 3 1 16.663650 -12.691178 4.850104
2588 3 1 17.173821 -13.536123 5.010708
2589 3 1 18.152208 -13.425871 5.185644
2590 3 1 18.201157 -13.162058 4.222313
2591 3 1 18.916137 -13.748012 3.840921
2592 3 1 18.585993 -14.588024 3.410358
2593 3 1 19.115701 -14.370609 2.590517
2594 3 1 19.747973 -15.144527 2.626321
2595 3 1 19.230941 -15.992255 2.744790
2596 3 1 19.499625 -15.999342 1.781587
2597 3 1 19.976708 -15.248747 1.324425
2598 3 1 19.619730 -15.527896 0.432997
2599 3 1 19.592067 -14.662822 0.933879
2600 3 1 18.614884 -14.839545 0.816057
2601 3 1 18.224316 -15.714393 1.102583
2602 3 1 18.737807 -15.014748 1.599397
2603 3 1 19.127824 -14.100818 1.711729
2604 3 1 19.802620 -13.503323 2.144915
2605 3 1 20.258969 -14.375023 2.323477
2606 3 1 21.251276 -14.253057 2.302213
2607 3 1 22.208754 -14.526260 2.394925
2608 3 1 23.150276 -14.244238 2.579317
2609 3 1 22.558419 -14.086525 1.788854
2610 3 1 23.273393 -13.406075 1.628233
2611 3 1 23.322210 -13.086311 0.681994
2612 3 1 23.141160 -12.113371 0.538440
2613 3 1 24.031462 -11.698914 0.349795
2614 3 1 23.691191 -10.768749 0.211923
2615 3 1 22.724673 -10.518284 0.156147
2616 3 1 23.277222 -10.879522 0.907277
2617 3 1 23.990934 -11.538454 1.144814
2618 3 1 24.275564 -10.591810 0.993648
2619 3 1 25.208964 -10.746783 1.317296
2620 3 1 25.085646 -11.034026 0.367410
2621 3 1 25.925512 -11.265641 0.858307
2622 3 1 25.933046 -11.818549 0.025099
2623 3 1 25.908268 -12.701715 -0.443307
2624 3 1 26.124236 -13.677949 -0.461320
2625 3 1 25.398716 -13.980511 -1.079443
2626 3 1 26.391445 -14.042405 -1.182676
2627 3 1 26.744322 -13.368822 -1.832110
2628 3 1 26.981374 -14.093140 -2.479543
2629 3 1 26.574617 -14.740651 -1.835122
2630 3 1 26.715258 -15.603679 -2.320306
2631 3 1 27.520815 -16.189135 -2.411512
2632 3 1 28.498200 -16.128014 -2.209072
2633 3 1 28.565542 -16.240083 -1.217656
2634 3 1 28.084191 -15.364782 -1.264000
2635 3 1 27.163899 -15.426963 -0.877740
2636 3 1 27.396392 -15.164492 0.058772
2637 3 1 27.081658 -14.637772 0.848398
2638 3 1 28.058371 -14.444727 0.942020
2639 3 1 28.513935 -13.595587 0.674770
2640 3 1 28.684536 -12.918942 1.391043
2641 3 1 28.875497 -13.675624 2.016317
2642 3 1 28.653954 -14.519380 2.505187
2643 3 1 28.122251 -15.356423 2.376151
2644 3 1 27.151028 -15.391991 2.611655
2645 3 1 26.547743 -15.987576 2.081254
2646 3 1 26.947899 -15.140428 1.731661
2647 3 1 26.302087 -14.669597 1.130624
2648 3 1 25.463866 -14.138288 1.007753
2649 3 1 25.003259 -13.733918 0.217610
2650 3 1 24.802133 -12.941602 -0.358397
2651 3 1 24.362319 -12.576875 0.462296
2652 3 1 24.281758 -12.319624 1.425277
2653 3 1 23.689750 -12.693804 2.139081
2654 3 1 23.007244 -13.058978 2.772195
2655 3 1 23.801430 -13.597753 2.491144
2656 3 1 23.996771 -14.307441 3.168037
2657 3 1 23.137124 -14.491960 3.644440
2658 3 1 22.856888 -13.536381 3.553139
2659 3 1 22.780287 -12.604025 3.906473
2660 3 1 23.614219 -12.627637 4.457835
2661 3 1 23.205374 -13.136432 5.215445
2662 3 1 23.139687 -12.896489 6.184007
2663 3 1 23.825939 -13.216161 6.837357
2664 3 1 24.185073 -13.000448 7.745372
2665 3 1 24.522822 -13.787311 8.261871
2666 3 1 23.844351 -14.024299 8.957223
2667 3 1 23.649279 -14.557126 9.780656
2668 3 1 22.778744 -14.087480 9.927631
2669 3 1 22.108039 -13.346025 9.907644
2670 3 1 21.445548 -13.553478 9.187874
2671 3 1 20.501438 -13.785880 8.954107
2672 3 1 20.123270 -12.968976 8.518611
2673 3 1 19.329401 -13.242364 7.975442
2674 3 1 20.118504 -13.415483 7.386082
2675 3 1 20.654568 -12.572209 7.347055
2676 3 1 20.038556 -11.953395 7.834496
2677 3 1 19.733935 -12.236024 8.744071
2678 3 1 19.047324 -11.573193 8.445373
2679 3 1 18.129933 -11.356150 8.111775
2680 3 1 17.768781 -10.426144 8.180033
2681 3 1 16.885639 -10.778880 7.870781
2682 3 1 16.859750 -10.162524 8.657822
2683 3 1 16.255465 -9.511452 9.117111
2684 3 1 17.039630 -8.890995 9.106286
2685 3 1 17.404607 -8.216026 8.465030
2686 3 1 17.391380 -8.005330 9.442493
2687 3 1 18.047155 -8.674015 9.792949
2688 3 1 17.917287 -9.658572 9.910343
2689 3 1 17.565509 -8.947532 10.519172
2690 3 1 17.944259 -9.813983 10.844457
2691 3 1 18.495215 -9.897182 11.674834
2692 3 1 18.496528 -9.739480 12.662320
2693 3 1 19.364471 -10.213391 12.810919
2694 3 1 19.950738 -9.521635 13.232541
2695 3 1 20.238537 -9.226675 14.143678
2696 3 1 19.975767 -8.536049 14.817463
2697 3 1 19.977281 -9.499816 15.084204
2698 3 1 19.261591 -8.924915 14.687622
2699 3 1 19.432221 -9.127559 15.651894
2700 3 1 18.921128 -8.286360 15.828441
2701 3 1 18.813357 -7.857904 16.725553
2702 3 1 17.968897 -8.354417 16.926459
2703 3 1 18.579736 -8.016950 17.642694
2704 3 1 18.344493 -7.058468 17.803857
2705 3 1 19.323039 -7.262700 17.831001
2706 3 1 19.602402 -7.508907 18.759084
2707 3 1 19.143393 -7.733592 19.618634
2708 3 1 19.086635 -7.749161 20.616901
2709 3 1 18.749850 -8.666696 20.405465
2710 3 1 18.216815 -7.845511 20.609254
2711 3 1 17.914946 -7.160780 21.272592
2712 3 1 17.097636 -6.889060 20.764485
2713 3 1 17.620160 -6.203446 21.271340
2714 3 1 17.823201 -6.268100 22.248374
2715 3 1 17.635669 -5.294104 22.121237
2716 3 1 16.898548 -5.553862 21.497396
2717 3 1 16.574607 -5.072945 20.682668
2718 3 1 16.363990 -4.133202 20.413369
2719 3 1 16.287787 -3.886185 21.379379
2720 3 1 16.396516 -4.760915 21.851634
2721 3 1 16.076813 -3.915793 22.280070
2722 3 1 16.563015 -4.177465 23.113818
2723 3 1 17.131901 -4.325386 22.304813
2724 3 1 17.897596 -3.880832 21.839967
2725 3 1 18.124875 -3.366084 22.666634
2726 3 1 18.996279 -3.535592 23.126983
2727 3 1 19.900478 -3.441690 23.543643
2728 3 1 20.753024 -3.053079 23.194147
2729 3 1 19.889922 -2.615112 23.445620
2730 3 1 19.923019 -1.677088 23.100633
2731 3 1 18.940800 -1.596829 22.930916
2732 3 1 18.398248 -2.258951 23.447860
2733 3 1 18.326827 -2.290800 24.444798
2734 3 1 18.573407 -3.257525 24.512922
2735 3 1 17.933527 -3.012889 23.784426
2736 3 1 17.438690 -2.589158 24.543101
2737 3 1 17.192608 -2.024226 23.755513
2738 3 1 17.844102 -1.721615 23.059824
2739 3 1 17.113902 -1.104749 22.766085
2740 3 1 18.001932 -0.704044 22.991556
2741 3 1 18.498772 0.163716 23.003517
2742 3 1 17.542686 0.322746 23.249705
2743 3 1 16.979683 0.212538 22.430631
2744 3 1 16.078992 0.507566 22.749557
2745 3 1 16.211486 -0.326844 23.284539
2746 3 1 16.262966 -1.201835 23.765933
2747 3 1 16.618530 -0.463812 24.339427
2748 3 1 17.207095 0.337094 24.449616
2749 3 1 16.299705 0.708254 24.252424
2750 3 1 15.414949 0.255381 24.142368
2751 3 1 14.912397 0.932134 23.604366
2752 3 1 15.413949 1.714300 23.234688
2753 3 1 16.305238 1.546406 23.655895
2754 3 1 16.093797 2.325603 23.065858
2755 3 1 15.363893 2.085672 22.425801
2756 3 1 15.351197 2.861069 21.794455
2757 3 1 16.271989 3.228659 21.663996
2758 3 1 17.126759 2.906378 21.257175
2759 3 1 17.244100 3.545813 22.017013
2760 3 1 16.857348 4.349729 21.565192
2761 3 1 17.704012 4.877240 21.495242
2762 3 1 17.852550 4.324497 20.675235
2763 3 1 17.983788 3.351149 20.487167
2764 3 1 17.956860 3.280454 21.484301
2765 3 1 18.281241 3.985441 22.114992
2766 3 1 18.737960 3.817438 21.241389
2767 3 1 19.179048 4.681810 21.482846
2768 3 1 18.789229 5.116922 20.671231
2769 3 1 19.135755 5.241367 19.741482
2770 3 1 18.974086 5.959606 20.418236
2771 3 1 19.259873 6.241390 19.502308
2772 3 1 18.826031 7.142379 19.502802
2773 3 1 19.160097 7.630927 18.696749
2774 3 1 19.363791 8.585069 18.477381
2775 3 1 20.359419 8.493406 18.459386
2776 3 1 20.653312 9.400339 18.157562
2777 3 1 21.589069 9.684089 17.948170
2778 3 1 21.789089 10.374301 17.252758
2779 3 1 21.259334 11.055516 17.758035
2780 3 1 21.073259 11.823261 17.144893
2781 3 1 20.859016 12.083481 16.203413
2782 3 1 21.266862 12.928218 16.549940
2783 3 1 21.380875 13.829286 16.131516
2784 3 1 21.719413 14.385896 16.890184
2785 3 1 20.816315 14.024389 17.121974
2786 3 1 20.826053 15.023937 17.093540
2787 3 1 21.292627 15.819013 17.481049
2788 3 1 20.813729 15.693757 18.349937
2789 3 1 21.309432 14.904566 18.712505
2790 3 1 21.123546 15.283429 19.619097
2791 3 1 20.961760 15.493566 20.583290
2792 3 1 21.760635 14.953232 20.847556
2793 3 1 21.034436 14.372581 21.215630
2794 3 1 20.156951 13.941928 21.426717
2795 3 1 20.576452 13.201074 20.902166
2796 3 1 20.540134 12.338186 21.406255
2797 3 1 20.910848 11.409700 21.384209
2798 3 1 20.016083 11.734606 21.077889
2799 3 1 19.404592 12.147751 20.403063
2800 3 1 19.640310 12.840466 19.721461
2801 3 1 18.847151 12.498964 19.217203
2802 3 1 19.216203 12.605422 18.293912
2803 3 1 19.552453 13.257750 17.614644
2804 3 1 18.824557 13.429335 16.950772
2805 3 1 18.801671 13.731302 17.903816
2806 3 1 18.008575 13.567659 17.317114
2807 3 1 17.921503 12.969266 16.520657
2808 3 1 17.384638 13.335926 15.760831
2809 3 1 17.159853 13.166097 16.720325
2810 3 1 17.167989 12.350183 16.142209
2811 3 1 16.445303 11.935388 15.589335
2812 3 1 15.911104 12.408527 14.888785
2813 3 1 16.827332 12.766716 14.709266
2814 3 1 16.111087 12.664230 14.018984
2815 3 1 16.315794 12.724297 13.042005
2816 3 1 15.450398 13.117716 13.352346
2817 3 1 15.320403 12.162803 13.619261
2818 3 1 16.130825 11.785589 14.067509
2819 3 1 16.867805 11.151809 14.302423
2820 3 1 17.418207 10.531350 14.861071
2821 3 1 17.912553 10.177666 14.067012
2822 3 1 18.795080 9.771964 14.304819
2823 3 1 19.594521 9.616245 14.885030
2824 3 1 20.242093 9.884169 14.171681
2825 3 1 19.560637 10.529415 14.517045
2826 3 1 19.503755 10.030596 13.652207
2827 3 1 19.228926 9.197970 13.171371
2828 3 1 18.586792 9.805594 12.703977
2829 3 1 18.235330 9.754664 11.769161
2830 3 1 18.321682 8.760887 11.698806
2831 3 1 18.312877 8.530898 12.671959
2832 3 1 17.693968 8.702983 13.438339
2833 3 1 17.766191 9.678093 13.228710
2834 3 1 17.506487 9.408632 14.156042
2835 3 1 16.708507 8.987189 13.725214
2836 3 1 16.706485 9.268868 14.684720
2837 3 1 15.935824 9.439082 14.070629
2838 3 1 16.038171 10.378795 13.744339
2839 3 1 16.746530 10.527880 13.054411
2840 3 1 16.152988 10.949464 12.368863
2841 3 1 15.940586 10.299088 11.639551
2842 3 1 15.375546 11.073613 11.923875
2843 3 1 15.502204 11.904307 12.466004
2844 3 1 14.814597 12.525162 12.842482
2845 3 1 14.063519 13.013199 12.397845
2846 3 1 14.723147 12.614502 11.760718
2847 3 1 13.801336 12.979175 11.629273
2848 3 1 14.272541 13.415519 10.862742
2849 3 1 14.025025 12.931117 10.023641
2850 3 1 13.648780 12.424867 9.247657
2851 3 1 14.353279 13.099507 9.027334
2852 3 1 14.664118 14.049282 8.991196
2853 3 1 13.757916 14.469683 8.945800
2854 3 1 14.461300 14.508483 8.236049
2855 3 1 13.974453 14.316185 7.383991
2856 3 1 13.782712 13.352428 7.569484
2857 3 1 14.188173 13.630223 6.698605
2858 3 1 13.894994 13.706634 5.745606
2859 3 1 13.916576 14.388693 6.476584
2860 3 1 13.380656 14.885430 7.159256
2861 3 1 13.543597 15.509713 7.923273
2862 3 1 13.814751 16.443275 7.688887
2863 3 1 12.940302 16.153545 8.077983
2864 3 1 12.798732 16.844141 7.368734
2865 3 1 11.875689 17.228839 7.369289
2866 3 1 12.232988 16.366130 7.011419
2867 3 1 13.098284 15.873187 6.920479
2868 3 1 13.546693 15.150345 6.394714
2869 3 1 12.566143 15.051231 6.225308
2870 3 1 13.235731 14.623550 5.618068
2871 3 1 12.591004 14.902184 4.906246
2872 3 1 11.750190 15.429777 4.785089
2873 3 1 11.454202 14.524146 4.481407
2874 3 1 11.528648 14.120382 5.393237
2875 3 1 11.370444 14.356327 6.352039
2876 3 1 12.179050 14.488880 6.925263
2877 3 1 11.995658 15.449425 6.716170
2878 3 1 11.477153 15.832867 5.951889
2879 3 1 10.516085 16.103537 6.007445
2880 3 1 10.068175 15.520113 5.329954
2881 3 1 9.827785 16.453164 5.062315
2882 3 1 9.215107 16.516134 5.850135
2883 3 1 8.321250 16.118343 6.056974
2884 3 1 7.639508 16.554412 5.469545
2885 3 1 7.572375 15.623052 5.111688
2886 3 1 7.633647 15.539993 6.106347
2887 3 1 6.669669 15.567220 6.370932
2888 3 1 6.881115 14.812365 5.750057
2889 3 1 7.616943 14.328786 5.276024
2890 3 1 7.827582 13.842672 4.427894
2891 3 1 7.954816 13.119557 3.748986
2892 3 1 6.989990 13.313281 3.926702
2893 3 1 6.991199 12.542225 3.289937
2894 3 1 6.402621 12.663983 2.490718
2895 3 1 5.928639 12.318162 1.680934
2896 3 1 5.073188 12.398216 1.169275
2897 3 1 5.076690 12.957722 0.340456
2898 3 1 5.703005 13.658911 -0.000224
2899 3 1 6.423586 13.505823 0.676034
2900 3 1 7.188482 13.507785 1.320186
2901 3 1 7.124700 14.453671 1.638353
2902 3 1 8.007546 14.107715 1.320709
2903 3 1 8.991836 14.165666 1.153932
2904 3 1 9.789728 14.290742 0.564251
2905 3 1 9.981747 14.090732 -0.396543
2906 3 1 10.486974 13.419192 -0.938558
2907 3 1 11.122921 13.233957 -1.687731
2908 3 1 10.601109 13.875435 -2.250064
2909 3 1 10.962920 13.844572 -3.181804
2910 3 1 11.117988 14.724826 -2.733355
2911 3 1 10.519811 15.513623 -2.591988
2912 3 1 9.814673 16.140592 -2.923184
2913 3 1 9.474385 16.483852 -2.047755
2914 3 1 9.589610 17.345175 -2.542573
2915 3 1 9.370255 17.210950 -1.576205
2916 3 1 10.069240 16.661082 -1.118968
2917 3 1 10.011148 15.711696 -0.810275
2918 3 1 9.370595 14.987947 -0.553605
2919 3 1 9.855802 14.735606 -1.390802
2920 3 1 9.847609 13.783586 -1.696728
2921 3 1 9.438175 13.643703 -2.598280
2922 3 1 9.015237 13.918913 -3.461635
2923 3 1 9.437799 13.995183 -4.364754
2924 3 1 8.718001 13.366572 -4.659270
2925 3 1 8.163289 13.910308 -5.289068
2926 3 1 8.622240 13.117792 -5.690668
2927 3 1 9.440472 12.692383 -6.077351
2928 3 1 8.945453 11.913751 -6.462952
2929 3 1 9.617229 12.377943 -7.040225
2930 3 1 10.113962 12.609792 -7.876587
2931 3 1 10.992943 12.551839 -8.349909
2932 3 1 10.589908 12.736250 -9.246321
2933 3 1 10.211784 13.321224 -8.528806
2934 3 1 9.710346 14.109597 -8.885217
2935 3 1 9.704548 13.923447 -7.902713
2936 3 1 10.179364 14.726136 -8.263601
2937 3 1 9.955861 15.676807 -8.478706
2938 3 1 10.610571 16.386344 -8.739304
2939 3 1 11.551948 16.389598 -9.076644
2940 3 1 10.928646 16.344643 -9.857332
2941 3 1 10.217708 16.851846 -10.344478
2942 3 1 9.366817 16.994393 -10.850111
2943 3 1 8.873398 16.386787 -11.472488
2944 3 1 9.721491 15.857362 -11.451299
2945 3 1 10.384479 15.799251 -10.704928
2946 3 1 10.668041 14.896502 -11.028405
2947 3 1 11.370557 15.362061 -10.490143
2948 3 1 11.593892 14.387413 -10.476626
2949 3 1 11.884498 14.545009 -9.532851
2950 3 1 11.633388 15.361602 -9.013121
2951 3 1 12.436417 14.926393 -8.606014
2952 3 1 12.974327 15.283961 -7.842602
2953 3 1 12.747148 16.227346 -8.084296
2954 3 1 13.229634 16.743752 -8.791779
2955 3 1 13.225516 16.764394 -9.791557
2956 3 1 13.632709 16.522115 -10.672179
2957 3 1 13.116015 17.289609 -11.051626
2958 3 1 13.380858 17.575763 -11.972481
2959 3 1 13.724585 16.771160 -12.456697
2960 3 1 13.078411 16.338457 -13.085368
2961 3 1 12.750993 15.532144 -13.577971
2962 3 1 13.138038 16.220536 -14.191414
2963 3 1 12.170147 16.419069 -14.037235
2964 3 1 11.754527 16.348250 -14.944012
2965 3 1 12.348481 15.569548 -14.741920
2966 3 1 11.415052 15.287402 -14.963513
2967 3 1 12.102515 14.663233 -14.592289
2968 3 1 13.026670 14.919722 -14.309180
2969 3 1 13.028816 14.700698 -15.284897
2970 3 1 13.650274 13.990596 -14.953922
2971 3 1 14.400001 14.051116 -14.294948
2972 3 1 14.020084 14.321125 -13.410212
2973 3 1 14.956827 14.193481 -13.736127
2974 3 1 15.206439 15.002551 -13.204056
2975 3 1 15.470834 14.700604 -14.119984
2976 3 1 16.037038 14.569899 -13.306147
2977 3 1 15.594152 13.936361 -12.671733
2978 3 1 15.665391 12.939011 -12.656984
2979 3 1 15.070254 12.251780 -13.073549
2980 3 1 15.841876 11.678477 -12.798009
2981 3 1 16.300131 11.108462 -13.479981
2982 3 1 15.750228 10.748974 -12.726074
2983 3 1 14.955524 11.029269 -12.187669
2984 3 1 15.413394 10.140734 -12.158322
2985 3 1 14.960304 9.535116 -12.812491
2986 3 1 14.653913 9.362743 -11.876322
2987 3 1 15.221860 8.555172 -12.035273
2988 3 1 15.470832 8.989364 -11.169542
2989 3 1 15.569305 9.848783 -10.667842
2990 3 1 16.357392 9.235342 -10.616757
2991 3 1 17.117374 8.718092 -11.010305
2992 3 1 16.920503 7.973682 -11.648344
2993 3 1 16.360866 8.735323 -11.321679
2994 3 1 16.668582 9.686577 -11.342345
2995 3 1 16.980775 10.636359 -11.321117
2996 3 1 16.243873 11.304800 -11.421920
2997 3 1 16.475003 11.687056 -10.527237
2998 3 1 16.219538 10.812629 -10.114786
2999 3 1 15.264768 11.108365 -10.145684
3000 3 1 14.426104 11.644584 -10.050231
3001 4 1 51.184404 -48.551042 77.318817
3002 4 1 50.491948 -48.419374 78.028160
3003 4 1 49.532034 -48.334741 77.760945
3004 4 1 49.394834 -47.476137 77.267008
3005 4 1 48.735857 -47.089744 76.621678
3006 4 1 47.882270 -47.425078 77.020352
3007 4 1 47.413510 -46.933741 77.754418
3008 4 1 46.966290 -47.763319 77.420061
3009 4 1 46.610343 -47.865651 78.348948
3010 4 1 46.517314 -48.554113 79.068229
3011 4 1 46.193748 -49.035418 79.882877
3012 4 1 45.448523 -48.521495 79.457996
3013 4 1 45.794872 -48.992315 78.646595
3014 4 1 45.313910 -49.431916 77.888027
3015 4 1 45.265823 -48.449717 78.069609
3016 4 1 44.394675 -48.788865 78.424685
3017 4 1 45.104357 -49.424168 78.729217
3018 4 1 44.944626 -49.925660 79.579506
3019 4 1 45.201569 -50.566902 78.856465
3020 4 1 46.115686 -50.918466 78.654491
3021 4 1 47.098153 -51.001299 78.821518
3022 4 1 47.915583 -50.445688 78.669518
3023 4 1 48.594927 -50.755995 78.004535
3024 4 1 49.473201 -50.998406 77.592381
3025 4 1 50.161102 -50.357409 77.932844
3026 4 1 50.355232 -51.002400 78.671965
3027 4 1 50.684126 -51.896411 78.367706
3028 4 1 50.510757 -52.169552 77.421484
3029 4 1 49.525850 -52.233569 77.582293
3030 4 1 49.321132 -51.751596 76.730359
3031 4 1 49.002280 -50.878774 76.360878
3032 4 1 48.162621 -50.345795 76.465311
3033 4 1 48.047305 -49.660752 75.745993
3034 4 1 47.402492 -49.978945 76.440952
3035 4 1 46.981048 -49.987529 75.534138
3036 4 1 46.954163 -50.492854 74.671628
3037 4 1 46.834269 -51.340162 74.154235
3038 4 1 46.047691 -50.916067 73.705417
3039 4 1 45.508838 -51.077693 72.878667
3040 4 1 44.694555 -51.575982 73.176413
3041 4 1 43.915467 -51.811896 73.757245
3042 4 1 44.170887 -52.533685 73.113987
3043 4 1 44.299481 -53.343347 72.541353
3044 4 1 44.424417 -54.262820 72.914129
3045 4 1 44.017026 -53.984019 73.783785
3046 4 1 43.167836 -54.475726 73.976404
3047 4 1 42.971888 -54.351227 74.949083
3048 4 1 42.380920 -53.708803 74.461181
3049 4 1 42.275304 -53.355218 73.531761
3050 4 1 41.569652 -52.685703 73.763717
3051 4 1 40.936974 -53.432284 73.969471
3052 4 1 40.865298 -54.225102 73.364242
3053 4 1 41.452027 -54.904096 72.922976
3054 4 1 41.754465 -55.626057 72.300639
3055 4 1 40.767298 -55.568997 72.151495
3056 4 1 40.139249 -54.816125 72.348314
3057 4 1 39.566257 -55.597842 72.102146
3058 4 1 38.862508 -55.439001 72.794610
3059 4 1 38.125752 -55.563387 72.129991
3060 4 1 38.028218 -54.690725 72.608477
3061 4 1 38.386267 -53.759219 72.672488
3062 4 1 38.872346 -53.137040 72.058794
3063 4 1 39.041195 -53.860102 71.388965
3064 4 1 38.993190 -54.148994 70.432808
3065 4 1 38.949588 -55.147693 70.406370
3066 4 1 38.040311 -55.500633 70.185803
3067 4 1 37.291434 -55.995047 69.744513
3068 4 1 36.346438 -55.851239 69.450742
3069 4 1 35.907792 -55.987975 68.562545
3070 4 1 34.996243 -55.655806 68.320178
3071 4 1 34.551779 -55.513804 67.435708
3072 4 1 35.503147 -55.322866 67.677453
3073 4 1 36.166933 -54.919148 68.307056
3074 4 1 36.490984 -54.097296 67.838495
3075 4 1 36.557048 -53.412709 67.112564
3076 4 1 36.943942 -53.536308 66.198760
3077 4 1 36.149166 -53.327936 65.628748
3078 4 1 37.020819 -53.260891 65.143232
3079 4 1 37.819091 -52.706526 64.907771
3080 4 1 37.461589 -52.194747 64.126570
3081 4 1 37.756059 -52.472883 63.212278
3082 4 1 38.060060 -52.873867 64.076451
3083 4 1 38.713443 -52.196412 64.414305
3084 4 1 39.181051 -51.654899 63.715658
3085 4 1 38.477609 -51.158521 64.224362
3086 4 1 38.327718 -50.247080 63.841207
3087 4 1 39.045323 -50.754129 63.363771
3088 4 1 39.812597 -50.194526 63.050508
3089 4 1 40.624432 -49.620113 63.155268
3090 4 1 41.556354 -49.549626 62.799526
3091 4 1 41.180328 -49.042208 63.574853
3092 4 1 41.978334 -48.513555 63.285519
3093 4 1 41.998004 -47.522392 63.154341
3094 4 1 42.512647 -46.818305 63.643631
3095 4 1 43.366723 -46.664484 64.140514
3096 4 1 42.528031 -46.312924 64.556447
3097 4 1 42.417390 -45.696032 65.335679
3098 4 1 42.826894 -45.198247 64.571142
3099 4 1 42.180940 -44.520027 64.921514
3100 4 1 41.267942 -44.506164 65.329241
3101 4 1 40.697853 -43.685832 65.283928
3102 4 1 41.025846 -42.750093 65.154262
3103 4 1 41.182590 -43.236217 64.294544
3104 4 1 41.700578 -43.904127 63.760144
3105 4 1 41.670325 -43.016818 63.299962
3106 4 1 41.414108 -43.143684 62.341705
3107 4 1 41.962129 -42.309236 62.399746
3108 4 1 41.616780 -41.431125 62.730888
3109 4 1 40.687777 -41.592760 63.063796
3110 4 1 40.994959 -42.485523 62.734230
3111 4 1 40.895175 -43.113880 63.505728
3112 4 1 39.906085 -43.033887 63.629428
3113 4 1 40.437867 -43.616781 63.015065
3114 4 1 40.648982 -44.347160 62.365468
3115 4 1 40.858118 -45.218093 62.810145
3116 4 1 40.565346 -46.087288 63.208623
3117 4 1 39.750165 -46.553343 62.864716
3118 4 1 38.850966 -46.329506 63.240668
3119 4 1 38.962699 -46.720339 64.154323
3120 4 1 39.225770 -46.198767 64.965961
3121 4 1 39.243739 -46.951828 65.623666
3122 4 1 40.203717 -46.996337 65.347151
3123 4 1 40.389027 -47.423388 66.232186
3124 4 1 39.487968 -47.417895 66.665847
3125 4 1 38.976920 -46.631969 66.317781
3126 4 1 38.615578 -46.015604 65.618118
3127 4 1 39.286901 -45.324096 65.351393
3128 4 1 39.834364 -46.115014 65.624769
3129 4 1 40.370318 -45.510105 66.213700
3130 4 1 40.878030 -46.028931 65.525915
3131 4 1 41.812831 -46.183791 65.845546
3132 4 1 42.686743 -46.074057 66.319083
3133 4 1 42.393027 -46.786741 66.956118
3134 4 1 41.583109 -47.097072 66.458397
3135 4 1 41.266355 -47.392324 67.359781
3136 4 1 42.039403 -48.024348 67.414015
3137 4 1 41.572272 -48.254075 68.267838
3138 4 1 41.383092 -49.233175 68.342498
3139 4 1 42.211847 -48.813142 68.712276
3140 4 1 43.108574 -48.382678 68.815150
3141 4 1 43.952800 -47.905214 68.571617
3142 4 1 44.299974 -48.486148 69.307814
3143 4 1 44.872565 -48.405299 70.123659
3144 4 1 44.508212 -49.298599 69.860482
3145 4 1 44.446434 -50.088827 70.470173
3146 4 1 44.085512 -50.863068 70.990062
3147 4 1 43.158192 -50.923773 71.359377
3148 4 1 42.564374 -51.035366 70.562554
3149 4 1 42.211883 -50.931987 69.632466
3150 4 1 42.224915 -51.533477 68.833693
3151 4 1 42.796991 -50.716419 68.905419
3152 4 1 42.774569 -51.251751 68.061076
3153 4 1 42.572917 -52.204290 67.833027
3154 4 1 41.666495 -52.308873 67.423806
3155 4 1 41.199405 -53.026582 67.940257
3156 4 1 40.341765 -53.099049 67.431138
3157 4 1 39.421564 -52.707655 67.437556
3158 4 1 38.702764 -52.087940 67.122470
3159 4 1 38.872764 -52.140413 66.138424
3160 4 1 38.575052 -53.094641 66.166968
3161 4 1 38.025747 -52.389842 66.615880
3162 4 1 37.617805 -51.571263 66.211515
3163 4 1 36.659177 -51.532545 65.929499
3164 4 1 35.680614 -51.516481 65.724178
3165 4 1 35.180728 -51.796780 66.543657
3166 4 1 34.599937 -51.197194 65.993041
3167 4 1 33.763806 -50.693554 65.775713
3168 4 1 32.790614 -50.498493 65.653857
3169 4 1 32.394387 -51.346593 66.005611
3170 4 1 33.042520 -52.001716 66.393861
3171 4 1 33.783825 -51.370164 66.621038
3172 4 1 34.327651 -50.538695 66.507398
3173 4 1 34.834289 -49.677263 66.542776
3174 4 1 35.057061 -49.943670 67.480539
3175 4 1 34.801315 -50.610859 68.180148
3176 4 1 34.373101 -49.747365 68.446624
3177 4 1 34.577738 -48.781667 68.286775
3178 4 1 35.124739 -48.034689 67.908869
3179 4 1 36.001542 -47.853769 68.354384
3180 4 1 35.219757 -48.414446 68.627244
3181 4 1 34.391269 -48.005102 69.009405
3182 4 1 34.193086 -48.031738 69.989208
3183 4 1 33.609295 -47.244824 69.789324
3184 4 1 33.226003 -48.092609 70.155859
3185 4 1 32.227521 -48.132108 70.117482
3186 4 1 31.736631 -48.526637 69.340711
3187 4 1 32.646923 -48.867276 69.575941
3188 4 1 32.712757 -48.701024 70.559824
3189 4 1 33.530968 -49.253842 70.401954
3190 4 1 34.406333 -49.734764 70.451443
3191 4 1 34.270440 -50.670771 70.776136
3192 4 1 34.360483 -51.662371 70.683291
3193 4 1 34.038139 -52.606780 70.747999
3194 4 1 34.795444 -52.405280 71.369196
3195 4 1 34.869939 -53.176076 70.736485
3196 4 1 35.195595 -52.318155 70.339093
3197 4 1 35.719657 -53.163944 70.439095
3198 4 1 35.746794 -52.597445 71.262710
3199 4 1 35.294603 -52.624067 72.154234
3200 4 1 35.360208 -53.620497 72.101098
3201 4 1 34.376077 -53.448135 72.143258
3202 4 1 33.459555 -53.841998 72.212962
3203 4 1 32.509394 -53.555855 72.089200
3204 4 1 32.840497 -54.235833 71.434983
3205 4 1 33.771069 -53.899907 71.289416
3206 4 1 33.604957 -53.113334 71.884152
3207 4 1 33.631312 -52.232613 71.411251
3208 4 1 34.228711 -51.616425 71.924502
3209 4 1 33.463665 -51.129184 72.345573
3210 4 1 33.786363 -51.152260 71.399352
3211 4 1 33.018268 -51.328341 70.783701
3212 4 1 32.271830 -51.406896 70.122899
3213 4 1 32.143308 -51.412169 69.131207
3214 4 1 31.651292 -51.344689 68.263239
3215 4 1 30.759975 -50.895470 68.324516
3216 4 1 29.959008 -50.422047 68.691018
3217 4 1 29.644766 -51.160707 68.094667
3218 4 1 30.140461 -50.550660 67.476502
3219 4 1 29.686103 -51.005099 66.710314
3220 4 1 28.822766 -50.573948 66.972532
3221 4 1 28.883149 -50.070859 66.110409
3222 4 1 27.937715 -49.748718 66.159203
3223 4 1 27.699780 -49.339859 65.278169
3224 4 1 27.281943 -48.493750 65.609093
3225 4 1 28.108104 -48.803717 66.079601
3226 4 1 28.681996 -48.199867 66.632786
3227 4 1 27.737662 -48.108397 66.948801
3228 4 1 26.799118 -48.026330 67.284063
3229 4 1 27.385690 -48.277894 68.053900
3230 4 1 27.469631 -48.434391 69.038005
3231 4 1 26.992375 -49.164367 68.548759
3232 4 1 26.514301 -48.360521 68.902705
3233 4 1 25.576854 -48.637015 69.114232
3234 4 1 25.824802 -49.163810 68.301208
3235 4 1 26.039496 -48.220860 68.046745
3236 4 1 26.350339 -47.404447 67.560076
3237 4 1 26.050351 -46.619485 68.102148
3238 4 1 25.130854 -46.289422 68.315654
3239 4 1 24.427568 -46.547119 68.978210
3240 4 1 24.733073 -47.337098 68.446608
3241 4 1 25.230174 -47.538808 69.290529
3242 4 1 25.717915 -47.651459 70.156219
3243 4 1 25.268542 -47.198643 70.926298
3244 4 1 24.557529 -47.512718 70.297159
3245 4 1 24.205169 -46.693070 69.845474
3246 4 1 24.418898 -45.743180 69.617374
3247 4 1 24.077785 -45.224520 70.401359
3248 4 1 23.771864 -45.595796 71.278038
3249 4 1 23.868665 -44.636973 71.011042
3250 4 1 24.867145 -44.648719 70.957209
3251 4 1 25.277037 -45.389044 70.424379
3252 4 1 25.727915 -45.911756 71.147899
3253 4 1 25.877237 -46.609182 71.848827
3254 4 1 26.103069 -47.477727 71.407658
3255 4 1 25.927787 -48.349449 71.865234
3256 4 1 25.433615 -49.188933 72.091202
3257 4 1 26.220566 -49.747853 71.829828
3258 4 1 25.587654 -50.413377 72.225429
3259 4 1 25.440561 -51.369277 72.479628
3260 4 1 25.922737 -51.338073 71.604109
3261 4 1 26.840304 -51.096356 71.288445
3262 4 1 26.652775 -51.667618 70.489388
3263 4 1 27.099330 -50.798007 70.278758
3264 4 1 27.905768 -50.222261 70.143950
3265 4 1 28.581138 -49.687314 69.636302
3266 4 1 29.376448 -49.394591 70.167146
3267 4 1 29.812919 -48.910892 69.408510
3268 4 1 30.604783 -48.309401 69.302868
3269 4 1 30.381960 -48.109430 68.348739
3270 4 1 29.769451 -47.977915 67.569293
3271 4 1 29.565737 -47.384720 66.790434
3272 4 1 28.924500 -47.135809 67.516285
3273 4 1 28.688557 -46.376339 68.122532
3274 4 1 28.619205 -46.297146 69.116976
3275 4 1 29.114385 -46.580556 69.938241
3276 4 1 28.653100 -46.222370 70.749979
3277 4 1 29.626434 -46.248730 70.977856
3278 4 1 29.887856 -46.997289 70.368498
3279 4 1 29.587129 -47.150069 71.309891
3280 4 1 30.581565 -47.054312 71.353790
3281 4 1 30.146102 -47.954331 71.335408
3282 4 1 30.185596 -48.899651 71.659153
3283 4 1 30.597887 -48.808086 72.565592
3284 4 1 30.283832 -48.875616 73.512592
3285 4 1 31.141647 -48.386586 73.354467
3286 4 1 31.788984 -47.988801 72.704297
3287 4 1 32.087580 -48.897181 72.411574
3288 4 1 31.942535 -49.526383 73.175162
3289 4 1 32.146688 -49.427863 74.149131
3290 4 1 32.382025 -50.342543 73.820532
3291 4 1 32.532981 -50.146161 74.789369
3292 4 1 32.632924 -50.893585 75.446157
3293 4 1 32.748913 -51.758519 74.957858
3294 4 1 32.111229 -51.038624 74.683797
3295 4 1 31.563976 -51.875591 74.684124
3296 4 1 31.260989 -51.428331 73.842603
3297 4 1 31.729520 -51.265648 72.974263
3298 4 1 32.311402 -50.452533 72.990273
3299 4 1 31.312249 -50.414278 73.005439
3300 4 1 30.687244 -49.657897 72.812423
3301 4 1 29.862259 -50.211553 72.925845
3302 4 1 29.765756 -51.082912 73.406907
3303 4 1 29.757083 -50.347192 74.084137
3304 4 1 29.310207 -50.985981 74.710436
3305 4 1 28.898443 -51.625935 74.061661
3306 4 1 28.562647 -52.415772 73.548437
3307 4 1 28.835513 -51.637303 72.983167
3308 4 1 29.445299 -51.605311 72.191247
3309 4 1 30.303537 -52.116305 72.143154
3310 4 1 30.744662 -51.530656 72.823172
3311 4 1 31.496458 -52.180165 72.936935
3312 4 1 32.196688 -52.672533 73.453897
3313 4 1 32.047832 -53.346069 72.729886
3314 4 1 31.196486 -53.145855 72.244989
3315 4 1 30.235971 -53.277989 72.000139
3316 4 1 29.512219 -52.589527 71.953195
3317 4 1 28.780227 -52.469845 72.623914
3318 4 1 29.504437 -52.941586 73.126887
3319 4 1 30.482940 -53.034665 72.942855
3320 4 1 30.797893 -52.748988 73.847948
3321 4 1 30.543419 -52.613454 74.805483
3322 4 1 31.019567 -52.521232 75.679999
3323 4 1 30.586210 -51.783832 76.198113
3324 4 1 30.836761 -51.806191 77.165958
3325 4 1 30.098801 -52.456749 77.345375
3326 4 1 29.123669 -52.421359 77.126598
3327 4 1 29.700458 -53.151778 77.492388
3328 4 1 30.369938 -53.489320 76.830677
3329 4 1 31.134266 -53.905238 77.323441
3330 4 1 32.050003 -53.816561 77.715312
3331 4 1 32.520669 -53.681958 78.587295
3332 4 1 33.384211 -53.474081 79.046733
3333 4 1 33.114170 -53.231526 79.978529
3334 4 1 33.521576 -52.869540 80.816972
3335 4 1 32.907901 -53.394185 81.407014
3336 4 1 33.354501 -52.705473 81.978175
3337 4 1 33.661150 -53.309317 82.713933
3338 4 1 33.823460 -54.176402 82.242958
3339 4 1 32.887481 -54.059561 82.575058
3340 4 1 32.761723 -54.986113 82.220535
3341 4 1 32.041431 -54.385190 82.567049
3342 4 1 31.129574 -54.224402 82.944758
3343 4 1 30.831467 -53.472602 82.356600
3344 4 1 30.037003 -53.923918 81.950225
3345 4 1 29.913286 -54.214433 81.001386
3346 4 1 30.903841 -54.210450 81.138449
3347 4 1 30.710908 -55.185537 81.028986
3348 4 1 30.615580 -54.926322 81.990090
3349 4 1 30.789208 -55.719238 82.574159
3350 4 1 30.840202 -56.671497 82.273156
3351 4 1 30.877401 -56.043662 81.495699
3352 4 1 31.661609 -55.603168 81.058682
3353 4 1 31.456548 -55.571031 80.080460
3354 4 1 30.595822 -55.093072 79.905231
3355 4 1 29.924011 -54.802846 79.223733
3356 4 1 28.969698 -55.058099 79.379075
3357 4 1 29.748360 -55.205579 79.988939
3358 4 1 28.790361 -55.366709 80.226161
3359 4 1 28.841979 -55.558996 81.206141
3360 4 1 28.193965 -55.865275 81.903473
3361 4 1 28.605119 -56.694464 82.282153
3362 4 1 28.647127 -57.166971 83.162478
3363 4 1 29.219046 -56.358853 83.303377
3364 4 1 29.606664 -55.633449 83.872184
3365 4 1 29.537999 -56.617526 84.036126
3366 4 1 29.037968 -57.144221 84.723557
3367 4 1 29.344258 -56.194965 84.794979
3368 4 1 29.636139 -55.488943 85.440221
3369 4 1 29.774838 -54.911665 86.244903
3370 4 1 29.443095 -54.927459 87.188140
3371 4 1 29.246881 -55.903653 87.095696
3372 4 1 29.483472 -56.430678 86.279443
3373 4 1 28.652060 -56.431007 86.835100
3374 4 1 27.742505 -56.746131 87.106036
3375 4 1 27.923578 -55.796420 86.850573
3376 4 1 27.213990 -55.560001 87.514343
3377 4 1 27.732763 -55.869629 88.311215
3378 4 1 27.016367 -56.348207 88.818896
3379 4 1 27.339789 -56.402030 89.763619
3380 4 1 27.506817 -57.046290 90.509964
3381 4 1 27.946327 -57.375432 89.674203
3382 4 1 28.530762 -57.892135 89.048540
3383 4 1 28.902619 -56.968064 88.960136
3384 4 1 29.152499 -56.064725 88.611514
3385 4 1 29.113619 -55.083003 88.797822
3386 4 1 28.304622 -55.636900 88.994600
3387 4 1 27.865621 -55.194890 89.776844
3388 4 1 27.217286 -55.313827 90.528851
3389 4 1 26.447858 -55.475086 89.910808
3390 4 1 25.522785 -55.214564 89.634460
3391 4 1 25.670337 -55.073268 90.613370
3392 4 1 25.435230 -55.915609 91.098330
3393 4 1 25.056124 -55.693571 90.200011
3394 4 1 25.250464 -56.037649 89.281402
3395 4 1 25.731172 -56.708069 89.846607
3396 4 1 26.698668 -56.880612 90.031485
3397 4 1 26.289174 -56.446498 89.229077
3398 4 1 26.562679 -56.819945 88.342661
3399 4 1 26.764925 -57.666721 88.834664
3400 4 1 25.766684 -57.725596 88.827647
3401 4 1 25.037988 -58.248857 89.269460
3402 4 1 24.975754 -57.616351 88.497410
3403 4 1 24.976463 -58.286898 87.755543
3404 4 1 25.409553 -58.960917 87.157102
3405 4 1 26.043177 -58.195923 87.041756
3406 4 1 25.450394 -57.605000 86.494564
3407 4 1 25.774638 -56.969751 85.793618
3408 4 1 24.991981 -57.473080 85.427409
3409 4 1 25.659288 -58.031658 84.934771
3410 4 1 24.930871 -58.620272 85.285402
3411 4 1 24.088407 -58.334096 85.741865
3412 4 1 23.190675 -58.486466 85.328513
3413 4 1 22.562240 -58.058448 85.978028
3414 4 1 22.609576 -59.026849 85.733166
3415 4 1 22.101433 -59.024856 84.871895
3416 4 1 22.679722 -59.248319 84.087263
3417 4 1 23.559686 -59.450987 83.657627
3418 4 1 23.076048 -59.101389 82.855208
3419 4 1 23.572878 -58.385952 83.346443
3420 4 1 22.588830 -58.400187 83.523779
3421 4 1 22.298371 -58.705419 82.616879
3422 4 1 22.656467 -57.829989 82.941516
3423 4 1 22.187662 -57.389678 82.175782
3424 4 1 22.942733 -57.860420 81.719416
3425 4 1 23.578782 -57.468198 82.383948
3426 4 1 24.104357 -56.617915 82.355845
3427 4 1 25.002127 -56.183936 82.431149
3428 4 1 25.516794 -55.482526 81.938055
3429 4 1 26.317065 -55.054230 81.518378
3430 4 1 27.204141 -55.491694 81.370993
3431 4 1 26.515980 -55.697741 80.675307
3432 4 1 27.305945 -55.695357 80.062160
3433 4 1 27.128183 -54.797706 80.465425
3434 4 1 26.704293 -54.889161 79.564341
3435 4 1 26.478746 -55.763950 79.135537
3436 4 1 26.989454 -56.239819 78.419488
3437 4 1 26.679210 -56.925020 77.760513
3438 4 1 25.930961 -56.329337 78.052551
3439 4 1 26.051247 -56.605732 77.099065
3440 4 1 26.655576 -56.504104 76.308838
3441 4 1 26.901676 -57.457016 76.486023
3442 4 1 26.010585 -57.657249 76.078759
3443 4 1 26.537591 -56.963762 75.587495
3444 4 1 25.970336 -57.202091 74.799193
3445 4 1 25.331965 -56.599479 75.278088
3446 4 1 25.977197 -55.952187 74.872269
3447 4 1 26.208097 -55.718683 75.816812
3448 4 1 25.250524 -55.684559 76.102978
3449 4 1 24.322635 -55.340191 75.960039
3450 4 1 23.967946 -56.253703 76.159269
3451 4 1 22.982039 -56.297045 76.320849
3452 4 1 22.588588 -55.386286 76.446208
3453 4 1 22.163209 -54.888175 77.201812
3454 4 1 21.196882 -54.924082 77.456612
3455 4 1 21.232802 -53.949561 77.678014
3456 4 1 21.429706 -53.433702 76.844276
3457 4 1 21.371375 -54.350383 76.448937
3458 4 1 20.570781 -54.718524 76.921717
3459 4 1 19.951721 -54.247892 76.293012
3460 4 1 19.103521 -54.670863 75.974180
3461 4 1 18.599071 -53.808034 75.941685
3462 4 1 18.454896 -54.649860 75.421549
3463 4 1 18.879027 -55.525321 75.653241
3464 4 1 18.722724 -56.430889 76.047596
3465 4 1 19.177207 -57.313711 76.166213
3466 4 1 18.687572 -57.245956 75.296922
3467 4 1 18.110282 -56.429441 75.303177
3468 4 1 17.556658 -56.837414 74.577189
3469 4 1 17.992595 -56.615294 73.705053
3470 4 1 17.012727 -56.781988 73.814923
3471 4 1 16.771501 -57.750947 73.869030
3472 4 1 16.674725 -58.593160 74.399419
3473 4 1 16.209834 -59.343535 73.929510
3474 4 1 17.127755 -59.708309 73.773430
3475 4 1 16.519712 -59.596250 72.987475
3476 4 1 15.990108 -59.945575 72.214499
3477 4 1 15.179848 -59.395116 72.415679
3478 4 1 14.184791 -59.308098 72.463519
3479 4 1 13.458585 -59.765126 71.949952
3480 4 1 14.111661 -60.239421 71.359583
3481 4 1 14.791480 -59.862979 70.730188
3482 4 1 15.349212 -59.457691 71.454534
3483 4 1 14.551675 -59.106008 70.964376
3484 4 1 13.618720 -58.925250 71.275697
3485 4 1 14.445544 -58.466679 71.601388
3486 4 1 14.371658 -57.990428 72.477588
3487 4 1 15.349877 -58.153979 72.349764
3488 4 1 16.215578 -58.591034 72.593779
3489 4 1 16.609257 -57.728309 72.911146
3490 4 1 17.446002 -58.138659 72.548557
3491 4 1 16.760084 -58.288680 71.836509
3492 4 1 17.494995 -58.944204 71.662744
3493 4 1 17.529906 -59.787646 72.198829
3494 4 1 16.666019 -59.284868 72.168594
3495 4 1 16.300811 -59.466257 71.255511
3496 4 1 16.756897 -60.209200 70.765591
3497 4 1 17.149765 -60.933447 71.332266
3498 4 1 16.831115 -60.997814 70.386582
3499 4 1 17.408120 -61.354261 69.651727
3500 4 1 18.201791 -61.697408 70.154058
3501 4 1 17.233310 -61.941390 70.204246
3502 4 1 16.292722 -62.059892 70.522446
3503 4 1 15.293354 -62.024773 70.517054
3504 4 1 14.670063 -62.780236 70.719006
3505 4 1 14.601622 -62.440727 71.657116
3506 4 1 14.884503 -61.561548 72.040552
3507 4 1 15.781565 -61.226818 71.752046
3508 4 1 15.790537 -60.807212 70.844384
3509 4 1 14.880150 -60.615393 71.210993
3510 4 1 14.848388 -61.611823 71.132769
3511 4 1 15.550594 -62.153071 71.595325
3512 4 1 15.574884 -62.988024 71.045541
3513 4 1 15.971253 -63.894899 70.902468
3514 4 1 16.819678 -64.420808 70.842511
3515 4 1 16.836239 -63.501619 71.235980
3516 4 1 16.574478 -62.592410 71.559740
3517 4 1 17.550068 -62.489720 71.753847
3518 4 1 16.990289 -61.752598 72.132395
3519 4 1 16.295229 -61.346664 72.725782
3520 4 1 17.041362 -61.754258 73.252234
3521 4 1 16.236501 -62.298538 73.015680
3522 4 1 15.628539 -63.047441 73.279361
3523 4 1 16.317962 -63.302317 72.601324
3524 4 1 16.404840 -64.090391 71.991904
3525 4 1 15.959788 -64.848911 71.515904
3526 4 1 15.431592 -64.651113 70.690141
3527 4 1 15.431610 -64.246076 71.604441
3528 4 1 15.591252 -65.012402 72.226742
3529 4 1 14.656130 -65.366693 72.221698
3530 4 1 14.635768 -66.190661 72.787968
3531 4 1 14.322195 -66.610610 71.936314
3532 4 1 13.945183 -65.821200 71.451863
3533 4 1 13.436537 -66.673857 71.571255
3534 4 1 14.169903 -66.706066 70.892185
3535 4 1 14.119017 -66.198419 70.032124
3536 4 1 14.303815 -65.398471 69.461218
3537 4 1 14.542404 -64.473482 69.756973
3538 4 1 15.110758 -63.690249 69.504941
3539 4 1 15.925156 -64.268117 69.558095
3540 4 1 16.527284 -63.535442 69.875317
3541 4 1 16.881588 -64.347045 69.410808
3542 4 1 17.841756 -64.070620 69.451634
3543 4 1 17.178042 -63.697213 68.803521
3544 4 1 17.778787 -62.960670 68.492698
3545 4 1 17.673685 -62.731624 67.524973
3546 4 1 18.101934 -63.635145 67.540927
3547 4 1 18.482322 -64.494116 67.198184
3548 4 1 17.815155 -65.043435 67.701311
3549 4 1 17.833279 -64.974936 68.698797
3550 4 1 18.703278 -64.644356 69.064610
3551 4 1 19.520848 -64.934214 68.567054
3552 4 1 20.020190 -64.214503 69.049417
3553 4 1 20.305525 -63.868137 69.943070
3554 4 1 19.497142 -64.449504 70.035424
3555 4 1 19.652531 -64.578543 71.014813
3556 4 1 20.189366 -64.093652 71.705240
3557 4 1 20.964298 -64.173990 72.332158
3558 4 1 20.008345 -64.395822 72.524370
3559 4 1 19.806754 -63.495135 72.139501
3560 4 1 19.261404 -63.931775 71.424003
3561 4 1 19.274482 -64.790115 71.936918
3562 4 1 19.566186 -65.639813 72.376146
3563 4 1 19.126366 -66.013642 71.559561
3564 4 1 19.887372 -65.377570 71.431959
3565 4 1 20.609372 -65.310536 72.120597
3566 4 1 21.346704 -64.884616 71.596254
3567 4 1 22.040819 -65.318202 72.170892
3568 4 1 22.679012 -65.775901 72.789940
3569 4 1 22.161698 -64.930132 72.920553
3570 4 1 23.079451 -64.917138 73.317493
3571 4 1 23.138534 -63.962943 73.610785
3572 4 1 23.979458 -63.530056 73.286045
3573 4 1 24.281188 -63.195288 74.178732
3574 4 1 25.095035 -62.743541 73.813248
3575 4 1 25.278096 -61.788216 73.581207
3576 4 1 25.049457 -62.501424 72.918592
3577 4 1 25.285994 -63.410216 73.262319
3578 4 1 25.556014 -63.753193 72.362621
3579 4 1 25.305331 -63.160816 71.596953
3580 4 1 24.337103 -63.351017 71.434601
3581 4 1 24.609340 -62.418811 71.196109
3582 4 1 24.914235 -62.338416 72.145096
3583 4 1 24.541387 -61.431120 72.339514
3584 4 1 23.918971 -61.213301 73.091281
3585 4 1 24.642271 -60.565076 73.329274
3586 4 1 24.323774 -60.596933 72.381886
3587 4 1 24.975622 -59.948065 72.774396
3588 4 1 24.852127 -59.390066 71.953796
3589 4 1 25.770747 -59.277382 72.332529
3590 4 1 25.006083 -58.710768 72.639509
3591 4 1 24.182489 -58.748995 72.073619
3592 4 1 24.011343 -58.530612 73.034357
3593 4 1 23.527288 -59.232032 73.557521
3594 4 1 22.734490 -58.705999 73.249689
3595 4 1 23.190317 -58.907189 72.382657
3596 4 1 22.363892 -59.143900 71.871785
3597 4 1 21.746630 -58.846467 72.600154
3598 4 1 21.492051 -59.177639 71.691575
3599 4 1 21.290341 -58.410583 71.082528
3600 4 1 20.294042 -58.414168 70.996649
3601 4 1 19.562195 -57.943358 71.489333
3602 4 1 19.520542 -57.226177 70.793693
3603 4 1 19.509421 -56.274860 71.101707
3604 4 1 18.615884 -56.427447 70.679439
3605 4 1 18.378387 -55.502170 70.975174
3606 4 1 18.762226 -54.643873 71.315754
3607 4 1 19.170283 -54.205615 70.514868
3608 4 1 18.932777 -53.523395 71.206364
3609 4 1 19.887749 -53.484477 70.912231
3610 4 1 20.305743 -52.738725 70.393450
3611 4 1 20.669016 -53.613803 70.713247
3612 4 1 20.659545 -54.391919 71.341296
3613 4 1 21.252580 -55.189088 71.454568
3614 4 1 21.296982 -55.755276 72.277648
3615 4 1 21.888161 -56.545478 72.439163
3616 4 1 22.492007 -57.053523 73.053379
3617 4 1 23.479090 -56.981079 73.196274
3618 4 1 23.021342 -56.603621 74.001254
3619 4 1 22.696967 -55.666967 73.869114
3620 4 1 21.759800 -55.397223 74.090375
3621 4 1 21.427013 -54.905645 74.895113
3622 4 1 20.486760 -55.038149 74.581478
3623 4 1 19.942796 -54.280735 74.942626
3624 4 1 20.060092 -53.534856 75.598298
3625 4 1 19.505045 -52.991816 74.968194
3626 4 1 18.926991 -52.527880 75.639475
3627 4 1 18.064851 -52.082747 75.881486
3628 4 1 17.338436 -51.537047 76.299258
3629 4 1 16.572028 -51.736396 75.688620
3630 4 1 15.634794 -51.387703 75.690903
3631 4 1 15.569566 -50.402111 75.846961
3632 4 1 16.121835 -50.553628 76.666743
3633 4 1 15.252422 -50.894150 77.024746
3634 4 1 14.610673 -50.138644 76.892955
3635 4 1 13.857541 -49.815855 77.466190
3636 4 1 14.345487 -49.185053 78.069513
3637 4 1 14.391337 -49.360309 79.052968
3638 4 1 15.261530 -49.417708 79.542325
3639 4 1 15.599437 -50.207402 79.030268
3640 4 1 15.313219 -50.565062 79.919177
3641 4 1 14.900659 -49.766192 80.356898
3642 4 1 15.549117 -50.220834 80.967474
3643 4 1 14.815013 -50.809688 81.305621
3644 4 1 15.558515 -50.960797 81.957058
3645 4 1 15.971716 -51.632491 81.342166
3646 4 1 15.898784 -51.026422 80.550104
3647 4 1 16.390292 -51.546470 79.851556
3648 4 1 16.340030 -51.257172 78.895637
3649 4 1 15.799871 -51.968525 78.445964
3650 4 1 15.336533 -52.762400 78.839766
3651 4 1 14.699937 -53.100320 79.532988
3652 4 1 14.198898 -52.242215 79.420664
3653 4 1 15.034642 -51.871318 79.825594
3654 4 1 14.458383 -52.181928 80.581535
3655 4 1 15.295798 -52.053045 81.112689
3656 4 1 14.462145 -51.560035 81.361615
3657 4 1 14.611961 -51.277790 80.414043
3658 4 1 13.666884 -51.526136 80.201550
3659 4 1 13.679657 -52.162543 80.972798
3660 4 1 14.232472 -52.865623 81.420094
3661 4 1 13.321184 -53.166643 81.701058
3662 4 1 12.715794 -52.429988 82.002458
3663 4 1 13.094659 -52.754543 82.869133
3664 4 1 13.844126 -52.752884 83.531173
3665 4 1 13.886042 -53.748883 83.610093
3666 4 1 13.647625 -54.259202 82.783817
3667 4 1 13.645294 -55.228849 82.539318
3668 4 1 14.564475 -55.525976 82.797818
3669 4 1 13.790901 -55.252505 83.369480
3670 4 1 14.333718 -55.479243 84.178146
3671 4 1 13.717067 -54.706483 84.027868
3672 4 1 13.065383 -54.371741 83.347239
3673 4 1 12.865644 -54.385166 84.326996
3674 4 1 13.225956 -55.316811 84.374025
3675 4 1 12.368594 -55.769448 84.619078
3676 4 1 12.726084 -56.061442 85.506174
3677 4 1 12.069578 -55.328230 85.328978
3678 4 1 12.901906 -55.195609 85.867161
3679 4 1 13.226333 -54.911260 86.769322
3680 4 1 13.128327 -53.916367 86.793448
3681 4 1 12.981160 -52.939380 86.639052
3682 4 1 12.762121 -51.966814 86.717399
3683 4 1 12.167013 -51.621958 87.443291
3684 4 1 11.188770 -51.808321 87.534455
3685 4 1 10.666648 -51.696918 88.380018
3686 4 1 11.167506 -50.923704 88.768967
3687 4 1 12.011298 -51.010979 89.298495
3688 4 1 11.793882 -51.987051 89.302299
3689 4 1 11.238864 -51.767191 90.104556
3690 4 1 10.831410 -52.602361 89.735134
3691 4 1 11.310807 -53.257087 90.319525
3692 4 1 11.795261 -54.123679 90.199846
3693 4 1 12.770619 -54.074724 89.984722
3694 4 1 13.117310 -53.136852 89.970559
3695 4 1 12.647841 -52.294000 89.707499
3696 4 1 13.198249 -52.361195 90.539686
3697 4 1 12.582989 -53.009921 90.987580
3698 4 1 11.710850 -52.538404 91.118133
3699 4 1 10.789860 -52.331736 91.448384
3700 4 1 9.947882 -52.870352 91.479481
3701 4 1 9.372411 -53.661379 91.271855
3702 4 1 9.589247 -54.361427 90.591476
3703 4 1 10.179647 -54.203146 89.800037
3704 4 1 11.025655 -54.000761 89.306772
3705 4 1 10.233523 -54.415014 88.858530
3706 4 1 9.356256 -54.103712 89.223899
3707 4 1 9.545482 -53.121915 89.207529
3708 4 1 9.685995 -53.048422 88.220182
3709 4 1 10.100931 -52.353640 87.632725
3710 4 1 9.149780 -52.514414 87.896282
3711 4 1 9.473149 -51.875333 87.198423
3712 4 1 10.043742 -52.342422 86.522959
3713 4 1 9.335917 -51.684952 86.264663
3714 4 1 9.227064 -52.581000 86.695069
3715 4 1 8.665237 -52.717142 85.879093
3716 4 1 8.198765 -52.304343 85.096789
3717 4 1 9.016060 -52.381952 84.525820
3718 4 1 9.573226 -53.173270 84.274063
3719 4 1 9.931816 -54.040079 84.620552
3720 4 1 10.074391 -54.615469 83.815196
3721 4 1 10.753850 -54.904133 83.140652
3722 4 1 10.005910 -55.487090 82.823246
3723 4 1 10.730575 -55.529759 82.135468
3724 4 1 10.535025 -56.220697 81.439504
3725 4 1 9.608450 -56.596781 81.435005
3726 4 1 9.702449 -56.269470 82.375234
3727 4 1 9.227363 -55.916865 83.181437
3728 4 1 9.938086 -55.697354 83.849784
3729 4 1 10.907355 -55.943217 83.841433
3730 4 1 10.789909 -56.807867 83.352981
3731 4 1 11.767692 -56.646152 83.219607
3732 4 1 11.441802 -57.034515 84.081564
3733 4 1 11.610687 -57.436191 84.981638
3734 4 1 12.043529 -57.920247 84.221153
3735 4 1 12.032169 -58.825804 84.645225
3736 4 1 12.624484 -59.391854 85.218593
3737 4 1 12.884674 -58.838806 84.427113
3738 4 1 13.212131 -59.718158 84.772818
3739 4 1 12.808246 -60.571777 84.443860
3740 4 1 12.806444 -60.141346 83.541239
3741 4 1 12.384664 -59.240795 83.435831
3742 4 1 11.712210 -59.699813 84.016441
3743 4 1 10.860126 -59.249097 84.282540
3744 4 1 10.014949 -59.777998 84.359607
3745 4 1 9.442488 -60.425488 84.862642
3746 4 1 10.417285 -60.275333 85.027636
3747 4 1 10.066775 -61.211745 85.011010
3748 4 1 11.001154 -61.547319 84.891323
3749 4 1 11.299784 -62.373918 85.368349
3750 4 1 10.805265 -63.234880 85.487491
3751 4 1 11.643718 -63.752304 85.658570
3752 4 1 12.634079 -63.637240 85.581465
3753 4 1 13.551008 -63.912131 85.870733
3754 4 1 13.760930 -64.886558 85.790581
3755 4 1 12.903998 -64.415414 85.581559
3756 4 1 12.770773 -64.225722 86.554322
3757 4 1 12.069381 -64.825549 86.169281
3758 4 1 11.641553 -64.310519 86.912051
3759 4 1 11.659360 -65.287101 87.126457
3760 4 1 12.268554 -66.078287 87.072514
3761 4 1 11.830106 -66.950802 86.856919
3762 4 1 12.579158 -66.922807 87.518839
3763 4 1 11.925964 -67.679838 87.503306
3764 4 1 11.387686 -68.091417 88.238738
3765 4 1 11.319986 -68.816398 88.924171
3766 4 1 12.210505 -69.200039 88.679639
3767 4 1 12.237357 -69.152772 87.681118
3768 4 1 13.127969 -68.766419 87.920996
3769 4 1 12.996694 -68.953723 88.894486
3770 4 1 13.133804 -69.944160 88.909845
3771 4 1 13.704850 -70.754945 88.781262
3772 4 1 14.561179 -70.424728 89.178323
3773 4 1 13.871701 -70.701602 89.847623
3774 4 1 12.929879 -70.544503 89.550486
3775 4 1 12.762511 -69.588594 89.791785
3776 4 1 13.259432 -68.758377 90.044390
3777 4 1 14.006204 -69.246558 90.496066
3778 4 1 14.215494 -69.272612 89.518559
3779 4 1 13.798394 -69.565291 88.658113
3780 4 1 14.606892 -69.471326 88.077164
3781 4 1 14.853680 -68.502446 88.058023
3782 4 1 15.313238 -67.759457 87.571429
3783 4 1 15.220411 -67.464658 88.522469
3784 4 1 14.549728 -66.857311 88.948278
3785 4 1 13.720977 -66.315310 89.087585
3786 4 1 14.177398 -65.806344 88.357768
3787 4 1 13.985174 -65.134165 89.072768
3788 4 1 14.524858 -64.751379 89.822579
3789 4 1 13.836865 -65.477094 89.820437
3790 4 1 12.961963 -65.193520 89.427840
3791 4 1 12.580030 -66.000919 89.877544
3792 4 1 13.109098 -65.318398 90.381777
3793 4 1 12.114444 -65.412490 90.424316
3794 4 1 12.622744 -64.685522 90.885996
3795 4 1 13.547186 -64.328887 90.751021
3796 4 1 14.461598 -63.929871 90.682922
3797 4 1 15.317970 -64.419038 90.848278
3798 4 1 15.526610 -65.396946 90.861180
3799 4 1 15.114762 -65.923614 91.604821
3800 4 1 14.231272 -65.892967 91.137373
3801 4 1 13.538318 -65.172592 91.166943
3802 4 1 14.239070 -64.551519 91.517962
3803 4 1 14.475130 -65.369406 92.042687
3804 4 1 14.862271 -65.527119 92.951119
3805 4 1 13.967261 -65.960950 93.054799
3806 4 1 13.125320 -65.478813 93.297037
3807 4 1 13.976028 -64.959774 93.380072
3808 4 1 13.737016 -64.559071 92.495588
3809 4 1 13.281758 -64.062955 93.234918
3810 4 1 12.977544 -63.860090 92.304166
3811 4 1 12.834823 -63.107202 92.946654
3812 4 1 13.251155 -62.229836 93.185185
3813 4 1 13.527103 -62.651400 94.048977
3814 4 1 13.013853 -62.416378 94.874409
3815 4 1 13.450171 -61.517813 94.827412
3816 4 1 12.469193 -61.681345 94.932001
3817 4 1 12.122140 -61.124444 94.177405
3818 4 1 11.654707 -61.952441 93.867683
3819 4 1 11.391283 -61.001525 93.705302
3820 4 1 11.745994 -60.456348 92.945723
3821 4 1 11.795156 -61.111309 92.191661
3822 4 1 12.073773 -61.559041 91.342009
3823 4 1 11.224939 -61.778280 91.823066
3824 4 1 10.645007 -61.609030 91.026176
3825 4 1 11.054667 -60.839053 90.536980
3826 4 1 12.009353 -60.614509 90.732316
3827 4 1 11.560846 -60.980406 89.916865
3828 4 1 12.468354 -61.389699 89.822481
3829 4 1 12.752074 -62.320660 89.592664
3830 4 1 13.728378 -62.129255 89.693630
3831 4 1 14.538988 -62.574829 90.073597
3832 4 1 15.034030 -62.585644 90.942399
3833 4 1 14.086008 -62.345888 91.151616
3834 4 1 14.059368 -63.344482 91.197451
3835 4 1 15.031526 -63.561530 91.285766
3836 4 1 14.739590 -62.788138 91.848472
3837 4 1 14.675548 -62.027840 92.494881
3838 4 1 15.427902 -62.686478 92.482254
3839 4 1 15.622291 -62.301965 91.579834
3840 4 1 15.157106 -61.450638 91.337253
3841 4 1 14.357494 -61.309651 90.753521
3842 4 1 14.099295 -60.553205 91.354456
3843 4 1 14.057032 -60.978436 92.258553
3844 4 1 13.186336 -61.435224 92.076257
3845 4 1 13.392226 -62.392505 91.873224
3846 4 1 13.136877 -61.653150 91.250206
3847 4 1 13.281128 -60.862956 90.654568
3848 4 1 12.752467 -60.019303 90.748197
3849 4 1 12.200572 -59.355246 90.243776
3850 4 1 13.074705 -58.871267 90.284471
3851 4 1 13.795715 -59.445053 89.895994
3852 4 1 14.461887 -59.789272 90.557605
3853 4 1 14.733877 -59.960910 89.610735
3854 4 1 14.660688 -59.301510 88.862515
3855 4 1 15.268938 -59.533553 88.103445
3856 4 1 15.186333 -60.466454 88.453978
3857 4 1 16.143160 -60.175808 88.456529
3858 4 1 16.702457 -60.221876 89.284216
3859 4 1 17.351637 -60.943775 89.523856
3860 4 1 16.435663 -61.106712 89.890521
3861 4 1 15.831526 -60.340825 89.670442
3862 4 1 15.423534 -59.630165 89.097288
3863 4 1 16.286651 -59.125725 89.121117
3864 4 1 16.416379 -59.051048 88.132383
3865 4 1 15.690283 -59.124068 87.448678
3866 4 1 16.623297 -59.460126 87.320033
3867 4 1 17.473801 -59.926419 87.563375
3868 4 1 16.540224 -60.277560 87.491724
3869 4 1 16.564507 -60.266375 86.492081
3870 4 1 16.551173 -59.269317 86.416597
3871 4 1 16.401698 -59.057348 85.450819
3872 4 1 15.778473 -58.311297 85.685339
3873 4 1 15.163143 -58.657810 84.977315
3874 4 1 15.517797 -58.117684 84.214108
3875 4 1 16.284932 -58.506085 84.724645
3876 4 1 16.999121 -58.495653 85.424521
3877 4 1 16.838312 -57.687625 84.857748
3878 4 1 17.300786 -57.191799 84.122714
3879 4 1 16.497088 -57.748162 83.911693
3880 4 1 15.836510 -58.379348 83.505195
3881 4 1 15.647652 -57.974374 82.610584
3882 4 1 16.535051 -57.556126 82.804469
3883 4 1 17.447820 -57.964385 82.817785
3884 4 1 18.422609 -57.759401 82.905927
3885 4 1 18.963389 -57.977203 82.093450
3886 4 1 19.680964 -58.085500 81.405440
3887 4 1 19.384737 -58.885571 80.883773
3888 4 1 18.880212 -58.168365 80.403076
3889 4 1 18.940458 -57.696151 79.523653
3890 4 1 19.744525 -57.867657 78.954388
3891 4 1 19.490936 -58.806766 78.722514
3892 4 1 20.274579 -59.158075 79.234847
3893 4 1 20.940399 -59.215852 79.978719
3894 4 1 21.345089 -59.003262 80.868119
3895 4 1 21.762952 -59.329235 81.716136
3896 4 1 20.998606 -59.086946 82.313690
3897 4 1 20.567000 -59.931702 81.997299
3898 4 1 20.639370 -60.454177 82.846877
3899 4 1 21.418032 -59.934802 82.494833
3900 4 1 21.509770 -60.800007 82.987788
3901 4 1 22.255704 -61.196748 82.452831
3902 4 1 21.277105 -61.400689 82.480238
3903 4 1 21.718798 -60.680970 81.944596
3904 4 1 22.030992 -61.582166 81.643960
3905 4 1 22.638826 -62.333638 81.387391
3906 4 1 23.255408 -62.865112 80.806563
3907 4 1 22.376185 -63.341507 80.802836
3908 4 1 22.071958 -64.265485 81.034594
3909 4 1 23.015734 -64.137428 80.729818
3910 4 1 23.582459 -63.948608 79.927840
3911 4 1 22.612975 -64.172155 79.827204
3912 4 1 22.112439 -63.908262 79.002690
3913 4 1 21.966997 -62.928520 78.865019
3914 4 1 21.307313 -63.491363 78.366999
3915 4 1 21.115838 -64.468373 78.273251
3916 4 1 20.208053 -64.128165 78.518578
3917 4 1 19.255120 -63.828333 78.473630
3918 4 1 19.284486 -64.692440 77.971179
3919 4 1 18.939966 -64.046022 77.290408
3920 4 1 18.413985 -63.656224 76.534496
3921 4 1 18.432156 -64.318278 75.785260
3922 4 1 18.782073 -64.986629 75.128857
3923 4 1 19.165463 -65.158941 76.036227
3924 4 1 19.798147 -65.352648 75.286435
3925 4 1 19.634540 -65.919049 74.478708
3926 4 1 20.438515 -65.758532 73.906119
3927 4 1 20.693602 -65.558102 74.852036
3928 4 1 21.474233 -66.039486 75.250637
3929 4 1 21.894831 -65.415016 75.908766
3930 4 1 22.477164 -66.024553 75.370851
3931 4 1 22.687994 -65.563205 76.232657
3932 4 1 22.341747 -66.478674 76.027646
3933 4 1 21.713125 -67.255673 75.994362
3934 4 1 21.007336 -67.243449 75.286046
3935 4 1 20.872005 -66.658673 74.486219
3936 4 1 20.194993 -66.207807 75.067920
3937 4 1 19.215002 -66.396421 75.131493
3938 4 1 18.248980 -66.321661 74.884082
3939 4 1 18.026186 -67.292833 74.799302
3940 4 1 18.026471 -67.880405 75.608474
3941 4 1 17.777123 -68.573364 74.931987
3942 4 1 18.595606 -68.016152 74.791981
3943 4 1 18.575359 -68.694225 75.526697
3944 4 1 19.045318 -69.088943 76.316213
3945 4 1 19.816425 -69.535192 76.770367
3946 4 1 20.512216 -70.063601 76.283890
3947 4 1 21.212509 -70.040991 75.570393
3948 4 1 21.811140 -69.281235 75.824184
3949 4 1 22.184075 -68.393312 76.093468
3950 4 1 21.567742 -68.655953 76.835865
3951 4 1 21.017556 -69.489128 76.780054
3952 4 1 22.000111 -69.564367 76.950125
3953 4 1 22.777182 -70.175248 76.798516
3954 4 1 22.365738 -71.032149 76.487977
3955 4 1 22.239696 -71.454480 77.385612
3956 4 1 22.592596 -70.532100 77.542701
3957 4 1 23.194149 -71.061834 76.944775
3958 4 1 23.462458 -71.888199 77.439883
3959 4 1 23.398050 -72.546844 78.189575
3960 4 1 23.131392 -73.013438 79.032892
3961 4 1 23.378907 -72.739971 79.962382
3962 4 1 24.272252 -72.434175 80.291659
3963 4 1 24.977872 -72.188749 80.956390
3964 4 1 25.160910 -72.939020 81.591677
3965 4 1 25.259052 -73.603121 82.332851
3966 4 1 25.497078 -73.544252 83.302324
3967 4 1 25.726690 -72.665280 82.884368
3968 4 1 26.501607 -72.754953 82.258697
3969 4 1 27.172220 -73.048255 81.577337
3970 4 1 27.097839 -72.214486 82.124418
3971 4 1 26.865269 -72.518407 83.048291
3972 4 1 26.444644 -72.088742 83.847329
3973 4 1 26.110012 -71.578909 84.639852
3974 4 1 26.380374 -71.813409 85.573615
3975 4 1 26.465335 -72.804146 85.679552
3976 4 1 26.382661 -72.088598 86.373206
3977 4 1 27.191691 -72.228691 86.944033
3978 4 1 28.136083 -72.073800 87.234090
3979 4 1 27.739497 -71.725581 86.384701
3980 4 1 28.690175 -71.608521 86.671945
3981 4 1 29.253075 -71.028038 86.083572
3982 4 1 29.893782 -71.172564 86.837632
3983 4 1 30.062382 -70.425883 87.481092
3984 4 1 30.730764 -70.489342 86.739985
3985 4 1 31.248742 -70.904001 85.991816
3986 4 1 31.128908 -71.219868 85.050611
3987 4 1 30.159848 -71.040028 85.219667
3988 4 1 30.369581 -71.367374 86.141001
3989 4 1 29.653581 -72.021002 86.386185
3990 4 1 29.535089 -72.827869 86.964911
3991 4 1 29.799216 -73.002480 87.913461
3992 4 1 30.450509 -72.247519 87.836970
3993 4 1 29.666255 -71.863785 87.349431
3994 4 1 29.160346 -71.041784 87.610910
3995 4 1 29.050125 -70.249132 88.210539
3996 4 1 28.993587 -70.186939 89.207000
3997 4 1 29.234098 -70.749940 89.997686
3998 4 1 28.672404 -71.170955 89.285474
3999 4 1 27.783492 -70.755159 89.477693
4000 4 1 26.866358 -71.022926 89.772932
4001 5 1 -55.939401 -51.110148 60.296194
4002 5 1 -56.351218 -50.211172 60.445360
4003 5 1 -55.554934 -49.750650 60.837600
4004 5 1 -56.418677 -49.509176 61.279910
4005 5 1 -56.235629 -49.642317 62.253957
4006 5 1 -56.702400 -49.280045 63.060731
4007 5 1 -56.603519 -48.339004 63.384251
4008 5 1 -55.787497 -48.405790 62.810102
4009 5 1 -55.563718 -49.358975 62.606725
4010 5 1 -54.808359 -49.341975 63.261815
4011 5 1 -54.800137 -48.530907 62.676921
4012 5 1 -54.889680 -49.144251 61.892197
4013 5 1 -54.104559 -49.725179 61.677472
4014 5 1 -54.716755 -50.513391 61.614722
4015 5 1 -54.696171 -51.506459 61.730452
4016 5 1 -54.079602 -51.401483 62.510723
4017 5 1 -54.500026 -51.808410 63.321681
4018 5 1 -53.550427 -51.896523 63.020853
4019 5 1 -52.899789 -51.321231 63.516544
4020 5 1 -53.073377 -51.954337 64.270894
4021 5 1 -52.260606 -51.973147 64.853174
4022 5 1 -51.615515 -51.210304 64.897084
4023 5 1 -51.083767 -50.510798 65.374510
4024 5 1 -50.200766 -50.707648 64.948413
4025 5 1 -49.466326 -51.156577 65.457394
4026 5 1 -48.750915 -51.530334 64.867063
4027 5 1 -49.668176 -51.790916 64.565851
4028 5 1 -50.428062 -52.409730 64.366743
4029 5 1 -49.704616 -52.210712 63.705669
4030 5 1 -49.869160 -52.028218 62.736329
4031 5 1 -49.347435 -51.192136 62.566715
4032 5 1 -49.321492 -50.760416 63.468350
4033 5 1 -48.558657 -50.143894 63.663241
4034 5 1 -48.796689 -49.735820 62.781869
4035 5 1 -47.815481 -49.619821 62.936063
4036 5 1 -47.122738 -49.584636 62.215737
4037 5 1 -47.524207 -48.988421 61.520502
4038 5 1 -48.328721 -48.816943 60.951863
4039 5 1 -48.629165 -47.983686 60.487733
4040 5 1 -48.461596 -47.739907 59.532488
4041 5 1 -47.706391 -48.344120 59.278340
4042 5 1 -47.769349 -49.338068 59.188319
4043 5 1 -48.257162 -49.238485 60.055569
4044 5 1 -49.080664 -49.032241 60.584066
4045 5 1 -49.612954 -49.708377 60.074647
4046 5 1 -50.001779 -50.614511 60.241190
4047 5 1 -50.638990 -51.377101 60.352627
4048 5 1 -49.861380 -52.005527 60.372721
4049 5 1 -49.275759 -51.315244 60.797641
4050 5 1 -48.476928 -50.807248 61.119836
4051 5 1 -48.658511 -50.310805 60.270971
4052 5 1 -48.273375 -49.988604 59.406184
4053 5 1 -48.601126 -50.932645 59.369235
4054 5 1 -47.909867 -51.644482 59.493532
4055 5 1 -48.300785 -52.455299 59.929146
4056 5 1 -48.205772 -53.360165 60.344103
4057 5 1 -48.243602 -53.952533 61.148882
4058 5 1 -48.854895 -53.352282 61.664654
4059 5 1 -48.322722 -54.069037 62.115270
4060 5 1 -47.566511 -54.391089 62.684855
4061 5 1 -46.693690 -54.295877 62.206192
4062 5 1 -46.584552 -53.302319 62.236715
4063 5 1 -46.218871 -53.436135 61.315645
4064 5 1 -45.282843 -53.342720 60.976346
4065 5 1 -44.480920 -53.197035 61.555739
4066 5 1 -44.110445 -53.953353 61.016543
4067 5 1 -43.505908 -53.739093 60.249322
4068 5 1 -42.681125 -53.192698 60.103765
4069 5 1 -41.883807 -53.031794 60.685482
4070 5 1 -41.401383 -52.166228 60.819879
4071 5 1 -40.589786 -51.811522 60.355665
4072 5 1 -40.466603 -52.801310 60.427401
4073 5 1 -40.107607 -52.873328 61.357958
4074 5 1 -40.286688 -51.899136 61.220550
4075 5 1 -39.386416 -51.573058 61.508967
4076 5 1 -38.860109 -50.760750 61.257655
4077 5 1 -38.668802 -50.150489 60.488901
4078 5 1 -38.387797 -51.022219 60.087500
4079 5 1 -38.344328 -51.996867 59.868017
4080 5 1 -39.250935 -51.608675 60.033455
4081 5 1 -39.624045 -52.524589 60.181413
4082 5 1 -39.068085 -52.393587 61.002234
4083 5 1 -38.690300 -52.495239 61.922530
4084 5 1 -38.011479 -53.138734 62.276248
4085 5 1 -37.642600 -54.036024 62.518734
4086 5 1 -37.769481 -54.044149 61.526849
4087 5 1 -38.402388 -53.484478 60.991876
4088 5 1 -39.005017 -54.171752 60.586299
4089 5 1 -39.860365 -53.682920 60.757832
4090 5 1 -40.791382 -54.034743 60.854929
4091 5 1 -41.196982 -53.627377 61.673184
4092 5 1 -41.959809 -54.264221 61.561271
4093 5 1 -42.664369 -53.558507 61.635859
4094 5 1 -42.800579 -54.546504 61.708722
4095 5 1 -43.456950 -53.854668 62.009623
4096 5 1 -43.918091 -54.093619 62.864171
4097 5 1 -44.042492 -54.352773 63.821962
4098 5 1 -43.835964 -55.330968 63.800050
4099 5 1 -42.951571 -55.794757 63.852477
4100 5 1 -42.959709 -56.018558 62.877876
4101 5 1 -43.384169 -56.587340 63.582377
4102 5 1 -42.693044 -57.299025 63.456482
4103 5 1 -42.787507 -57.714676 64.361088
4104 5 1 -42.925109 -58.617756 63.954256
4105 5 1 -42.102476 -59.139256 63.727734
4106 5 1 -42.680063 -59.910776 63.994474
4107 5 1 -42.299275 -60.402540 64.777525
4108 5 1 -42.159978 -61.324256 65.139515
4109 5 1 -41.828370 -61.670374 66.017147
4110 5 1 -42.047522 -61.199986 66.871961
4111 5 1 -42.519549 -60.333516 67.034505
4112 5 1 -43.123996 -60.963650 67.521922
4113 5 1 -43.115978 -61.362846 66.605091
4114 5 1 -43.339147 -62.276712 66.265910
4115 5 1 -44.055932 -62.545103 66.909483
4116 5 1 -43.548278 -62.487287 67.769103
4117 5 1 -43.802922 -62.593309 68.730308
4118 5 1 -44.461597 -63.315705 68.940762
4119 5 1 -45.394611 -63.675179 68.957006
4120 5 1 -45.226990 -64.480048 68.387718
4121 5 1 -44.942381 -65.027782 67.600962
4122 5 1 -43.986037 -64.800446 67.417319
4123 5 1 -44.776028 -64.593086 66.840330
4124 5 1 -44.255563 -64.823300 66.018066
4125 5 1 -43.404566 -64.811077 66.543093
4126 5 1 -43.697358 -65.344388 65.749461
4127 5 1 -43.477165 -64.378668 65.611987
4128 5 1 -43.261757 -63.413672 65.462380
4129 5 1 -44.233024 -63.630270 65.363764
4130 5 1 -44.712313 -63.510210 66.233170
4131 5 1 -45.688893 -63.335078 66.108192
4132 5 1 -46.506571 -62.872321 65.765761
4133 5 1 -46.152750 -62.312128 65.016766
4134 5 1 -46.857262 -62.077733 65.686632
4135 5 1 -47.570471 -62.438583 65.085700
4136 5 1 -48.199472 -62.582035 64.321645
4137 5 1 -48.617219 -61.828697 64.829552
4138 5 1 -49.362140 -61.577243 65.447504
4139 5 1 -50.261284 -61.421026 65.038681
4140 5 1 -50.859922 -60.685865 64.720606
4141 5 1 -50.318500 -60.242115 64.006500
4142 5 1 -49.663278 -59.977794 63.298815
4143 5 1 -50.528401 -59.486520 63.197769
4144 5 1 -51.120463 -60.139563 62.725543
4145 5 1 -50.269035 -59.854044 62.285601
4146 5 1 -49.436006 -59.367230 62.548421
4147 5 1 -49.600552 -59.150221 63.510622
4148 5 1 -48.602983 -59.201254 63.463160
4149 5 1 -49.166629 -58.710241 64.127396
4150 5 1 -49.377464 -58.793610 65.101357
4151 5 1 -50.073254 -59.435127 65.424361
4152 5 1 -49.526128 -60.125844 64.951536
4153 5 1 -49.066039 -59.435699 65.510123
4154 5 1 -48.494973 -58.983191 64.825199
4155 5 1 -47.518620 -58.946704 65.038279
4156 5 1 -48.020552 -58.830861 65.895393
4157 5 1 -47.099176 -59.219239 65.880273
4158 5 1 -46.652741 -58.594559 66.520952
4159 5 1 -45.816256 -58.248799 66.095812
4160 5 1 -46.364956 -58.496318 65.297274
4161 5 1 -45.541385 -58.997919 65.032460
4162 5 1 -44.667814 -58.794503 65.474609
4163 5 1 -45.397435 -59.229229 66.002497
4164 5 1 -45.719672 -60.115092 65.668716
4165 5 1 -46.621403 -60.158635 65.238616
4166 5 1 -46.936321 -60.899232 65.832200
4167 5 1 -47.009882 -61.352844 64.944042
4168 5 1 -47.801078 -61.287460 64.335986
4169 5 1 -48.216403 -60.451557 64.694833
4170 5 1 -48.489590 -60.515846 65.654644
4171 5 1 -49.338147 -60.703643 66.149298
4172 5 1 -49.156893 -61.591051 66.573154
4173 5 1 -49.071477 -61.019424 67.389210
4174 5 1 -49.540008 -61.372151 68.199187
4175 5 1 -49.859957 -60.992340 69.067159
4176 5 1 -50.140975 -60.313106 68.389169
4177 5 1 -50.112034 -60.509830 67.409138
4178 5 1 -50.564825 -60.311272 66.539911
4179 5 1 -50.231064 -61.216405 66.803231
4180 5 1 -50.202290 -62.149262 66.444135
4181 5 1 -49.730738 -62.802588 67.036422
4182 5 1 -49.238141 -63.562088 67.461284
4183 5 1 -49.895351 -64.073248 66.907397
4184 5 1 -49.289646 -64.438251 67.614429
4185 5 1 -49.004721 -65.382306 67.448360
4186 5 1 -48.747746 -65.275995 68.408913
4187 5 1 -47.860799 -64.843960 68.245603
4188 5 1 -46.973960 -64.448395 68.484445
4189 5 1 -46.581635 -64.541477 69.399550
4190 5 1 -45.618160 -64.478384 69.659811
4191 5 1 -45.594577 -64.174215 70.612137
4192 5 1 -45.014098 -64.775832 71.160863
4193 5 1 -44.018873 -64.769545 71.258275
4194 5 1 -44.268634 -65.706207 71.012746
4195 5 1 -43.583173 -66.121243 70.414509
4196 5 1 -43.086819 -65.455024 69.857926
4197 5 1 -42.878705 -64.661746 69.285738
4198 5 1 -42.259562 -65.364179 69.636808
4199 5 1 -41.717650 -65.426147 68.798660
4200 5 1 -41.328229 -65.424379 69.719719
4201 5 1 -40.631344 -65.435093 70.436821
4202 5 1 -40.037854 -66.140314 70.048966
4203 5 1 -39.455894 -65.590902 69.449408
4204 5 1 -39.183118 -64.650782 69.653776
4205 5 1 -38.568906 -63.876027 69.803772
4206 5 1 -38.451563 -64.221810 70.734720
4207 5 1 -37.766325 -63.748936 71.288651
4208 5 1 -37.285598 -63.976091 70.441714
4209 5 1 -37.813690 -63.168621 70.178824
4210 5 1 -37.532223 -62.906774 71.101978
4211 5 1 -37.546575 -62.268272 71.871464
4212 5 1 -38.428819 -62.738950 71.861046
4213 5 1 -39.394558 -62.623642 71.628555
4214 5 1 -38.801394 -61.852014 71.398888
4215 5 1 -38.175859 -61.119143 71.131296
4216 5 1 -38.710727 -61.003196 70.294353
4217 5 1 -39.654097 -61.168775 70.006890
4218 5 1 -40.478758 -60.770733 70.408757
4219 5 1 -41.439997 -61.030988 70.317732
4220 5 1 -41.121450 -60.874188 71.252580
4221 5 1 -41.820320 -61.558919 71.459276
4222 5 1 -40.884790 -61.888278 71.586973
4223 5 1 -40.485264 -61.886693 70.670253
4224 5 1 -40.451739 -62.293705 69.757445
4225 5 1 -40.971120 -62.872530 70.386098
4226 5 1 -40.715420 -63.516994 69.665485
4227 5 1 -40.430006 -64.395242 70.049176
4228 5 1 -40.655425 -64.707402 70.972075
4229 5 1 -40.468227 -63.742566 70.787551
4230 5 1 -41.434884 -63.996975 70.816708
4231 5 1 -41.932203 -64.533631 70.135038
4232 5 1 -42.158334 -63.565918 70.023705
4233 5 1 -41.441203 -62.983605 69.640775
4234 5 1 -42.298514 -62.676157 70.053682
4235 5 1 -42.809471 -62.940176 70.871740
4236 5 1 -42.881600 -63.181113 71.839596
4237 5 1 -42.318065 -63.939247 72.167714
4238 5 1 -42.240396 -63.501798 73.063597
4239 5 1 -43.173586 -63.854343 73.133374
4240 5 1 -43.027091 -62.930852 73.487922
4241 5 1 -42.179725 -62.493033 73.788400
4242 5 1 -41.927324 -61.532785 73.669163
4243 5 1 -42.337451 -61.886674 72.828593
4244 5 1 -42.467800 -61.855379 71.837619
4245 5 1 -43.160733 -62.266828 72.429694
4246 5 1 -43.747192 -62.898059 72.937250
4247 5 1 -44.724769 -62.719385 73.048697
4248 5 1 -44.665062 -61.721170 73.047802
4249 5 1 -45.205391 -61.125892 72.453085
4250 5 1 -45.560478 -60.206246 72.620909
4251 5 1 -45.691730 -59.725861 71.753728
4252 5 1 -44.888334 -60.308625 71.875956
4253 5 1 -44.042808 -59.791385 71.743482
4254 5 1 -44.065740 -59.355032 70.843999
4255 5 1 -44.789688 -59.328073 71.533326
4256 5 1 -44.656695 -59.961820 70.771304
4257 5 1 -44.785399 -60.248912 69.822087
4258 5 1 -44.934128 -59.303498 69.532133
4259 5 1 -44.394043 -58.575198 69.110367
4260 5 1 -45.337152 -58.294517 68.932145
4261 5 1 -45.859351 -57.829223 68.217435
4262 5 1 -45.864664 -56.924450 67.791573
4263 5 1 -46.771199 -57.244760 68.066520
4264 5 1 -47.139465 -56.884311 67.209515
4265 5 1 -46.800030 -56.230626 66.533143
4266 5 1 -46.710107 -56.781652 65.703514
4267 5 1 -46.233576 -57.251086 64.960177
4268 5 1 -46.138948 -57.368126 63.971568
4269 5 1 -45.751649 -56.534182 63.578458
4270 5 1 -46.557016 -56.096764 63.178394
4271 5 1 -47.528616 -56.310817 63.077528
4272 5 1 -46.900006 -57.007177 63.423841
4273 5 1 -47.505994 -57.776828 63.624875
4274 5 1 -46.774412 -57.752739 62.943548
4275 5 1 -47.455869 -58.367148 62.545909
4276 5 1 -48.264542 -58.056621 62.046288
4277 5 1 -48.364716 -57.061891 62.068124
4278 5 1 -49.229218 -56.566420 61.983601
4279 5 1 -50.092099 -56.100727 62.179985
4280 5 1 -49.724174 -55.592194 61.401509
4281 5 1 -50.678813 -55.499601 61.684511
4282 5 1 -50.947244 -56.304399 61.155129
4283 5 1 -51.372068 -56.325127 60.250090
4284 5 1 -52.256432 -56.210264 60.702536
4285 5 1 -52.763096 -55.443545 60.308287
4286 5 1 -53.143596 -54.594242 60.674217
4287 5 1 -54.092959 -54.907783 60.694281
4288 5 1 -54.838366 -54.605319 61.288321
4289 5 1 -55.360585 -55.254017 60.734715
4290 5 1 -55.324669 -56.252725 60.698785
4291 5 1 -56.137700 -56.632057 60.257096
4292 5 1 -56.306927 -57.516271 59.821748
4293 5 1 -57.135819 -56.988112 60.006100
4294 5 1 -58.089507 -56.915880 59.714104
4295 5 1 -57.922112 -55.943957 59.548746
4296 5 1 -57.955139 -55.131502 60.130834
4297 5 1 -58.465492 -54.436372 59.624538
4298 5 1 -58.119896 -53.500199 59.560174
4299 5 1 -58.981741 -53.668320 59.081678
4300 5 1 -59.342898 -53.263869 59.921907
4301 5 1 -58.585914 -53.558453 60.505168
4302 5 1 -59.290836 -52.863107 60.645093
4303 5 1 -59.254950 -52.873823 61.644391
4304 5 1 -58.695629 -53.670075 61.413865
4305 5 1 -58.187232 -53.189483 62.128403
4306 5 1 -58.570764 -54.014342 62.543749
4307 5 1 -58.552658 -53.580676 63.444641
4308 5 1 -57.785875 -53.345782 62.847257
4309 5 1 -58.307872 -52.537517 63.119704
4310 5 1 -57.316011 -52.645436 63.052137
4311 5 1 -56.545533 -52.017171 62.944223
4312 5 1 -56.323680 -52.677156 62.226448
4313 5 1 -57.272838 -52.362664 62.212493
4314 5 1 -57.022722 -53.274514 62.538026
4315 5 1 -56.665482 -53.799856 61.765759
4316 5 1 -57.519962 -54.149148 62.150282
4317 5 1 -56.569668 -54.266866 62.438522
4318 5 1 -55.733326 -53.890058 62.836702
4319 5 1 -55.471132 -53.753030 61.881465
4320 5 1 -56.004777 -54.571198 61.667401
4321 5 1 -55.894962 -55.341736 62.295264
4322 5 1 -55.005847 -55.289638 61.840554
4323 5 1 -55.374571 -56.191223 62.066798
4324 5 1 -56.318916 -56.135058 61.742672
4325 5 1 -56.887905 -55.716894 62.450761
4326 5 1 -57.760306 -55.326850 62.156173
4327 5 1 -57.812604 -55.194131 61.166400
4328 5 1 -58.489211 -55.890193 60.926191
4329 5 1 -58.254926 -56.795285 61.281040
4330 5 1 -57.820246 -55.972455 61.647104
4331 5 1 -57.492554 -56.085628 60.709123
4332 5 1 -56.814653 -55.485218 60.284908
4333 5 1 -56.521064 -54.654420 60.757752
4334 5 1 -56.134180 -53.781511 61.054990
4335 5 1 -55.612817 -53.922578 60.213395
4336 5 1 -56.197058 -53.504221 59.517953
4337 5 1 -57.185064 -53.368247 59.591138
4338 5 1 -56.794648 -53.144108 60.484075
4339 5 1 -57.155931 -52.667137 61.285308
4340 5 1 -57.596562 -51.847693 61.651854
4341 5 1 -57.792482 -51.546003 62.584913
4342 5 1 -57.731008 -50.864931 61.855282
4343 5 1 -58.528552 -51.203815 62.354362
4344 5 1 -58.669412 -52.174726 62.160738
4345 5 1 -58.479292 -51.919467 61.212742
4346 5 1 -58.791735 -51.076169 60.775446
4347 5 1 -59.180883 -51.828933 60.244493
4348 5 1 -59.206386 -51.013510 59.666189
4349 5 1 -59.798719 -50.614429 60.366101
4350 5 1 -59.548760 -51.050106 61.230801
4351 5 1 -59.721238 -51.615135 62.037643
4352 5 1 -60.176852 -50.810346 62.418075
4353 5 1 -59.924023 -50.541403 63.347455
4354 5 1 -60.678770 -51.186639 63.229011
4355 5 1 -60.365925 -52.118964 63.410387
4356 5 1 -59.973432 -51.690407 64.224198
4357 5 1 -60.641812 -52.133274 64.821807
4358 5 1 -59.965479 -52.365677 65.520778
4359 5 1 -60.287476 -52.511082 66.456286
4360 5 1 -60.331031 -51.517800 66.349079
4361 5 1 -60.591580 -51.122961 65.468048
4362 5 1 -60.999357 -51.260393 64.565368
4363 5 1 -61.853607 -51.122952 64.064004
4364 5 1 -61.635226 -50.381978 63.428970
4365 5 1 -62.337595 -49.717289 63.174281
4366 5 1 -62.872790 -49.298493 63.907886
4367 5 1 -62.056173 -48.773088 63.668958
4368 5 1 -62.622165 -48.527011 62.882130
4369 5 1 -62.876737 -49.458196 62.621194
4370 5 1 -63.832693 -49.684964 62.807541
4371 5 1 -64.559725 -49.441322 62.165618
4372 5 1 -63.723175 -48.896388 62.108773
4373 5 1 -63.199453 -49.443147 61.455498
4374 5 1 -62.749808 -48.577985 61.233430
4375 5 1 -62.230693 -47.960237 60.642747
4376 5 1 -63.088344 -47.935809 60.129095
4377 5 1 -63.930401 -47.396570 60.141813
4378 5 1 -64.630051 -48.011774 60.505151
4379 5 1 -63.719872 -47.935654 60.912311
4380 5 1 -63.482929 -47.921698 61.883734
4381 5 1 -64.469756 -47.914618 62.045360
4382 5 1 -64.701388 -47.338650 61.261391
4383 5 1 -65.202814 -47.036631 62.072165
4384 5 1 -65.453896 -46.700940 61.164272
4385 5 1 -65.926701 -46.385068 61.986878
4386 5 1 -64.957593 -46.204998 62.155414
4387 5 1 -64.375358 -46.952108 62.476087
4388 5 1 -63.652242 -47.358624 63.034520
4389 5 1 -63.720658 -48.279461 62.650621
4390 5 1 -63.161345 -48.041270 63.444620
4391 5 1 -63.941397 -48.257818 64.031669
4392 5 1 -64.376345 -47.360379 64.105303
4393 5 1 -64.374599 -46.405104 63.809589
4394 5 1 -64.293038 -46.241193 64.792687
4395 5 1 -63.324199 -46.085390 64.985240
4396 5 1 -63.309272 -47.018102 65.345553
4397 5 1 -64.118105 -46.602761 65.761823
4398 5 1 -64.298726 -46.423362 66.728876
4399 5 1 -65.242232 -46.683798 66.933742
4400 5 1 -65.135925 -46.164859 66.085567
4401 5 1 -65.523675 -45.815900 65.232409
4402 5 1 -65.545151 -45.191018 64.451985
4403 5 1 -65.225820 -46.138637 64.445206
4404 5 1 -65.149099 -47.015713 63.971020
4405 5 1 -65.648816 -46.796901 64.809116
4406 5 1 -66.562288 -46.449796 64.596780
4407 5 1 -67.188182 -47.030182 64.075810
4408 5 1 -67.420319 -47.934449 63.717462
4409 5 1 -68.022152 -48.732900 63.733931
4410 5 1 -68.787436 -48.093794 63.810635
4411 5 1 -68.958394 -49.028090 63.497802
4412 5 1 -68.652034 -49.530434 64.306377
4413 5 1 -67.836293 -49.693158 64.861433
4414 5 1 -68.288877 -48.867268 65.197698
4415 5 1 -67.659992 -48.103002 65.340523
4416 5 1 -66.966949 -48.782585 65.099984
4417 5 1 -66.986768 -49.273130 65.971174
4418 5 1 -66.112853 -49.020026 66.386158
4419 5 1 -65.951887 -49.910821 65.961216
4420 5 1 -65.182351 -50.549409 65.965603
4421 5 1 -65.768139 -51.351881 66.079134
4422 5 1 -66.046918 -52.020484 65.389748
4423 5 1 -66.725834 -51.448003 65.849462
4424 5 1 -66.747834 -50.453718 65.953930
4425 5 1 -66.625373 -50.181847 64.999420
4426 5 1 -67.079229 -50.928553 64.513165
4427 5 1 -68.077070 -50.892739 64.458109
4428 5 1 -67.502094 -51.670854 64.710972
4429 5 1 -66.746919 -51.983659 64.134896
4430 5 1 -66.228570 -52.727526 63.713024
4431 5 1 -67.022792 -52.829062 63.113939
4432 5 1 -66.999998 -53.114010 64.072211
4433 5 1 -67.392475 -54.016406 64.250096
4434 5 1 -68.013996 -53.852789 65.016216
4435 5 1 -67.928280 -54.635234 65.633008
4436 5 1 -68.063309 -55.367411 66.300604
4437 5 1 -67.859801 -54.439482 66.612907
4438 5 1 -67.535691 -53.727011 65.990542
4439 5 1 -68.435289 -53.478126 66.349401
4440 5 1 -68.606608 -53.228745 67.302533
4441 5 1 -67.901095 -53.932269 67.388013
4442 5 1 -67.855966 -54.929665 67.331762
4443 5 1 -67.647610 -54.629287 68.262547
4444 5 1 -67.706947 -55.626471 68.308419
4445 5 1 -66.757670 -55.586739 67.996496
4446 5 1 -66.826724 -55.668696 67.002255
4447 5 1 -66.048609 -56.286428 67.116035
4448 5 1 -66.372478 -56.379558 66.174528
4449 5 1 -67.363478 -56.359707 66.042139
4450 5 1 -67.180376 -55.393101 66.221432
4451 5 1 -66.474147 -55.643384 65.559164
4452 5 1 -67.231436 -56.141149 65.136382
4453 5 1 -66.745921 -55.476602 64.568356
4454 5 1 -67.241478 -54.735026 65.020561
4455 5 1 -66.264576 -54.577051 65.164455
4456 5 1 -65.910518 -53.903897 65.813691
4457 5 1 -65.019136 -54.338354 65.684519
4458 5 1 -65.035895 -54.305871 66.683850
4459 5 1 -65.000949 -53.438322 67.179973
4460 5 1 -65.866937 -53.861431 66.913431
4461 5 1 -65.852889 -54.843282 67.102566
4462 5 1 -66.609454 -54.398879 67.582270
4463 5 1 -66.112319 -54.564086 68.434069
4464 5 1 -66.344135 -55.231276 69.141967
4465 5 1 -66.352788 -56.022076 69.753980
4466 5 1 -66.011893 -55.911748 68.820375
4467 5 1 -65.115885 -55.511782 69.013239
4468 5 1 -64.157729 -55.519101 69.299391
4469 5 1 -64.928705 -55.831004 69.854649
4470 5 1 -64.691446 -56.727757 69.481097
4471 5 1 -65.657021 -56.771777 69.737469
4472 5 1 -65.868506 -57.111514 70.653904
4473 5 1 -64.907428 -56.983203 70.409229
4474 5 1 -64.219541 -56.282524 70.219860
4475 5 1 -64.263307 -55.741501 71.059728
4476 5 1 -64.516972 -55.700215 72.026139
4477 5 1 -65.090337 -55.720309 72.845192
4478 5 1 -64.100190 -55.656014 72.969590
4479 5 1 -63.276472 -56.222835 72.983834
4480 5 1 -63.274390 -56.364153 73.973797
4481 5 1 -62.675705 -56.977401 73.458528
4482 5 1 -61.725380 -56.684092 73.354356
4483 5 1 -61.078865 -56.342927 72.671989
4484 5 1 -61.339749 -55.547601 73.219159
4485 5 1 -61.633926 -55.082262 74.053977
4486 5 1 -61.422460 -54.116287 74.202889
4487 5 1 -60.654942 -54.484327 73.678042
4488 5 1 -59.746971 -54.851263 73.475692
4489 5 1 -59.772055 -55.814149 73.744430
4490 5 1 -59.185101 -56.469401 73.268900
4491 5 1 -59.641134 -57.337339 73.465665
4492 5 1 -59.997015 -57.119903 74.374549
4493 5 1 -59.166560 -57.086791 74.930649
4494 5 1 -58.762142 -56.489961 74.237655
4495 5 1 -58.731821 -57.378464 73.779786
4496 5 1 -57.783719 -57.559310 74.041313
4497 5 1 -57.576452 -58.533303 74.132842
4498 5 1 -57.228189 -59.276511 74.704116
4499 5 1 -58.047866 -59.418435 75.259082
4500 5 1 -58.655053 -59.203390 74.494176
4501 5 1 -59.562428 -58.889740 74.773987
4502 5 1 -59.272546 -59.006889 75.723852
4503 5 1 -60.248190 -59.092661 75.925749
4504 5 1 -60.955104 -58.877951 76.599672
4505 5 1 -61.217813 -59.001159 77.556648
4506 5 1 -61.507500 -58.800659 78.492533
4507 5 1 -60.544788 -59.041722 78.615306
4508 5 1 -60.404192 -58.612335 77.723196
4509 5 1 -61.087371 -57.933803 77.453269
4510 5 1 -60.534917 -57.537094 76.720182
4511 5 1 -59.663990 -57.386419 76.252438
4512 5 1 -58.944232 -56.793870 76.614147
4513 5 1 -58.540280 -57.313190 77.367227
4514 5 1 -57.556351 -57.490469 77.345901
4515 5 1 -57.124070 -56.618171 77.574439
4516 5 1 -58.004777 -56.470108 78.024364
4517 5 1 -58.147142 -57.249842 78.634075
4518 5 1 -59.083374 -57.571049 78.776534
4519 5 1 -59.588988 -57.778626 77.939118
4520 5 1 -59.138039 -58.293196 77.209828
4521 5 1 -58.764043 -58.333809 76.283288
4522 5 1 -57.929064 -57.986455 75.856492
4523 5 1 -58.652018 -57.855658 75.178090
4524 5 1 -57.933076 -57.177649 75.025033
4525 5 1 -58.276628 -56.383651 75.526570
4526 5 1 -59.170971 -56.115709 75.884842
4527 5 1 -59.813791 -56.219073 75.125831
4528 5 1 -60.554006 -56.665390 75.628705
4529 5 1 -61.524313 -56.458173 75.503946
4530 5 1 -61.522687 -55.633853 74.937823
4531 5 1 -62.234346 -55.618421 74.235468
4532 5 1 -62.287702 -55.428643 73.255092
4533 5 1 -63.286830 -55.449875 73.291025
4534 5 1 -63.954475 -55.961274 73.832063
4535 5 1 -63.525269 -55.904835 74.733505
4536 5 1 -62.687487 -55.721458 75.247794
4537 5 1 -63.030241 -56.639855 75.050143
4538 5 1 -63.777761 -57.261284 75.284751
4539 5 1 -63.962030 -57.783621 76.117342
4540 5 1 -64.309434 -58.716523 76.212234
4541 5 1 -63.698200 -58.253139 76.853848
4542 5 1 -64.352400 -58.589106 77.531452
4543 5 1 -65.115455 -58.220590 77.000469
4544 5 1 -65.803180 -58.818416 76.588596
4545 5 1 -65.989233 -57.849099 76.427944
4546 5 1 -66.000248 -58.019071 75.442557
4547 5 1 -66.408780 -57.114741 75.566207
4548 5 1 -66.880685 -56.818631 76.396644
4549 5 1 -66.442276 -56.305043 75.659063
4550 5 1 -67.394509 -56.003954 75.608109
4551 5 1 -66.849173 -55.785015 74.798990
4552 5 1 -66.387788 -56.574943 74.395086
4553 5 1 -66.099091 -56.854165 73.479286
4554 5 1 -66.813742 -56.399762 72.947503
4555 5 1 -66.778394 -55.698120 73.659155
4556 5 1 -65.845104 -55.339638 73.680586
4557 5 1 -65.755785 -54.391177 73.984634
4558 5 1 -65.016757 -54.882028 73.523219
4559 5 1 -64.898366 -53.889558 73.554635
4560 5 1 -65.473279 -53.690843 74.348351
4561 5 1 -65.381789 -52.741911 74.046427
4562 5 1 -65.469250 -51.841759 73.619722
4563 5 1 -64.875998 -52.007471 72.831945
4564 5 1 -64.299099 -51.233347 73.092558
4565 5 1 -64.048459 -51.300380 74.058314
4566 5 1 -64.554675 -51.645028 74.848860
4567 5 1 -64.100814 -50.820387 75.186465
4568 5 1 -63.205767 -51.042293 74.799620
4569 5 1 -63.615258 -51.695950 75.436055
4570 5 1 -63.063201 -51.584285 76.262351
4571 5 1 -62.849690 -52.240454 75.538572
4572 5 1 -62.268834 -52.694110 76.214444
4573 5 1 -61.676252 -52.973625 75.458985
4574 5 1 -61.386567 -53.181710 76.393213
4575 5 1 -60.415189 -53.195847 76.156093
4576 5 1 -59.436643 -53.146776 75.955996
4577 5 1 -58.606737 -52.597433 75.858631
4578 5 1 -57.835134 -51.965502 75.931377
4579 5 1 -57.035579 -52.505234 75.667937
4580 5 1 -57.391223 -52.390777 74.740351
4581 5 1 -58.090606 -51.784191 74.362306
4582 5 1 -58.428553 -51.182250 73.638802
4583 5 1 -57.429073 -51.162329 73.613471
4584 5 1 -57.827809 -50.424830 74.158544
4585 5 1 -58.148113 -50.093774 75.046129
4586 5 1 -58.740396 -50.847233 74.760645
4587 5 1 -59.623295 -50.652848 75.188084
4588 5 1 -60.336073 -49.951632 75.203735
4589 5 1 -60.468099 -50.135411 76.177796
4590 5 1 -61.112915 -49.373054 76.232773
4591 5 1 -60.654408 -49.079351 75.394018
4592 5 1 -61.466038 -49.557414 75.058291
4593 5 1 -62.032420 -49.468499 74.238959
4594 5 1 -61.143791 -49.054159 74.435583
4595 5 1 -60.179853 -48.809481 74.330913
4596 5 1 -59.921069 -49.772688 74.403450
4597 5 1 -59.827265 -49.188102 75.209340
4598 5 1 -59.015804 -49.104607 75.787751
4599 5 1 -59.639484 -48.600535 76.385190
4600 5 1 -59.196521 -49.102431 77.128078
4601 5 1 -59.807737 -49.814800 76.783194
4602 5 1 -59.475706 -50.753797 76.693531
4603 5 1 -60.386730 -51.153668 76.592839
4604 5 1 -60.792810 -50.493811 77.225047
4605 5 1 -60.328180 -49.626630 77.404255
4606 5 1 -59.379532 -49.887166 77.583667
4607 5 1 -59.379622 -49.477243 78.495787
4608 5 1 -58.777207 -49.041136 77.827276
4609 5 1 -58.546409 -49.747044 77.157630
4610 5 1 -58.094324 -50.505127 76.687599
4611 5 1 -57.187761 -50.208199 76.987562
4612 5 1 -56.435159 -49.657970 76.625847
4613 5 1 -55.740186 -50.142014 77.157554
4614 5 1 -55.060448 -49.408586 77.163874
4615 5 1 -55.425110 -49.032524 78.015695
4616 5 1 -56.114375 -48.308056 78.007935
4617 5 1 -55.291203 -48.212399 77.448258
4618 5 1 -54.841919 -48.692147 76.694611
4619 5 1 -55.689310 -48.205623 76.481954
4620 5 1 -55.162501 -48.377717 75.649574
4621 5 1 -54.778085 -48.937297 74.915344
4622 5 1 -55.755015 -49.039945 74.728068
4623 5 1 -56.672981 -48.648219 74.790426
4624 5 1 -56.810356 -49.274297 74.022862
4625 5 1 -56.470927 -48.657222 73.312928
4626 5 1 -55.898846 -48.260123 74.030587
4627 5 1 -55.633194 -47.776712 74.864700
4628 5 1 -56.457059 -47.209926 74.864907
4629 5 1 -57.281917 -47.532262 75.329351
4630 5 1 -57.001748 -47.352473 76.272315
4631 5 1 -56.426836 -46.647929 76.688362
4632 5 1 -56.797342 -45.734347 76.520749
4633 5 1 -57.491996 -45.761824 75.801930
4634 5 1 -57.807424 -46.474630 76.428360
4635 5 1 -58.233127 -45.760167 76.983624
4636 5 1 -58.352937 -46.751428 77.038820
4637 5 1 -58.381969 -47.122591 76.110707
4638 5 1 -58.803107 -48.028360 76.063543
4639 5 1 -59.716089 -47.650942 76.218523
4640 5 1 -59.214946 -47.842571 77.062403
4641 5 1 -59.972623 -47.206260 77.207432
4642 5 1 -60.746735 -47.771325 77.492832
4643 5 1 -61.565820 -48.082520 77.974763
4644 5 1 -62.399079 -48.579651 77.732814
4645 5 1 -62.261577 -49.314013 77.068130
4646 5 1 -62.677709 -50.221799 77.015591
4647 5 1 -62.451373 -50.562126 77.928252
4648 5 1 -62.477795 -49.607238 78.224039
4649 5 1 -63.006157 -49.388288 79.044341
4650 5 1 -63.387178 -50.311306 79.097829
4651 5 1 -63.264936 -49.975502 80.031795
4652 5 1 -63.068815 -50.383678 80.923383
4653 5 1 -63.987914 -50.692285 81.168369
4654 5 1 -63.284285 -50.651887 81.877787
4655 5 1 -63.966926 -51.341607 82.119219
4656 5 1 -64.873077 -51.022312 81.841837
4657 5 1 -64.761673 -51.629664 81.055254
4658 5 1 -65.596167 -51.160109 80.766917
4659 5 1 -65.814767 -51.150828 79.791147
4660 5 1 -64.912823 -51.423668 79.456401
4661 5 1 -64.762196 -52.410062 79.522263
4662 5 1 -64.232750 -51.711882 80.004168
4663 5 1 -64.122173 -51.531936 79.026726
4664 5 1 -64.758424 -52.163872 78.584187
4665 5 1 -65.500205 -51.574649 78.904461
4666 5 1 -65.717470 -52.036438 78.044492
4667 5 1 -65.837980 -52.772422 77.378305
4668 5 1 -66.235639 -53.682219 77.497206
4669 5 1 -65.287452 -53.863639 77.236384
4670 5 1 -65.406997 -54.417913 76.412679
4671 5 1 -66.287366 -54.230339 76.848301
4672 5 1 -66.703021 -53.595930 76.196568
4673 5 1 -67.069029 -52.855576 75.632729
4674 5 1 -68.023747 -52.774252 75.346549
4675 5 1 -67.227824 -52.744023 74.741906
4676 5 1 -66.780747 -52.484382 73.885922
4677 5 1 -66.981218 -51.511354 73.771777
4678 5 1 -67.594162 -52.162876 73.324765
4679 5 1 -67.630228 -53.147346 73.496572
4680 5 1 -68.016270 -54.040187 73.264610
4681 5 1 -68.910324 -54.017420 72.817231
4682 5 1 -69.826193 -54.194187 72.456763
4683 5 1 -69.649434 -53.463940 73.116684
4684 5 1 -70.062970 -52.561295 72.997432
4685 5 1 -70.896952 -52.263836 73.462181
4686 5 1 -70.338279 -51.536190 73.064165
4687 5 1 -70.185832 -51.416826 74.045241
4688 5 1 -69.243570 -51.447656 74.378696
4689 5 1 -68.790267 -51.828957 75.184380
4690 5 1 -69.582181 -51.232617 75.315729
4691 5 1 -70.190230 -50.777636 75.966320
4692 5 1 -70.567983 -50.672774 75.046370
4693 5 1 -70.547193 -51.672544 75.051560
4694 5 1 -71.295734 -51.922407 75.665771
4695 5 1 -70.384821 -52.320685 75.558003
4696 5 1 -69.876421 -51.859460 76.285190
4697 5 1 -68.965376 -51.451321 76.343673
4698 5 1 -69.417643 -51.209008 77.202007
4699 5 1 -68.837884 -50.628259 76.630509
4700 5 1 -68.234065 -51.399079 76.833584
4701 5 1 -67.619027 -50.614779 76.752328
4702 5 1 -66.866941 -50.597049 77.411155
4703 5 1 -66.935113 -50.765045 78.394582
4704 5 1 -67.559384 -50.272231 79.000734
4705 5 1 -68.082641 -50.649988 78.236861
4706 5 1 -68.042621 -51.570839 77.849005
4707 5 1 -67.665961 -51.739616 78.759851
4708 5 1 -67.071709 -51.868111 79.553799
4709 5 1 -66.342678 -52.516362 79.334063
4710 5 1 -66.026789 -51.980229 80.116863
4711 5 1 -66.315657 -52.804228 80.604285
4712 5 1 -66.849289 -53.342334 79.951845
4713 5 1 -67.222959 -52.889624 79.142262
4714 5 1 -67.308932 -53.123006 78.173685
4715 5 1 -66.499749 -53.465419 78.651155
4716 5 1 -65.676582 -53.159814 78.172615
4717 5 1 -64.717029 -53.215885 77.896725
4718 5 1 -63.759531 -53.368116 78.141718
4719 5 1 -63.762870 -52.389499 77.936055
4720 5 1 -64.303637 -52.572920 77.115124
4721 5 1 -64.481162 -52.813355 76.160830
4722 5 1 -64.082644 -51.898644 76.227805
4723 5 1 -64.773818 -51.425895 76.774419
4724 5 1 -65.134309 -51.009867 77.609265
4725 5 1 -66.083214 -51.268172 77.427998
4726 5 1 -66.548825 -51.215568 76.544573
4727 5 1 -66.901552 -52.109229 76.821981
4728 5 1 -66.399597 -52.715359 76.205015
4729 5 1 -66.157533 -52.302307 75.327066
4730 5 1 -65.761524 -53.110217 75.763482
4731 5 1 -65.204217 -52.632596 75.084301
4732 5 1 -65.379255 -51.687693 74.807681
4733 5 1 -66.282424 -51.367590 75.093724
4734 5 1 -65.670519 -50.634681 74.796374
4735 5 1 -66.414738 -50.178398 75.284170
4736 5 1 -66.277358 -50.212658 76.274096
4737 5 1 -65.355217 -49.837729 76.369407
4738 5 1 -65.566719 -49.052638 76.951558
4739 5 1 -65.719995 -49.988195 77.269741
4740 5 1 -65.793089 -50.032167 78.266096
4741 5 1 -66.424579 -49.873933 79.025163
4742 5 1 -65.472850 -49.865020 79.331974
4743 5 1 -64.492567 -50.062505 79.325240
4744 5 1 -64.402468 -50.784507 80.011240
4745 5 1 -65.008426 -50.040101 80.291732
4746 5 1 -64.698775 -49.090116 80.332290
4747 5 1 -65.183105 -48.690790 81.110726
4748 5 1 -65.059769 -48.669035 82.102853
4749 5 1 -65.460651 -48.271696 82.928331
4750 5 1 -66.367342 -48.624487 83.159524
4751 5 1 -66.922583 -48.785471 83.975484
4752 5 1 -66.998515 -48.377090 84.885132
4753 5 1 -67.647488 -48.243733 85.634165
4754 5 1 -66.996300 -47.951490 86.334556
4755 5 1 -67.866154 -47.780601 86.797321
4756 5 1 -68.105706 -47.967238 87.750097
4757 5 1 -67.830927 -48.874313 87.431173
4758 5 1 -68.530949 -49.573358 87.285213
4759 5 1 -68.334820 -50.335054 86.667676
4760 5 1 -67.985340 -51.264008 86.789777
4761 5 1 -68.375143 -50.908321 85.940341
4762 5 1 -69.286250 -50.899455 86.352414
4763 5 1 -68.878418 -51.634554 85.810841
4764 5 1 -69.050772 -52.212993 86.608151
4765 5 1 -69.660404 -52.848586 86.134473
4766 5 1 -70.652720 -52.729226 86.101884
4767 5 1 -71.065357 -53.533146 85.673581
4768 5 1 -70.078993 -53.683468 85.740595
4769 5 1 -70.172595 -54.068324 86.658813
4770 5 1 -70.684579 -54.736006 86.118375
4771 5 1 -70.251531 -55.100518 86.942754
4772 5 1 -70.598845 -54.838582 87.843177
4773 5 1 -70.004254 -54.034682 87.857552
4774 5 1 -69.297278 -53.397265 87.551145
4775 5 1 -69.424101 -53.805920 88.454980
4776 5 1 -68.971568 -54.164032 89.271662
4777 5 1 -68.854690 -54.995689 88.728813
4778 5 1 -67.917104 -55.328762 88.628837
4779 5 1 -67.340523 -56.098791 88.355692
4780 5 1 -66.825668 -56.856948 87.955538
4781 5 1 -67.801031 -57.076939 87.939055
4782 5 1 -67.148322 -57.824965 88.059169
4783 5 1 -67.449026 -58.426710 87.319250
4784 5 1 -66.774643 -58.700725 88.004906
4785 5 1 -67.534520 -59.342354 87.900514
4786 5 1 -67.181139 -59.250785 86.969527
4787 5 1 -66.492328 -59.845743 86.555325
4788 5 1 -66.939336 -60.255317 85.760069
4789 5 1 -67.026402 -59.264727 85.865665
4790 5 1 -67.475454 -59.948320 86.441037
4791 5 1 -67.823192 -59.171410 85.916166
4792 5 1 -68.177531 -59.372359 86.829437
4793 5 1 -68.347485 -58.753590 87.596405
4794 5 1 -68.961817 -59.534929 87.706428
4795 5 1 -69.759255 -59.750093 87.142693
4796 5 1 -69.156288 -60.229716 86.505203
4797 5 1 -68.396277 -60.769636 86.866960
4798 5 1 -69.007522 -61.406290 87.337121
4799 5 1 -68.999814 -61.142495 88.301668
4800 5 1 -69.763232 -60.934329 87.690227
4801 5 1 -70.279838 -60.922688 88.546371
4802 5 1 -69.444495 -61.097451 89.067581
4803 5 1 -69.170109 -60.495941 89.817846
4804 5 1 -68.403277 -59.856055 89.867988
4805 5 1 -69.064279 -59.120522 89.719441
4806 5 1 -69.425953 -59.725724 90.428611
4807 5 1 -69.048725 -60.354464 91.108601
4808 5 1 -69.778654 -61.037763 91.091083
4809 5 1 -70.512355 -61.708216 90.980737
4810 5 1 -70.065122 -62.047574 91.808275
4811 5 1 -69.558130 -62.706567 91.252677
4812 5 1 -69.214657 -62.494771 92.167646
4813 5 1 -69.786267 -63.270525 92.434981
4814 5 1 -70.697755 -63.676191 92.366976
4815 5 1 -69.906840 -64.286216 92.318787
4816 5 1 -69.849487 -64.260536 91.320763
4817 5 1 -69.747425 -64.771625 90.467316
4818 5 1 -69.347874 -65.634539 90.157901
4819 5 1 -68.638805 -66.053331 89.590597
4820 5 1 -69.215388 -65.525955 88.966557
4821 5 1 -69.178576 -64.536155 88.828929
4822 5 1 -68.729647 -63.841848 89.391424
4823 5 1 -69.690426 -63.608144 89.540707
4824 5 1 -69.030237 -63.763154 90.275637
4825 5 1 -68.770199 -63.109617 90.986461
4826 5 1 -68.369590 -62.626597 90.207870
4827 5 1 -69.327334 -62.901930 90.291044
4828 5 1 -69.318920 -62.869913 89.291592
4829 5 1 -69.344152 -63.555645 88.564176
4830 5 1 -69.399067 -64.178658 87.783894
4831 5 1 -69.603872 -63.226575 87.556753
4832 5 1 -70.469310 -63.246976 87.056152
4833 5 1 -70.706105 -64.091656 87.536197
4834 5 1 -70.122571 -64.503474 86.836273
4835 5 1 -69.572344 -65.183371 86.351515
4836 5 1 -69.687385 -66.098019 85.963978
4837 5 1 -70.081562 -66.364891 86.843412
4838 5 1 -70.355754 -66.759270 87.720500
4839 5 1 -69.486477 -66.407211 88.067505
4840 5 1 -69.690735 -66.782965 88.971434
4841 5 1 -69.471046 -67.724384 89.227302
4842 5 1 -69.337499 -68.119965 90.135972
4843 5 1 -68.496034 -67.954879 89.621498
4844 5 1 -68.047742 -67.110636 89.327749
4845 5 1 -67.378462 -67.807406 89.069725
4846 5 1 -67.637180 -68.766230 89.186865
4847 5 1 -68.602687 -68.670160 88.944859
4848 5 1 -68.132344 -69.151448 89.684549
4849 5 1 -68.390597 -70.116371 89.731766
4850 5 1 -69.077993 -69.995871 90.447982
4851 5 1 -69.960229 -70.423317 90.250628
4852 5 1 -69.875488 -70.168864 89.287263
4853 5 1 -69.391495 -69.306996 89.438706
4854 5 1 -69.588916 -69.330782 88.458675
4855 5 1 -69.772178 -68.897696 87.576150
4856 5 1 -69.341367 -68.358648 86.852390
4857 5 1 -69.557283 -68.147148 85.899159
4858 5 1 -69.980546 -67.394227 86.403103
4859 5 1 -69.460559 -67.567965 87.239422
4860 5 1 -68.904569 -68.036054 87.926276
4861 5 1 -68.180226 -67.965810 87.240424
4862 5 1 -68.103905 -68.939951 87.027764
4863 5 1 -68.083573 -69.907702 86.776678
4864 5 1 -67.636034 -70.440259 86.058282
4865 5 1 -67.507698 -71.431672 86.083393
4866 5 1 -66.863727 -72.189858 85.981141
4867 5 1 -67.531917 -71.903095 85.294636
4868 5 1 -66.987468 -72.735186 85.188806
4869 5 1 -66.416973 -71.915565 85.241315
4870 5 1 -65.683880 -72.361753 84.728002
4871 5 1 -66.087279 -73.215736 85.056610
4872 5 1 -65.260488 -73.440556 85.572239
4873 5 1 -64.299259 -73.199783 85.437824
4874 5 1 -64.849586 -72.642699 84.815894
4875 5 1 -65.116101 -73.260530 84.076127
4876 5 1 -64.580499 -73.782181 83.412040
4877 5 1 -63.950359 -73.020518 83.563016
4878 5 1 -63.504050 -73.828364 83.178058
4879 5 1 -63.875839 -74.196618 82.325907
4880 5 1 -64.389392 -74.253416 81.469732
4881 5 1 -65.198084 -74.524891 81.991575
4882 5 1 -64.400655 -75.016775 82.341085
4883 5 1 -65.005787 -74.460131 82.910261
4884 5 1 -64.192888 -74.480686 83.492304
4885 5 1 -64.234623 -75.205713 84.179759
4886 5 1 -63.279159 -75.001086 84.392404
4887 5 1 -62.910510 -74.479277 85.161697
4888 5 1 -63.901222 -74.475086 85.297610
4889 5 1 -63.875837 -73.632480 84.759677
4890 5 1 -62.945370 -73.303331 84.598769
4891 5 1 -62.779889 -72.597702 85.287756
4892 5 1 -62.607020 -72.970497 86.199425
4893 5 1 -63.508760 -73.086284 85.782942
4894 5 1 -63.693553 -72.250822 85.265394
4895 5 1 -63.920863 -72.802440 84.462869
4896 5 1 -64.436353 -71.951965 84.358170
4897 5 1 -63.845063 -71.351436 83.819894
4898 5 1 -64.670533 -70.790353 83.881418
4899 5 1 -64.694869 -69.929922 84.390404
4900 5 1 -64.728389 -70.722345 84.999454
4901 5 1 -64.303327 -71.545018 85.376988
4902 5 1 -65.294640 -71.497621 85.254299
4903 5 1 -65.926383 -71.761032 85.983350
4904 5 1 -65.621574 -70.808778 85.965926
4905 5 1 -65.956784 -70.030546 86.496953
4906 5 1 -65.464582 -69.886571 87.355445
4907 5 1 -65.135637 -69.372487 88.147602
4908 5 1 -65.905996 -69.758573 88.655031
4909 5 1 -66.699177 -69.805765 89.262186
4910 5 1 -67.579558 -69.861667 89.733146
4911 5 1 -67.285762 -70.126653 90.651550
4912 5 1 -66.697337 -70.575141 91.324317
4913 5 1 -66.648740 -69.642642 90.966430
4914 5 1 -67.110708 -70.003056 91.776793
4915 5 1 -67.575551 -69.139779 91.580138
4916 5 1 -68.443761 -69.610957 91.424569
4917 5 1 -68.399471 -70.143774 92.269640
4918 5 1 -68.881699 -69.270082 92.333818
4919 5 1 -69.553527 -69.109171 93.056837
4920 5 1 -69.360309 -68.507601 93.831937
4921 5 1 -68.835391 -68.887623 94.593544
4922 5 1 -69.314790 -68.444087 95.350811
4923 5 1 -70.024771 -67.764969 95.537155
4924 5 1 -70.275358 -67.826903 94.571044
4925 5 1 -69.989415 -67.558411 93.651181
4926 5 1 -69.748122 -66.781683 94.232963
4927 5 1 -70.426448 -66.111220 93.932375
4928 5 1 -70.907177 -65.728342 94.721238
4929 5 1 -70.231470 -65.320542 94.107138
4930 5 1 -71.079380 -64.838192 94.327106
4931 5 1 -71.861138 -64.639125 93.736152
4932 5 1 -70.934982 -64.486299 93.391365
4933 5 1 -70.672329 -65.131883 92.674262
4934 5 1 -69.919583 -65.303127 92.038614
4935 5 1 -70.080056 -65.609814 92.976799
4936 5 1 -70.135732 -66.420843 92.394448
4937 5 1 -70.157326 -67.084097 91.646366
4938 5 1 -70.833579 -67.558757 91.083000
4939 5 1 -70.901319 -67.158909 90.168925
4940 5 1 -71.694671 -66.566721 90.310015
4941 5 1 -72.213138 -67.187438 90.898150
4942 5 1 -73.212132 -67.206009 90.938978
4943 5 1 -73.699009 -68.076276 91.013716
4944 5 1 -74.328801 -67.992565 90.241476
4945 5 1 -74.791431 -67.319979 89.663894
4946 5 1 -75.686758 -67.083985 89.286141
4947 5 1 -75.117601 -66.669101 88.576259
4948 5 1 -75.306835 -67.414080 87.936574
4949 5 1 -76.267866 -67.146030 87.868994
4950 5 1 -76.824121 -67.966012 88.003937
4951 5 1 -77.564007 -68.139215 87.353883
4952 5 1 -77.160346 -68.971797 86.974586
4953 5 1 -77.996102 -68.823868 86.445786
4954 5 1 -78.537489 -69.621520 86.179979
4955 5 1 -79.285277 -70.271518 86.044650
4956 5 1 -79.276702 -69.275232 85.958976
4957 5 1 -79.090073 -68.624191 86.694716
4958 5 1 -79.645286 -69.454957 86.734274
4959 5 1 -79.078449 -69.148671 87.499052
4960 5 1 -79.570698 -69.381555 88.337775
4961 5 1 -79.877341 -68.896316 89.156624
4962 5 1 -80.149813 -68.429935 88.315050
4963 5 1 -80.621112 -68.641444 87.458813
4964 5 1 -80.744406 -69.614589 87.264423
4965 5 1 -81.403507 -69.959168 86.595953
4966 5 1 -81.815641 -70.189870 87.477385
4967 5 1 -82.468778 -70.357891 86.739022
4968 5 1 -83.212620 -70.125485 86.112374
4969 5 1 -83.154047 -69.200565 85.736751
4970 5 1 -83.367281 -68.969063 86.685928
4971 5 1 -82.380241 -69.123561 86.642556
4972 5 1 -82.475120 -68.446047 87.371921
4973 5 1 -82.416177 -67.873090 86.554458
4974 5 1 -81.672736 -68.247834 87.108410
4975 5 1 -81.279048 -68.476750 87.998695
4976 5 1 -81.357063 -69.043786 88.818685
4977 5 1 -81.818389 -68.218731 89.144970
4978 5 1 -81.684606 -68.374478 90.123666
4979 5 1 -82.042284 -67.642821 90.703963
4980 5 1 -81.577421 -67.307670 91.523460
4981 5 1 -82.365838 -66.892585 91.977446
4982 5 1 -82.862681 -66.045412 91.789178
4983 5 1 -83.853202 -66.170584 91.732619
4984 5 1 -84.376483 -66.777576 92.330731
4985 5 1 -84.133649 -67.092785 91.413303
4986 5 1 -84.971477 -66.826730 90.936586
4987 5 1 -85.356469 -66.368479 90.135470
4988 5 1 -85.363733 -66.563433 89.154685
4989 5 1 -84.612886 -66.994224 88.654038
4990 5 1 -83.974022 -66.536094 88.036000
4991 5 1 -84.777280 -66.101818 87.628346
4992 5 1 -84.229092 -65.338360 87.969848
4993 5 1 -83.476910 -64.763245 87.648189
4994 5 1 -83.101825 -65.680753 87.780440
4995 5 1 -82.235203 -65.185542 87.719347
4996 5 1 -81.766433 -64.468507 88.235211
4997 5 1 -82.746333 -64.658613 88.174748
4998 5 1 -82.594147 -65.340874 88.889842
4999 5 1 -83.445090 -65.644690 89.318319
5000 5 1 -84.425388 -65.831912 89.255359
5001 6 1 -0.076094 -94.395304 91.138852
5002 6 1 -0.294144 -93.878013 91.966417
5003 6 1 -0.719142 -94.599524 92.513041
5004 6 1 0.152312 -94.911749 92.891304
5005 6 1 0.042721 -95.272996 93.817312
5006 6 1 0.972535 -95.494315 93.523266
5007 6 1 0.440527 -96.200891 93.989868
5008 6 1 0.311877 -97.187372 94.091381
5009 6 1 0.354692 -96.886085 95.043953
5010 6 1 0.305420 -97.165089 96.002977
5011 6 1 0.098721 -96.224672 96.272960
5012 6 1 0.058736 -95.292156 96.631870
5013 6 1 -0.222882 -94.418721 96.234626
5014 6 1 0.490083 -93.827710 96.611967
5015 6 1 0.830055 -94.745054 96.819086
5016 6 1 0.441891 -94.464725 97.697007
5017 6 1 -0.206182 -95.217528 97.581726
5018 6 1 -0.502785 -95.781509 98.352409
5019 6 1 -1.106193 -96.445224 98.794428
5020 6 1 -1.934784 -96.946701 98.545514
5021 6 1 -1.382171 -97.772849 98.655499
5022 6 1 -1.300241 -98.495557 99.341779
5023 6 1 -2.026621 -99.178472 99.419235
5024 6 1 -2.886132 -99.570205 99.747544
5025 6 1 -2.272282 -99.852742 99.010413
5026 6 1 -1.299839 -99.623328 98.968885
5027 6 1 -1.587106 -99.729124 99.920875
5028 6 1 -0.708641 -99.428374 99.549595
5029 6 1 -0.021654 -99.681685 98.868506
5030 6 1 -0.287491 -99.052142 98.138434
5031 6 1 -0.647891 -98.149313 98.372982
5032 6 1 0.177116 -97.985198 98.913749
5033 6 1 0.942491 -97.870072 99.546953
5034 6 1 0.840163 -98.861604 99.466992
5035 6 1 1.645123 -98.300560 99.660045
5036 6 1 1.535605 -97.909354 98.746281
5037 6 1 0.751712 -98.059850 98.143900
5038 6 1 0.690363 -99.057942 98.150907
5039 6 1 0.908338 -99.889226 98.662233
5040 6 1 0.238749 -99.749052 97.932848
5041 6 1 0.721206 -99.554009 97.078920
5042 6 1 0.220957 -99.178874 96.298520
5043 6 1 -0.010818 -98.390310 96.868123
5044 6 1 0.971557 -98.556526 96.782615
5045 6 1 1.175351 -97.583024 96.678866
5046 6 1 1.179963 -96.702993 96.203973
5047 6 1 1.639778 -96.190985 95.478426
5048 6 1 1.438430 -95.392026 94.911749
5049 6 1 1.478039 -94.506230 94.449367
5050 6 1 1.257310 -94.216606 93.518025
5051 6 1 1.509101 -93.913107 92.599065
5052 6 1 2.029551 -93.591506 91.808049
5053 6 1 1.932220 -93.043343 90.977360
5054 6 1 1.277192 -92.914444 91.721889
5055 6 1 0.376678 -93.329392 91.591916
5056 6 1 -0.499388 -92.934709 91.314908
5057 6 1 -0.687997 -93.058053 92.289183
5058 6 1 0.269634 -93.321489 92.405569
5059 6 1 -0.403672 -93.345072 93.144557
5060 6 1 -0.490677 -92.362787 93.310529
5061 6 1 -0.481772 -91.370873 93.183931
5062 6 1 -1.117164 -90.695582 93.558441
5063 6 1 -1.031791 -90.252107 92.666229
5064 6 1 -1.091749 -89.524854 91.982484
5065 6 1 -0.151702 -89.216097 91.837635
5066 6 1 -0.991578 -88.696648 91.995051
5067 6 1 -1.880669 -89.066309 92.264992
5068 6 1 -1.144562 -88.669783 92.813547
5069 6 1 -1.612569 -87.790982 92.720388
5070 6 1 -2.440546 -87.638886 92.180646
5071 6 1 -2.982161 -87.206602 92.901606
5072 6 1 -3.388678 -87.155700 93.813830
5073 6 1 -4.044248 -86.498899 94.186443
5074 6 1 -3.045172 -86.456751 94.177940
5075 6 1 -2.774656 -87.387912 94.422398
5076 6 1 -3.488361 -88.040672 94.676422
5077 6 1 -3.557080 -87.154898 95.135423
5078 6 1 -3.708497 -86.345327 95.702580
5079 6 1 -2.756581 -86.068411 95.571535
5080 6 1 -1.890727 -85.638023 95.316457
5081 6 1 -2.238765 -84.974935 95.979166
5082 6 1 -1.918954 -85.836939 96.372446
5083 6 1 -1.265963 -85.177219 96.000464
5084 6 1 -0.782454 -84.380777 95.637283
5085 6 1 0.077498 -84.630900 95.192401
5086 6 1 -0.573242 -84.109965 94.639983
5087 6 1 -0.466286 -83.692580 93.737570
5088 6 1 -0.640402 -82.820010 93.281165
5089 6 1 0.264818 -82.411239 93.165046
5090 6 1 -0.361988 -81.684947 93.447203
5091 6 1 -1.286730 -81.591344 93.078297
5092 6 1 -2.136976 -81.509462 93.598275
5093 6 1 -2.100535 -81.563017 92.600375
5094 6 1 -1.875012 -80.604557 92.425752
5095 6 1 -2.301874 -79.770078 92.774227
5096 6 1 -2.225645 -79.106132 92.030343
5097 6 1 -1.965468 -79.652815 91.234450
5098 6 1 -2.700708 -78.995795 91.067877
5099 6 1 -3.583558 -78.625787 90.778619
5100 6 1 -4.390174 -78.338114 90.262271
5101 6 1 -5.075974 -79.033017 90.045966
5102 6 1 -5.160349 -78.166641 89.553752
5103 6 1 -4.501621 -77.415257 89.592487
5104 6 1 -4.687568 -76.485401 89.909962
5105 6 1 -5.379612 -76.799315 89.259937
5106 6 1 -4.858268 -77.076926 88.453009
5107 6 1 -5.088370 -77.348206 87.518419
5108 6 1 -5.654257 -76.568994 87.248976
5109 6 1 -5.901361 -76.916299 88.153586
5110 6 1 -5.817873 -77.812868 87.718621
5111 6 1 -6.698884 -77.339774 87.717233
5112 6 1 -7.430734 -76.690652 87.509782
5113 6 1 -7.089707 -76.163870 88.288371
5114 6 1 -6.659506 -75.906423 89.153616
5115 6 1 -7.208076 -75.201111 89.602622
5116 6 1 -6.246018 -74.942479 89.689538
5117 6 1 -6.235399 -74.611993 90.633289
5118 6 1 -6.491397 -75.519033 90.967568
5119 6 1 -7.110366 -74.911313 91.465116
5120 6 1 -8.087455 -74.830638 91.268168
5121 6 1 -8.345413 -74.734832 90.306774
5122 6 1 -7.863872 -75.555134 90.615357
5123 6 1 -7.808966 -75.915201 91.546666
5124 6 1 -8.603492 -75.929892 90.939614
5125 6 1 -9.398203 -76.536532 90.960189
5126 6 1 -10.317398 -76.881228 90.769756
5127 6 1 -10.792755 -77.198831 91.590221
5128 6 1 -10.244507 -76.831841 92.341714
5129 6 1 -10.903444 -76.234691 91.884316
5130 6 1 -11.618082 -76.868703 91.588815
5131 6 1 -11.874759 -75.916505 91.754455
5132 6 1 -11.400847 -76.284616 92.554394
5133 6 1 -12.357092 -76.018171 92.675234
5134 6 1 -12.543774 -75.139523 92.235772
5135 6 1 -12.765607 -74.323524 92.769565
5136 6 1 -12.432402 -75.118909 93.275863
5137 6 1 -12.428240 -75.585732 94.160204
5138 6 1 -11.644132 -75.609217 93.540025
5139 6 1 -11.589520 -76.323955 94.237281
5140 6 1 -12.322420 -76.893923 93.865806
5141 6 1 -12.923159 -76.323788 93.305398
5142 6 1 -13.292618 -76.308876 92.376270
5143 6 1 -13.958855 -76.417568 93.114046
5144 6 1 -14.734432 -77.031387 93.261375
5145 6 1 -15.130677 -76.273985 92.742403
5146 6 1 -14.976481 -75.307276 92.538202
5147 6 1 -14.322155 -75.049403 93.249088
5148 6 1 -13.418584 -75.248312 93.628555
5149 6 1 -13.180420 -74.832045 94.506051
5150 6 1 -13.041700 -73.942024 94.940356
5151 6 1 -13.119489 -74.001214 93.945145
5152 6 1 -13.689671 -73.901247 93.129731
5153 6 1 -14.069004 -73.660386 94.023092
5154 6 1 -14.654304 -73.197122 94.688532
5155 6 1 -15.368178 -72.758605 95.234505
5156 6 1 -15.815341 -71.964987 95.647077
5157 6 1 -15.117397 -71.785112 96.340272
5158 6 1 -14.748775 -71.066590 96.930055
5159 6 1 -15.259666 -70.641202 96.183037
5160 6 1 -16.237278 -70.625047 96.392834
5161 6 1 -16.255839 -71.583056 96.678971
5162 6 1 -17.075635 -71.036268 96.849138
5163 6 1 -17.019133 -70.497030 97.689394
5164 6 1 -17.323600 -71.449534 97.683533
5165 6 1 -17.047644 -72.399459 97.536930
5166 6 1 -16.382598 -72.760894 96.883417
5167 6 1 -15.848670 -73.605135 96.836751
5168 6 1 -16.103598 -74.555007 96.655770
5169 6 1 -15.436836 -75.260891 96.894846
5170 6 1 -15.911560 -75.714744 97.648937
5171 6 1 -16.009600 -75.713445 98.644119
5172 6 1 -16.253314 -74.747429 98.557994
5173 6 1 -16.860872 -75.488102 98.844835
5174 6 1 -16.681516 -76.297941 99.403398
5175 6 1 -15.840392 -76.475547 99.914247
5176 6 1 -16.110842 -75.598628 99.516920
5177 6 1 -15.307716 -75.288038 99.008468
5178 6 1 -14.902998 -74.378370 98.915154
5179 6 1 -14.704629 -74.895744 99.747604
5180 6 1 -14.717619 -73.899225 99.665259
5181 6 1 -14.658787 -72.905728 99.567780
5182 6 1 -13.770429 -73.330803 99.741358
5183 6 1 -14.251976 -73.581754 98.901635
5184 6 1 -14.605250 -73.011162 98.160270
5185 6 1 -15.347966 -73.111251 98.822354
5186 6 1 -16.003575 -73.861452 98.736479
5187 6 1 -16.557908 -74.070882 99.541994
5188 6 1 -17.105436 -74.492854 98.819392
5189 6 1 -17.796210 -73.782534 98.954586
5190 6 1 -17.785194 -72.984054 98.352666
5191 6 1 -18.473521 -72.440984 97.871749
5192 6 1 -19.213135 -72.739686 97.268633
5193 6 1 -19.004426 -72.944405 98.224944
5194 6 1 -19.491762 -73.004830 99.096065
5195 6 1 -18.909919 -73.137097 99.898539
5196 6 1 -18.723838 -74.061866 99.566610
5197 6 1 -17.989038 -73.514565 99.967271
5198 6 1 -17.757970 -74.464306 99.756082
5199 6 1 -17.946450 -75.231145 99.142540
5200 6 1 -18.924167 -75.021224 99.140708
5201 6 1 -18.469468 -74.249859 98.695461
5202 6 1 -19.011890 -74.501366 97.893886
5203 6 1 -18.180506 -75.035150 98.048399
5204 6 1 -18.411678 -75.449813 97.168277
5205 6 1 -18.713916 -76.186859 96.563782
5206 6 1 -18.938185 -76.263745 97.535271
5207 6 1 -19.155043 -75.287979 97.506061
5208 6 1 -20.033304 -74.970683 97.863804
5209 6 1 -20.380959 -75.906922 97.914715
5210 6 1 -21.260335 -76.378752 97.850876
5211 6 1 -20.553694 -76.775888 97.265264
5212 6 1 -20.872451 -77.034336 96.353343
5213 6 1 -21.272028 -76.122141 96.262576
5214 6 1 -22.045193 -76.494986 96.775608
5215 6 1 -22.019877 -76.807918 97.725046
5216 6 1 -21.780798 -77.110626 98.647656
5217 6 1 -21.310719 -76.926347 99.510829
5218 6 1 -20.343822 -76.708673 99.377677
5219 6 1 -20.041291 -77.507695 98.858024
5220 6 1 -20.334719 -78.463624 98.848071
5221 6 1 -20.327410 -79.245025 98.224084
5222 6 1 -20.310003 -78.541311 97.513814
5223 6 1 -20.362747 -78.615592 96.517973
5224 6 1 -20.457825 -79.327952 97.213317
5225 6 1 -20.135036 -80.157353 96.757353
5226 6 1 -19.821750 -81.000279 97.194762
5227 6 1 -20.256105 -81.895030 97.091046
5228 6 1 -19.293563 -81.782787 97.337853
5229 6 1 -18.747276 -80.947137 97.280760
5230 6 1 -18.918210 -80.848092 96.300469
5231 6 1 -18.586077 -80.273614 95.552363
5232 6 1 -17.783114 -79.892324 96.010477
5233 6 1 -16.792920 -79.938758 96.142236
5234 6 1 -16.543369 -79.734180 95.195730
5235 6 1 -15.712936 -79.420412 95.656091
5236 6 1 -16.322967 -78.705232 95.997234
5237 6 1 -16.687492 -77.844827 96.353360
5238 6 1 -17.461917 -77.485067 95.832938
5239 6 1 -17.560317 -76.688397 96.429288
5240 6 1 -18.011394 -76.603970 97.317771
5241 6 1 -17.683427 -75.887246 97.933193
5242 6 1 -17.147136 -76.431619 97.288173
5243 6 1 -16.977645 -75.515265 97.650896
5244 6 1 -16.549286 -76.284179 98.125533
5245 6 1 -16.154363 -77.044385 98.641403
5246 6 1 -15.656317 -76.341403 98.133696
5247 6 1 -15.694407 -76.779604 97.235627
5248 6 1 -15.199810 -76.916113 96.377292
5249 6 1 -14.338311 -76.655745 96.813213
5250 6 1 -13.778095 -76.941500 96.035715
5251 6 1 -13.272885 -76.362399 95.395867
5252 6 1 -13.119431 -75.616632 94.747575
5253 6 1 -13.294772 -76.394830 94.144530
5254 6 1 -13.676842 -77.098810 93.545836
5255 6 1 -13.330019 -77.616276 94.328103
5256 6 1 -12.700554 -78.281361 93.926311
5257 6 1 -12.563712 -78.776840 93.068539
5258 6 1 -11.836618 -79.253802 93.562343
5259 6 1 -12.652054 -79.764293 93.289464
5260 6 1 -11.844964 -80.051848 93.805137
5261 6 1 -12.628611 -79.517862 94.122560
5262 6 1 -12.745774 -80.508322 94.195100
5263 6 1 -13.329133 -81.223957 94.579235
5264 6 1 -13.372564 -80.827915 95.496440
5265 6 1 -13.647663 -80.639637 96.439240
5266 6 1 -13.563035 -79.726430 96.040629
5267 6 1 -12.857801 -79.067822 95.778177
5268 6 1 -12.069720 -78.453304 95.814175
5269 6 1 -12.527958 -78.038125 95.028271
5270 6 1 -13.427250 -78.472485 94.977240
5271 6 1 -14.122012 -79.183348 95.086698
5272 6 1 -14.610070 -79.167084 94.214038
5273 6 1 -13.680288 -79.533499 94.249333
5274 6 1 -14.401189 -79.945159 94.806860
5275 6 1 -15.242674 -79.436432 94.624925
5276 6 1 -15.360908 -79.241114 93.651338
5277 6 1 -14.538278 -79.808283 93.691314
5278 6 1 -13.995667 -80.545680 94.093581
5279 6 1 -13.570838 -80.229885 94.941987
5280 6 1 -14.145799 -80.522832 95.705925
5281 6 1 -14.204806 -81.383675 96.211363
5282 6 1 -14.678763 -80.515466 96.358260
5283 6 1 -15.074041 -79.615426 96.174730
5284 6 1 -14.490275 -79.454614 96.970567
5285 6 1 -15.361539 -79.062303 97.265509
5286 6 1 -14.928159 -79.949142 97.425817
5287 6 1 -14.144272 -80.486973 97.115561
5288 6 1 -13.704376 -79.650789 97.443109
5289 6 1 -13.935581 -80.453354 97.993048
5290 6 1 -14.486189 -81.267200 98.178755
5291 6 1 -14.987561 -80.421637 98.362196
5292 6 1 -14.631007 -79.508089 98.557896
5293 6 1 -15.305114 -79.718343 99.265973
5294 6 1 -14.833797 -80.588764 99.408198
5295 6 1 -14.043412 -81.106914 99.735018
5296 6 1 -14.076148 -80.107459 99.730797
5297 6 1 -13.292046 -80.447655 99.211711
5298 6 1 -12.938982 -80.583509 98.286028
5299 6 1 -12.110971 -81.008460 97.920222
5300 6 1 -11.595244 -81.830153 98.162803
5301 6 1 -11.009960 -82.340259 98.793068
5302 6 1 -10.759809 -81.640059 99.461756
5303 6 1 -10.304544 -80.759454 99.330338
5304 6 1 -10.602155 -80.565496 98.395561
5305 6 1 -11.314284 -79.866493 98.330230
5306 6 1 -11.408766 -80.519614 97.578894
5307 6 1 -10.770836 -79.749895 97.554871
5308 6 1 -11.698900 -79.664909 97.192276
5309 6 1 -11.267584 -78.898134 96.716857
5310 6 1 -11.132970 -77.926514 96.911368
5311 6 1 -11.641693 -77.093527 97.128930
5312 6 1 -12.350332 -76.912048 96.447098
5313 6 1 -12.256843 -76.243331 95.709482
5314 6 1 -11.627942 -76.565957 95.002096
5315 6 1 -10.761189 -76.336443 94.559304
5316 6 1 -10.247329 -77.124003 94.219162
5317 6 1 -10.936635 -77.769011 93.889279
5318 6 1 -11.400369 -77.085806 93.325204
5319 6 1 -11.296876 -77.178827 92.334933
5320 6 1 -11.822421 -77.828659 92.884042
5321 6 1 -12.548975 -77.159969 93.042070
5322 6 1 -12.632373 -77.940894 92.423039
5323 6 1 -13.497579 -78.162029 91.973018
5324 6 1 -14.223615 -77.490911 91.823114
5325 6 1 -14.466374 -76.568480 92.123429
5326 6 1 -14.348799 -76.908567 91.190414
5327 6 1 -13.658798 -76.898680 91.914155
5328 6 1 -13.908489 -77.511109 92.664211
5329 6 1 -13.364058 -78.163610 93.191314
5330 6 1 -13.446228 -79.044661 93.657144
5331 6 1 -14.353451 -79.018224 93.237325
5332 6 1 -15.214413 -78.745693 92.807824
5333 6 1 -15.971633 -79.397740 92.845930
5334 6 1 -15.649692 -80.344181 92.821360
5335 6 1 -15.122709 -80.732187 92.065225
5336 6 1 -14.503341 -80.798524 91.282932
5337 6 1 -15.195124 -80.096347 91.114458
5338 6 1 -16.166102 -80.137200 91.350112
5339 6 1 -16.103108 -81.044755 90.934930
5340 6 1 -16.469967 -81.107614 91.863081
5341 6 1 -16.547306 -81.099065 92.860049
5342 6 1 -16.882740 -82.027196 93.021467
5343 6 1 -17.021055 -81.739756 93.969226
5344 6 1 -17.022760 -82.308961 94.791421
5345 6 1 -16.690916 -81.374142 94.917882
5346 6 1 -16.389011 -80.916948 95.754439
5347 6 1 -17.257070 -81.097927 96.216738
5348 6 1 -17.895350 -81.071197 96.986077
5349 6 1 -18.365469 -81.786346 96.468824
5350 6 1 -17.841925 -82.353441 95.832974
5351 6 1 -18.152803 -82.039040 94.936031
5352 6 1 -18.940549 -82.278800 95.503456
5353 6 1 -19.474945 -83.028400 95.112916
5354 6 1 -19.507850 -84.026025 95.052408
5355 6 1 -19.184015 -83.643897 94.186897
5356 6 1 -18.333049 -83.706090 93.665372
5357 6 1 -17.920618 -84.405774 94.248761
5358 6 1 -17.209461 -84.955592 93.810634
5359 6 1 -16.870511 -85.896047 93.836267
5360 6 1 -17.143742 -86.688290 94.381881
5361 6 1 -17.504771 -86.719672 95.313907
5362 6 1 -17.378469 -87.576360 94.813774
5363 6 1 -16.572333 -88.141477 94.638316
5364 6 1 -15.823641 -88.290124 95.284353
5365 6 1 -15.609881 -87.621336 95.996413
5366 6 1 -14.988371 -87.874846 96.737668
5367 6 1 -14.961404 -88.619930 96.071243
5368 6 1 -15.185320 -89.454828 96.574042
5369 6 1 -14.778888 -89.122607 97.425184
5370 6 1 -13.989840 -88.943665 96.837491
5371 6 1 -13.322861 -88.302749 96.457537
5372 6 1 -12.779067 -89.137142 96.547404
5373 6 1 -13.512699 -88.944410 95.895762
5374 6 1 -13.266993 -89.370945 95.025304
5375 6 1 -14.017124 -89.796988 95.531061
5376 6 1 -14.929921 -89.392179 95.585214
5377 6 1 -15.802486 -88.958120 95.809320
5378 6 1 -15.704116 -89.888103 95.455125
5379 6 1 -15.068723 -89.544701 94.763497
5380 6 1 -14.324771 -88.995979 95.144863
5381 6 1 -14.271507 -88.083164 95.549748
5382 6 1 -14.932027 -87.339757 95.444586
5383 6 1 -15.523493 -86.749868 94.894861
5384 6 1 -14.815490 -86.226384 95.368882
5385 6 1 -13.900487 -86.602571 95.223101
5386 6 1 -12.909820 -86.682833 95.333267
5387 6 1 -12.281800 -86.149966 95.900404
5388 6 1 -12.054953 -87.098930 96.119509
5389 6 1 -12.635927 -87.831982 95.765808
5390 6 1 -12.398322 -88.452825 95.018749
5391 6 1 -11.983412 -88.771631 95.870930
5392 6 1 -11.330850 -89.176729 95.230572
5393 6 1 -11.455855 -89.633187 96.111492
5394 6 1 -10.637148 -89.669288 96.684568
5395 6 1 -9.957704 -90.244164 96.228636
5396 6 1 -9.903195 -89.920578 95.284008
5397 6 1 -9.657908 -90.825562 95.631627
5398 6 1 -9.254382 -91.361337 94.889932
5399 6 1 -9.154756 -91.605897 93.925430
5400 6 1 -9.290285 -91.394365 92.957501
5401 6 1 -9.735611 -92.236494 92.653357
5402 6 1 -10.636575 -92.584191 92.912915
5403 6 1 -11.540288 -92.782106 92.533265
5404 6 1 -10.737526 -92.652998 91.951110
5405 6 1 -11.717228 -92.560885 91.773066
5406 6 1 -11.449938 -93.475212 92.077304
5407 6 1 -10.510247 -93.634050 92.380209
5408 6 1 -10.919611 -93.888542 91.504049
5409 6 1 -11.045830 -94.577169 90.790003
5410 6 1 -11.057858 -95.566124 90.937728
5411 6 1 -10.492340 -95.055212 90.290304
5412 6 1 -10.024427 -94.627484 91.063677
5413 6 1 -9.715216 -95.565442 90.906759
5414 6 1 -9.948228 -95.134860 91.778713
5415 6 1 -10.877311 -94.783055 91.664532
5416 6 1 -11.550418 -95.522569 91.657813
5417 6 1 -11.128565 -95.456893 92.562095
5418 6 1 -11.513346 -95.751715 93.436752
5419 6 1 -12.397658 -95.291342 93.514536
5420 6 1 -11.807024 -94.610455 93.947599
5421 6 1 -12.162343 -94.185764 93.114901
5422 6 1 -12.821749 -94.421338 92.400976
5423 6 1 -12.620279 -93.552869 91.948018
5424 6 1 -12.227416 -94.394564 91.577603
5425 6 1 -13.033104 -94.909938 91.285617
5426 6 1 -12.564466 -94.887677 90.402508
5427 6 1 -13.079568 -95.668517 90.049013
5428 6 1 -13.248275 -94.844953 89.507459
5429 6 1 -12.590106 -94.167593 89.178830
5430 6 1 -12.855828 -93.989300 88.231411
5431 6 1 -13.592621 -94.540424 88.623071
5432 6 1 -13.746622 -94.763892 87.660603
5433 6 1 -14.396964 -94.248386 87.102653
5434 6 1 -14.744047 -93.563799 86.461658
5435 6 1 -14.643857 -92.998751 85.642706
5436 6 1 -13.946567 -93.274842 84.981222
5437 6 1 -14.785145 -93.550807 84.511509
5438 6 1 -14.082274 -93.872126 83.876901
5439 6 1 -14.986676 -94.068054 83.497864
5440 6 1 -14.074833 -94.407007 83.266233
5441 6 1 -14.487049 -94.187453 82.381996
5442 6 1 -14.226277 -95.152239 82.347562
5443 6 1 -14.731073 -96.001319 82.503266
5444 6 1 -14.938572 -95.304834 81.816350
5445 6 1 -15.338883 -94.514561 82.280266
5446 6 1 -15.963679 -94.416636 81.505643
5447 6 1 -16.934907 -94.654122 81.487843
5448 6 1 -17.512170 -94.081648 82.070114
5449 6 1 -17.277851 -94.717189 82.805765
5450 6 1 -17.213809 -95.665364 82.494538
5451 6 1 -18.063676 -95.475295 82.986065
5452 6 1 -18.792090 -94.807581 82.832536
5453 6 1 -18.906107 -94.550219 83.792101
5454 6 1 -19.052276 -93.697868 84.294229
5455 6 1 -19.877521 -94.191432 84.568758
5456 6 1 -20.224677 -93.296705 84.849732
5457 6 1 -20.117942 -93.594026 83.900939
5458 6 1 -20.354360 -94.536843 83.665988
5459 6 1 -21.230858 -94.448918 84.139298
5460 6 1 -21.528817 -93.540651 84.433016
5461 6 1 -21.505906 -92.856404 85.161907
5462 6 1 -22.183696 -92.523357 84.506408
5463 6 1 -21.964040 -91.907467 85.263000
5464 6 1 -22.941254 -92.099511 85.353404
5465 6 1 -23.938048 -92.019902 85.361334
5466 6 1 -24.529252 -91.946441 84.558165
5467 6 1 -24.883003 -92.006339 83.624745
5468 6 1 -25.243955 -92.715678 83.019309
5469 6 1 -25.986218 -92.065739 82.856140
5470 6 1 -25.931407 -92.539207 81.977037
5471 6 1 -26.122852 -92.083657 81.107656
5472 6 1 -26.774853 -91.654219 80.482774
5473 6 1 -25.825265 -91.778993 80.195172
5474 6 1 -25.237166 -91.072791 79.800942
5475 6 1 -25.466261 -90.354593 80.457987
5476 6 1 -25.496080 -91.007618 81.214737
5477 6 1 -25.090903 -90.270164 81.755101
5478 6 1 -24.301805 -90.205447 82.365950
5479 6 1 -24.234420 -90.840685 81.596578
5480 6 1 -23.239194 -90.852120 81.693506
5481 6 1 -23.034141 -90.762984 80.718822
5482 6 1 -22.544854 -91.549333 81.095987
5483 6 1 -21.942046 -90.830133 80.750484
5484 6 1 -21.448522 -90.555618 79.925210
5485 6 1 -20.703691 -89.888438 79.915310
5486 6 1 -21.411178 -89.983877 80.615562
5487 6 1 -21.299661 -89.776379 81.587420
5488 6 1 -20.750625 -89.832107 82.421359
5489 6 1 -21.583210 -90.114046 82.898133
5490 6 1 -21.809891 -90.708018 83.670022
5491 6 1 -20.982232 -91.187319 83.962000
5492 6 1 -20.259720 -90.828626 84.553029
5493 6 1 -20.978270 -90.363457 85.070044
5494 6 1 -21.945575 -90.590726 85.182610
5495 6 1 -22.515568 -89.840367 85.517379
5496 6 1 -22.290480 -89.375132 84.661288
5497 6 1 -22.387662 -89.039720 83.724242
5498 6 1 -22.174857 -88.353305 84.419619
5499 6 1 -22.627757 -88.314196 85.310322
5500 6 1 -23.366583 -88.783807 85.793645
5501 6 1 -24.357645 -88.747525 85.922020
5502 6 1 -24.170379 -88.966943 84.964531
5503 6 1 -23.579984 -89.596581 84.459566
5504 6 1 -24.212338 -89.767393 83.703953
5505 6 1 -23.243850 -89.962844 83.549586
5506 6 1 -22.762401 -90.793772 83.828451
5507 6 1 -22.941312 -90.778159 82.844710
5508 6 1 -23.836001 -90.646077 83.271425
5509 6 1 -24.047766 -91.263832 82.514104
5510 6 1 -23.644446 -92.033274 83.009372
5511 6 1 -22.926443 -91.476600 83.427208
5512 6 1 -22.138696 -91.867184 83.903547
5513 6 1 -23.076738 -91.721587 84.217996
5514 6 1 -23.387088 -92.533338 84.712712
5515 6 1 -23.856362 -92.948706 85.491975
5516 6 1 -24.164876 -93.760814 84.996696
5517 6 1 -25.108562 -93.967108 85.255345
5518 6 1 -26.038066 -93.828309 85.597043
5519 6 1 -25.491756 -93.690845 86.423269
5520 6 1 -26.464891 -93.719604 86.651699
5521 6 1 -27.349629 -93.392668 86.983892
5522 6 1 -27.462398 -92.977896 87.886803
5523 6 1 -26.472111 -92.950852 87.750414
5524 6 1 -26.304665 -93.885840 87.437749
5525 6 1 -26.531438 -94.729699 87.924036
5526 6 1 -27.252020 -94.531604 87.259566
5527 6 1 -26.487689 -94.857358 86.703075
5528 6 1 -26.156743 -94.768375 85.763630
5529 6 1 -25.779502 -95.443981 86.397070
5530 6 1 -25.047285 -96.101660 86.220108
5531 6 1 -25.155278 -96.755401 86.969081
5532 6 1 -26.056684 -96.551046 86.587366
5533 6 1 -26.038395 -97.023044 85.705956
5534 6 1 -25.251406 -97.498440 86.099207
5535 6 1 -24.466187 -97.659372 86.697147
5536 6 1 -24.286625 -98.599046 86.988298
5537 6 1 -24.622826 -98.691695 86.051076
5538 6 1 -25.415873 -99.298170 85.993940
5539 6 1 -25.630468 -98.878042 85.112214
5540 6 1 -26.093913 -98.121996 85.574398
5541 6 1 -25.649676 -98.392337 86.428547
5542 6 1 -25.005267 -99.088462 86.745009
5543 6 1 -25.199171 -98.447408 87.487607
5544 6 1 -24.400705 -98.794996 87.979169
5545 6 1 -24.792020 -99.715252 87.980345
5546 6 1 -24.382832 -99.267415 88.775335
5547 6 1 -25.316323 -99.019983 88.515771
5548 6 1 -24.885981 -98.127645 88.379614
5549 6 1 -24.007751 -98.439779 88.741946
5550 6 1 -24.855369 -98.580969 89.253423
5551 6 1 -23.945652 -98.329376 89.583751
5552 6 1 -24.037220 -97.423473 89.997219
5553 6 1 -24.748380 -97.337957 90.695028
5554 6 1 -25.122581 -97.687871 89.836230
5555 6 1 -25.454904 -96.756261 89.983414
5556 6 1 -25.918218 -96.641200 90.862106
5557 6 1 -26.326974 -97.229097 90.164040
5558 6 1 -27.322868 -97.231244 90.073539
5559 6 1 -27.042083 -96.351545 90.457324
5560 6 1 -27.628711 -95.860046 89.813665
5561 6 1 -26.860556 -96.484657 89.672953
5562 6 1 -27.581308 -97.057154 89.282102
5563 6 1 -28.262300 -96.769320 88.608751
5564 6 1 -28.276937 -97.411735 87.842534
5565 6 1 -29.074153 -97.937507 87.545868
5566 6 1 -29.888522 -98.112584 86.992558
5567 6 1 -29.816379 -98.267509 86.007270
5568 6 1 -30.582005 -97.766186 85.604166
5569 6 1 -29.618723 -97.556086 85.436999
5570 6 1 -28.660075 -97.675247 85.178550
5571 6 1 -28.966817 -97.477064 84.247619
5572 6 1 -28.446572 -98.284030 83.968066
5573 6 1 -28.846152 -99.197424 83.890301
5574 6 1 -28.957406 -98.762303 84.783773
5575 6 1 -29.906880 -98.449586 84.757144
5576 6 1 -29.573639 -98.281855 83.829342
5577 6 1 -29.939598 -97.354088 83.756381
5578 6 1 -30.090152 -97.774764 82.861750
5579 6 1 -30.720711 -97.452439 83.567797
5580 6 1 -30.811318 -97.286574 84.549774
5581 6 1 -31.486001 -97.965637 84.839042
5582 6 1 -30.986425 -98.134600 83.989409
5583 6 1 -31.417319 -99.019399 83.812041
5584 6 1 -31.831392 -99.536115 84.561407
5585 6 1 -31.940508 -98.643073 84.997950
5586 6 1 -32.387479 -97.757558 85.124754
5587 6 1 -33.140557 -97.271387 85.568051
5588 6 1 -34.056836 -97.574952 85.306744
5589 6 1 -34.747800 -96.855355 85.237829
5590 6 1 -35.415889 -97.384930 84.715137
5591 6 1 -35.909792 -97.928855 84.036752
5592 6 1 -36.213606 -96.988232 83.885347
5593 6 1 -36.584207 -96.062461 83.960207
5594 6 1 -35.948753 -95.904314 83.204437
5595 6 1 -36.132170 -95.928313 82.221695
5596 6 1 -36.904032 -96.546550 82.073332
5597 6 1 -36.806487 -96.392469 81.090100
5598 6 1 -35.987683 -95.819047 81.117440
5599 6 1 -35.137864 -96.170705 81.510053
5600 6 1 -34.604968 -97.004705 81.366998
5601 6 1 -34.289590 -96.801615 82.293978
5602 6 1 -33.765638 -97.408273 82.891840
5603 6 1 -34.424991 -98.125802 83.116349
5604 6 1 -34.843963 -98.840742 83.676103
5605 6 1 -34.898887 -99.642407 84.271348
5606 6 1 -35.893192 -99.558248 84.336731
5607 6 1 -36.491542 -99.883968 85.068772
5608 6 1 -36.364347 -99.326216 85.888975
5609 6 1 -36.822034 -98.509042 85.538620
5610 6 1 -36.779721 -98.496907 84.539589
5611 6 1 -37.399454 -98.577447 83.758920
5612 6 1 -37.703161 -98.745807 84.696692
5613 6 1 -38.081358 -99.138882 85.534820
5614 6 1 -38.894039 -99.198772 84.955197
5615 6 1 -38.989477 -98.323263 85.428879
5616 6 1 -38.348125 -97.620418 85.121182
5617 6 1 -38.945716 -96.822578 85.041591
5618 6 1 -38.210991 -97.095735 84.420652
5619 6 1 -38.928956 -97.683335 84.047487
5620 6 1 -38.864586 -98.439800 83.396628
5621 6 1 -37.983247 -98.174042 83.005971
5622 6 1 -37.680501 -97.594933 83.762924
5623 6 1 -38.260503 -96.922332 83.303353
5624 6 1 -38.975247 -96.309048 82.967164
5625 6 1 -39.921000 -96.006293 82.849304
5626 6 1 -39.196091 -95.445459 83.249269
5627 6 1 -39.360467 -94.669690 83.858500
5628 6 1 -39.702072 -94.597987 84.795604
5629 6 1 -38.924675 -94.255762 85.323370
5630 6 1 -39.837795 -93.866805 85.445538
5631 6 1 -40.136373 -92.920051 85.325093
5632 6 1 -40.913476 -93.549197 85.342021
5633 6 1 -41.151444 -92.866213 86.032603
5634 6 1 -40.243418 -92.762256 86.438413
5635 6 1 -40.089797 -92.178619 87.235764
5636 6 1 -39.302010 -92.640253 87.643545
5637 6 1 -39.173987 -91.903127 88.307062
5638 6 1 -39.090531 -92.577190 89.041006
5639 6 1 -38.629362 -93.458320 88.936441
5640 6 1 -37.908720 -93.008521 89.464036
5641 6 1 -38.344217 -92.134123 89.677974
5642 6 1 -37.748065 -92.380165 88.913733
5643 6 1 -37.561285 -91.686368 89.609261
5644 6 1 -36.980195 -91.280834 90.314865
5645 6 1 -36.164200 -91.662010 89.880289
5646 6 1 -35.996287 -92.640498 89.760423
5647 6 1 -35.350535 -93.296517 90.151118
5648 6 1 -35.438262 -93.366446 89.157431
5649 6 1 -35.057492 -94.222814 89.506212
5650 6 1 -34.250673 -94.789361 89.338678
5651 6 1 -34.191562 -94.968554 90.320715
5652 6 1 -34.804234 -94.178562 90.344094
5653 6 1 -33.925988 -93.846204 90.000259
5654 6 1 -34.392176 -92.967285 90.101113
5655 6 1 -33.797816 -92.264215 89.710691
5656 6 1 -34.549314 -92.310451 89.052577
5657 6 1 -34.590055 -91.812576 89.918869
5658 6 1 -35.113349 -90.960476 89.928287
5659 6 1 -34.379560 -90.419103 90.338737
5660 6 1 -34.684510 -89.468565 90.279720
5661 6 1 -34.449585 -88.771477 90.957126
5662 6 1 -34.637739 -87.935487 90.441647
5663 6 1 -33.722979 -87.562877 90.285522
5664 6 1 -33.961631 -86.853158 90.948353
5665 6 1 -33.511941 -87.683143 91.278360
5666 6 1 -33.700792 -88.395453 90.602380
5667 6 1 -32.855764 -88.898549 90.421211
5668 6 1 -31.986702 -88.455579 90.200965
5669 6 1 -31.153522 -88.082695 90.609339
5670 6 1 -30.188072 -87.850859 90.490343
5671 6 1 -29.945560 -88.584284 89.855304
5672 6 1 -30.783477 -88.528534 89.312362
5673 6 1 -30.548738 -87.571881 89.484733
5674 6 1 -29.574181 -87.495314 89.695391
5675 6 1 -29.816271 -88.273276 89.115592
5676 6 1 -30.344572 -89.089835 88.882934
5677 6 1 -29.938285 -89.375258 88.014910
5678 6 1 -30.887600 -89.673179 87.914689
5679 6 1 -30.993319 -90.639669 88.148613
5680 6 1 -31.860936 -90.143037 88.124169
5681 6 1 -32.362374 -89.388451 88.547442
5682 6 1 -31.434377 -89.041371 88.682932
5683 6 1 -31.560943 -89.971698 89.027132
5684 6 1 -30.751037 -90.223391 89.556945
5685 6 1 -29.773926 -90.010733 89.562533
5686 6 1 -29.094514 -90.556799 90.052647
5687 6 1 -28.875286 -91.385443 90.567707
5688 6 1 -28.306035 -91.184845 89.770390
5689 6 1 -27.834837 -90.968882 88.915211
5690 6 1 -28.826252 -90.993201 88.786745
5691 6 1 -29.265240 -90.994355 87.888252
5692 6 1 -29.023336 -91.638871 87.162938
5693 6 1 -28.808442 -92.026536 86.266536
5694 6 1 -27.932818 -91.677678 86.600576
5695 6 1 -27.439734 -90.807709 86.605107
5696 6 1 -27.582735 -91.003281 87.575314
5697 6 1 -27.548681 -90.037595 87.317843
5698 6 1 -28.180082 -90.326134 88.037619
5699 6 1 -28.654097 -90.873197 87.347668
5700 6 1 -28.593072 -90.344611 86.500985
5701 6 1 -27.907688 -89.642051 86.309523
5702 6 1 -28.693718 -89.065113 86.087487
5703 6 1 -27.988426 -89.001520 85.381427
5704 6 1 -28.909979 -89.321374 85.161350
5705 6 1 -28.341969 -88.981483 84.411792
5706 6 1 -28.310989 -89.979851 84.459761
5707 6 1 -29.163202 -90.495559 84.371563
5708 6 1 -29.916296 -90.787297 84.961256
5709 6 1 -30.230177 -91.691349 84.671140
5710 6 1 -29.893338 -92.242439 85.434580
5711 6 1 -30.393964 -93.084967 85.235779
5712 6 1 -30.985220 -93.053178 86.041636
5713 6 1 -30.978570 -92.346563 86.749204
5714 6 1 -30.740680 -92.270874 87.717542
5715 6 1 -31.573167 -92.494447 88.224474
5716 6 1 -30.833235 -92.153027 88.804071
5717 6 1 -31.371740 -92.518590 89.563266
5718 6 1 -32.029437 -92.406893 90.308222
5719 6 1 -32.761151 -93.054822 90.096606
5720 6 1 -33.096051 -92.491915 90.852237
5721 6 1 -33.863807 -91.916021 91.133123
5722 6 1 -34.797751 -92.203690 91.345241
5723 6 1 -34.752388 -92.482151 92.304617
5724 6 1 -34.942329 -91.506863 92.191765
5725 6 1 -35.932492 -91.368679 92.213737
5726 6 1 -36.670004 -92.007252 92.433508
5727 6 1 -36.994190 -91.568660 91.595331
5728 6 1 -36.661971 -91.074629 92.398801
5729 6 1 -37.461268 -91.105440 92.998947
5730 6 1 -38.267740 -91.696559 92.985498
5731 6 1 -38.624824 -91.477302 92.077523
5732 6 1 -39.064546 -92.276034 91.666827
5733 6 1 -39.446071 -92.060370 90.767979
5734 6 1 -40.423139 -92.273211 90.761876
5735 6 1 -40.439227 -92.336253 89.763995
5736 6 1 -41.385015 -92.084196 89.968820
5737 6 1 -41.617141 -91.319177 90.569538
5738 6 1 -40.692465 -91.122221 90.243681
5739 6 1 -40.184302 -90.768815 89.458268
5740 6 1 -40.137318 -89.795434 89.682593
5741 6 1 -40.305289 -89.212298 90.477413
5742 6 1 -40.967982 -89.711341 89.919027
5743 6 1 -41.618514 -90.019738 90.613074
5744 6 1 -41.044719 -90.699430 91.069996
5745 6 1 -41.213917 -91.573705 91.524984
5746 6 1 -41.324257 -92.138438 92.342848
5747 6 1 -41.136597 -92.988952 91.851513
5748 6 1 -40.549318 -92.417889 92.425091
5749 6 1 -39.977105 -92.506119 93.240436
5750 6 1 -39.296722 -93.060183 93.720115
5751 6 1 -38.305201 -92.951652 93.648658
5752 6 1 -37.566948 -92.365528 93.982487
5753 6 1 -37.334491 -91.442953 94.290412
5754 6 1 -38.145602 -91.265016 94.847582
5755 6 1 -38.600272 -90.594175 95.433455
5756 6 1 -38.923898 -91.538439 95.373189
5757 6 1 -38.979053 -92.205270 96.116354
5758 6 1 -38.437571 -92.303922 96.951258
5759 6 1 -39.181549 -91.748139 97.322206
5760 6 1 -40.102957 -92.126225 97.232434
5761 6 1 -39.638262 -92.678364 97.924677
5762 6 1 -39.162105 -93.557704 97.930547
5763 6 1 -38.186970 -93.379141 98.061797
5764 6 1 -37.318775 -93.114637 97.641944
5765 6 1 -36.859320 -92.499234 98.282398
5766 6 1 -36.769278 -92.384809 97.293055
5767 6 1 -36.242151 -93.072829 96.794290
5768 6 1 -36.853650 -92.662348 96.117847
5769 6 1 -37.832529 -92.842057 96.215317
5770 6 1 -37.416644 -91.942130 96.084279
5771 6 1 -38.215114 -91.343956 96.152342
5772 6 1 -37.722228 -90.994975 96.949384
5773 6 1 -37.832140 -90.619659 97.869741
5774 6 1 -37.783958 -90.105133 98.725861
5775 6 1 -37.077596 -90.735654 99.047568
5776 6 1 -37.209573 -91.502939 99.675147
5777 6 1 -37.681797 -90.652032 99.905283
5778 6 1 -38.048120 -90.958862 99.026840
5779 6 1 -38.293708 -91.332016 99.921514
5780 6 1 -38.418588 -92.198830 99.438774
5781 6 1 -38.582205 -93.095763 99.849556
5782 6 1 -37.610494 -92.859676 99.856033
5783 6 1 -37.070920 -93.646782 99.557161
5784 6 1 -36.742613 -94.130866 98.746065
5785 6 1 -37.422997 -94.595433 99.312859
5786 6 1 -38.406013 -94.774573 99.352711
5787 6 1 -37.637389 -95.402242 99.476199
5788 6 1 -37.842044 -95.485788 98.500937
5789 6 1 -37.995950 -96.457567 98.322170
5790 6 1 -38.810756 -95.903968 98.494273
5791 6 1 -38.386546 -96.067491 99.384950
5792 6 1 -39.211484 -95.580568 99.671974
5793 6 1 -39.787413 -95.737885 98.869754
5794 6 1 -39.760734 -96.691493 98.569887
5795 6 1 -39.347479 -97.070624 99.397824
5796 6 1 -38.483718 -97.489898 99.118314
5797 6 1 -37.502269 -97.308329 99.056744
5798 6 1 -37.364301 -96.636756 99.784724
5799 6 1 -36.546177 -97.204786 99.874258
5800 6 1 -36.141379 -96.575292 99.211027
5801 6 1 -36.445646 -97.221442 98.511090
5802 6 1 -36.307460 -96.369054 98.006769
5803 6 1 -36.684056 -96.023006 97.147452
5804 6 1 -37.025553 -96.668489 96.464275
5805 6 1 -37.741906 -96.458366 97.129622
5806 6 1 -38.285566 -97.006329 97.765366
5807 6 1 -39.188052 -97.387289 97.966337
5808 6 1 -40.178355 -97.521900 97.932005
5809 6 1 -40.218668 -98.070282 98.767260
5810 6 1 -40.157442 -98.827419 98.116879
5811 6 1 -39.935059 -98.258215 97.325329
5812 6 1 -40.037627 -99.103878 96.801560
5813 6 1 -40.653292 -99.357867 97.547513
5814 6 1 -40.587038 -99.710792 96.614210
5815 6 1 -41.545842 -99.799502 96.344348
5816 6 1 -41.744204 -98.846215 96.572152
5817 6 1 -41.681281 -98.808803 95.574835
5818 6 1 -42.101813 -98.370834 94.780268
5819 6 1 -42.262871 -99.312578 95.075529
5820 6 1 -43.188105 -99.222750 94.706919
5821 6 1 -44.036396 -99.608193 95.070010
5822 6 1 -44.208112 -98.894804 94.390606
5823 6 1 -45.120397 -98.754028 94.006005
5824 6 1 -45.202933 -99.130949 94.928565
5825 6 1 -45.809686 -98.416420 95.276845
5826 6 1 -44.832373 -98.579771 95.411662
5827 6 1 -45.119978 -97.740005 95.872180
5828 6 1 -44.260765 -98.065221 96.267133
5829 6 1 -44.080462 -97.081619 96.262896
5830 6 1 -45.068994 -96.999640 96.389722
5831 6 1 -44.837027 -97.039803 95.417828
5832 6 1 -45.604250 -97.018803 94.776791
5833 6 1 -46.580382 -97.158958 94.942690
5834 6 1 -46.650535 -97.562200 94.030290
5835 6 1 -47.244802 -97.181968 93.321580
5836 6 1 -47.368445 -96.242884 93.000903
5837 6 1 -47.393255 -95.791742 92.108795
5838 6 1 -47.958174 -95.553543 92.898813
5839 6 1 -47.901140 -94.555664 92.867415
5840 6 1 -48.415407 -93.909289 92.303741
5841 6 1 -47.665693 -93.309364 92.024422
5842 6 1 -46.856224 -93.326543 91.437511
5843 6 1 -46.874787 -93.691418 92.368382
5844 6 1 -46.012381 -93.208265 92.217322
5845 6 1 -45.110173 -92.852965 91.972816
5846 6 1 -45.042246 -93.277362 91.069892
5847 6 1 -45.029884 -94.193932 91.469576
5848 6 1 -45.275622 -94.755109 90.679200
5849 6 1 -44.851153 -95.558699 90.261985
5850 6 1 -45.015660 -96.167154 91.038336
5851 6 1 -45.755107 -95.907497 90.417210
5852 6 1 -45.997108 -95.197239 91.078246
5853 6 1 -46.739980 -95.534373 90.499902
5854 6 1 -47.105315 -95.799512 89.607584
5855 6 1 -46.231921 -95.329526 89.735239
5856 6 1 -46.479909 -94.805352 88.920534
5857 6 1 -46.462760 -95.275640 88.038188
5858 6 1 -45.947943 -96.085436 88.319602
5859 6 1 -45.549346 -95.886058 87.424410
5860 6 1 -44.725169 -96.365718 87.123313
5861 6 1 -44.957456 -96.941101 86.339108
5862 6 1 -45.022701 -97.428231 85.468220
5863 6 1 -45.956589 -97.271298 85.146931
5864 6 1 -45.073982 -96.988274 84.771559
5865 6 1 -44.135446 -97.295490 84.928935
5866 6 1 -44.641239 -97.277657 84.066464
5867 6 1 -45.335607 -97.723285 83.501426
5868 6 1 -45.166886 -98.598905 83.953999
5869 6 1 -44.947541 -99.001869 83.065457
5870 6 1 -45.652854 -99.593096 83.456588
5871 6 1 -45.197576 -99.483887 84.340214
5872 6 1 -44.354532 -99.396034 84.870836
5873 6 1 -43.629967 -99.375240 84.181945
5874 6 1 -43.943220 -98.572206 84.688906
5875 6 1 -42.971969 -98.348901 84.606409
5876 6 1 -42.629550 -98.730128 85.465138
5877 6 1 -42.610604 -99.535097 84.872125
5878 6 1 -42.352141 -99.884008 85.772934
5879 6 1 -41.611551 -99.230796 85.615323
5880 6 1 -40.695102 -98.845983 85.725046
5881 6 1 -40.538297 -99.084005 84.766527
5882 6 1 -40.684963 -99.370113 83.819621
5883 6 1 -41.650232 -99.237876 83.594302
5884 6 1 -42.447505 -99.656648 83.159577
5885 6 1 -43.338985 -99.206066 83.206902
5886 6 1 -43.402374 -98.745904 82.321333
5887 6 1 -43.796025 -99.634346 82.557362
5888 6 1 -43.113293 -99.882647 81.870177
5889 6 1 -43.582454 -99.571166 81.043819
5890 6 1 -42.735821 -99.349662 80.559931
5891 6 1 -43.546668 -99.135753 80.015165
5892 6 1 -43.649208 -98.654854 79.144406
5893 6 1 -43.616536 -98.844080 78.163016
5894 6 1 -43.742177 -98.316320 77.322966
5895 6 1 -43.303330 -97.541111 77.777349
5896 6 1 -42.810734 -98.294705 78.212604
5897 6 1 -42.013185 -98.478140 78.787292
5898 6 1 -41.679161 -97.544467 78.916451
5899 6 1 -41.140022 -97.788363 79.722580
5900 6 1 -41.895773 -97.770471 80.377195
5901 6 1 -42.532229 -97.700320 81.145311
5902 6 1 -41.605305 -97.454429 81.428771
5903 6 1 -41.883631 -96.645743 80.910541
5904 6 1 -41.105820 -96.598522 80.283818
5905 6 1 -41.356614 -96.036688 81.072137
5906 6 1 -40.800216 -95.728766 81.843891
5907 6 1 -41.672643 -95.860479 82.314552
5908 6 1 -40.796911 -96.117032 82.723545
5909 6 1 -40.601491 -95.199384 83.069569
5910 6 1 -40.428138 -94.410323 83.658917
5911 6 1 -40.021286 -93.585524 84.051574
5912 6 1 -40.886275 -93.134982 84.272498
5913 6 1 -41.886149 -93.145749 84.284122
5914 6 1 -42.442984 -93.538719 85.015907
5915 6 1 -42.497174 -93.386911 86.002830
5916 6 1 -43.468296 -93.613937 86.076191
5917 6 1 -43.962334 -94.354140 86.532289
5918 6 1 -44.185636 -93.427278 86.834058
5919 6 1 -43.244249 -93.721700 86.998700
5920 6 1 -42.676524 -93.024334 87.436157
5921 6 1 -43.214414 -92.291115 87.852165
5922 6 1 -42.219582 -92.230765 87.770510
5923 6 1 -42.664506 -91.541205 88.341955
5924 6 1 -42.681251 -90.548072 88.226168
5925 6 1 -43.500605 -90.494318 87.655407
5926 6 1 -43.814029 -89.861792 86.947116
5927 6 1 -44.724815 -90.213303 87.163701
5928 6 1 -44.531983 -91.170380 87.380081
5929 6 1 -44.471785 -92.145554 87.593180
5930 6 1 -44.269610 -92.443678 86.660309
5931 6 1 -44.213342 -91.521142 86.278521
5932 6 1 -44.817990 -92.085533 85.716505
5933 6 1 -45.411521 -92.849165 85.462361
5934 6 1 -45.401818 -93.825879 85.676688
5935 6 1 -45.358591 -93.617522 84.699590
5936 6 1 -46.152131 -93.363223 84.146755
5937 6 1 -46.841128 -92.774558 84.569550
5938 6 1 -46.308873 -92.115023 85.100322
5939 6 1 -45.657982 -91.503388 85.550037
5940 6 1 -45.878395 -91.571143 86.523087
5941 6 1 -46.512209 -91.381063 87.272854
5942 6 1 -46.032192 -90.631675 87.728926
5943 6 1 -46.056298 -89.669744 87.456699
5944 6 1 -46.651213 -89.882792 86.681659
5945 6 1 -47.385402 -89.276948 86.375195
5946 6 1 -46.613775 -89.056153 86.971719
5947 6 1 -45.651519 -89.048611 86.699675
5948 6 1 -46.238704 -89.036100 85.890319
5949 6 1 -45.240993 -89.096086 85.859104
5950 6 1 -44.264293 -88.939579 85.712261
5951 6 1 -44.852360 -89.459789 85.092939
5952 6 1 -45.215030 -89.252513 84.184365
5953 6 1 -45.923360 -89.940677 84.341526
5954 6 1 -46.214241 -90.018530 85.295113
5955 6 1 -47.194423 -90.165030 85.161763
5956 6 1 -47.723080 -90.917977 85.553674
5957 6 1 -48.607880 -91.383088 85.525379
5958 6 1 -48.138408 -91.622127 84.675404
5959 6 1 -48.809341 -92.313772 84.408052
5960 6 1 -48.970653 -91.332124 84.509765
5961 6 1 -49.603973 -92.058490 84.776782
5962 6 1 -50.587492 -92.201184 84.665743
5963 6 1 -50.150834 -92.656018 85.441924
5964 6 1 -50.405204 -93.506487 85.902357
5965 6 1 -49.527384 -93.607278 85.434089
5966 6 1 -48.887232 -94.271109 85.820784
5967 6 1 -48.412694 -94.167483 84.946671
5968 6 1 -48.830992 -95.010533 85.284742
5969 6 1 -49.445618 -94.802412 86.045611
5970 6 1 -49.779679 -95.258460 86.870488
5971 6 1 -50.625057 -95.792629 86.870738
5972 6 1 -50.627398 -96.655311 86.364997
5973 6 1 -50.420838 -97.601727 86.613248
5974 6 1 -50.382112 -97.791473 85.632179
5975 6 1 -49.747362 -97.019887 85.673985
5976 6 1 -49.274141 -97.616708 86.321957
5977 6 1 -49.012875 -98.490003 85.910744
5978 6 1 -48.042976 -98.254706 85.848040
5979 6 1 -48.427616 -98.062672 86.750910
5980 6 1 -48.630843 -97.720863 87.668442
5981 6 1 -49.423581 -97.185366 87.377221
5982 6 1 -48.883486 -96.736020 88.088829
5983 6 1 -48.797609 -97.507067 88.719790
5984 6 1 -49.657222 -97.991238 88.556561
5985 6 1 -50.133308 -97.573573 89.330446
5986 6 1 -49.668224 -96.747342 89.012578
5987 6 1 -48.858551 -97.073802 89.500281
5988 6 1 -48.694252 -96.283750 88.909668
5989 6 1 -48.183284 -96.035885 89.732757
5990 6 1 -48.284403 -95.577805 90.615897
5991 6 1 -48.421012 -94.636268 90.307928
5992 6 1 -47.690402 -94.307764 90.906505
5993 6 1 -48.496123 -93.740156 91.075722
5994 6 1 -49.171572 -93.775653 91.812275
5995 6 1 -49.191416 -94.663041 92.272870
5996 6 1 -49.163849 -94.509684 91.285084
5997 6 1 -49.419160 -95.315447 90.750704
5998 6 1 -49.923663 -95.926448 91.360750
5999 6 1 -50.678963 -95.465384 90.894979
6000 6 1 -50.218081 -96.154024 90.335191
6001 7 1 35.602287 -11.180565 81.590021
6002 7 1 34.736809 -11.504247 81.972352
6003 7 1 34.646868 -10.735091 81.339651
6004 7 1 34.374092 -9.855125 80.950738
6005 7 1 33.834097 -9.211490 80.408392
6006 7 1 34.296286 -9.094668 81.287445
6007 7 1 33.465337 -8.655763 80.945558
6008 7 1 33.188369 -9.470909 81.454306
6009 7 1 32.406700 -10.090272 81.527688
6010 7 1 32.258772 -10.291555 80.559390
6011 7 1 31.506235 -10.130062 79.920947
6012 7 1 31.193814 -9.737257 79.056021
6013 7 1 31.534868 -9.128867 79.772641
6014 7 1 31.208069 -8.681387 80.605085
6015 7 1 30.263583 -8.904399 80.363814
6016 7 1 30.567580 -9.463006 81.135529
6017 7 1 30.243691 -9.210764 82.047379
6018 7 1 30.922728 -8.552277 82.371886
6019 7 1 30.368977 -8.456132 83.198999
6020 7 1 31.139805 -9.070385 83.030130
6021 7 1 30.192931 -9.391405 83.010737
6022 7 1 29.360922 -9.926548 82.864507
6023 7 1 29.329893 -9.025604 83.297331
6024 7 1 28.501983 -9.577279 83.398421
6025 7 1 28.404467 -9.591095 82.403283
6026 7 1 28.211769 -8.902048 81.704655
6027 7 1 27.857618 -8.080975 82.152334
6028 7 1 28.279137 -8.145430 83.056860
6029 7 1 28.736518 -7.871213 82.210924
6030 7 1 29.073451 -7.052359 82.675634
6031 7 1 29.524364 -7.032860 81.783278
6032 7 1 29.212479 -6.203856 81.319081
6033 7 1 29.987627 -5.980532 80.728088
6034 7 1 30.659005 -5.567362 80.112831
6035 7 1 30.311738 -4.717751 79.715885
6036 7 1 31.180396 -4.272273 79.932639
6037 7 1 30.393260 -3.683664 79.748363
6038 7 1 29.464702 -3.312478 79.747575
6039 7 1 29.142718 -2.806791 78.947196
6040 7 1 28.995393 -1.858803 79.229356
6041 7 1 28.695473 -1.042068 79.722299
6042 7 1 29.659251 -1.158872 79.962067
6043 7 1 29.641820 -0.188679 80.203775
6044 7 1 29.910404 0.081389 79.279153
6045 7 1 28.934859 0.260873 79.152273
6046 7 1 28.335175 -0.020038 79.901584
6047 7 1 27.925676 -0.542165 79.153457
6048 7 1 27.250352 0.194226 79.194280
6049 7 1 26.432287 -0.291818 78.886822
6050 7 1 25.509728 -0.417348 78.521956
6051 7 1 25.113727 -0.997572 77.810252
6052 7 1 25.599016 -0.323575 77.253275
6053 7 1 25.136711 0.192354 77.974449
6054 7 1 24.880153 0.395022 77.029407
6055 7 1 24.207296 1.015237 76.626175
6056 7 1 23.631891 0.864195 75.822374
6057 7 1 23.147099 1.466882 76.456208
6058 7 1 23.973482 2.029853 76.468634
6059 7 1 23.190083 2.602504 76.227064
6060 7 1 22.887703 2.836240 75.302978
6061 7 1 22.994462 3.768872 74.958304
6062 7 1 23.678910 3.463008 75.620103
6063 7 1 23.480148 4.390995 75.935276
6064 7 1 22.582256 4.286190 75.507719
6065 7 1 21.674549 4.352966 75.921977
6066 7 1 22.128479 3.810086 76.628538
6067 7 1 21.726585 3.679628 77.534883
6068 7 1 21.615983 3.358602 78.475473
6069 7 1 21.899228 2.600486 79.062868
6070 7 1 21.655291 1.924872 79.758598
6071 7 1 21.933386 1.494303 78.899952
6072 7 1 22.160777 1.635220 77.936398
6073 7 1 22.521643 0.954512 77.298894
6074 7 1 22.718021 -0.025216 77.338517
6075 7 1 22.052011 0.374374 76.708628
6076 7 1 21.436435 0.359150 77.496558
6077 7 1 20.824907 1.079976 77.822815
6078 7 1 19.829520 1.119777 77.735519
6079 7 1 20.130302 1.047638 76.784558
6080 7 1 19.873999 0.652719 75.902317
6081 7 1 18.905772 0.604694 76.147733
6082 7 1 18.952317 0.957551 75.213215
6083 7 1 18.172404 0.340690 75.107298
6084 7 1 18.495413 -0.226702 75.864749
6085 7 1 19.343885 -0.233449 76.393946
6086 7 1 18.959018 0.491485 76.965215
6087 7 1 18.580277 1.370833 77.253838
6088 7 1 17.799452 0.778965 77.053828
6089 7 1 17.310427 0.233487 76.373161
6090 7 1 17.038221 1.186582 76.240824
6091 7 1 16.234452 1.701045 76.539627
6092 7 1 16.458896 2.513644 77.077501
6093 7 1 16.803371 3.292841 76.553872
6094 7 1 16.463527 3.662063 75.688898
6095 7 1 16.984267 2.934657 75.242008
6096 7 1 16.027856 3.192866 75.105600
6097 7 1 16.292666 3.900776 74.450818
6098 7 1 16.758857 3.016106 74.445902
6099 7 1 16.496175 2.378101 73.722060
6100 7 1 15.550266 2.699031 73.769598
6101 7 1 15.787688 2.719241 72.798401
6102 7 1 16.455829 2.042475 72.489246
6103 7 1 15.990084 1.309180 71.993908
6104 7 1 16.785812 0.728216 72.165072
6105 7 1 17.069517 -0.007980 72.779503
6106 7 1 17.594040 -0.814021 73.053684
6107 7 1 17.925215 -1.570699 72.489981
6108 7 1 18.611246 -2.049377 73.037913
6109 7 1 18.594272 -2.063846 72.038162
6110 7 1 18.268617 -2.148449 71.096466
6111 7 1 17.485206 -1.545065 70.947488
6112 7 1 17.179418 -1.658182 71.892844
6113 7 1 16.203377 -1.843790 71.779295
6114 7 1 15.531083 -1.475340 71.137217
6115 7 1 15.245954 -1.750159 70.218971
6116 7 1 15.120372 -0.909770 70.746205
6117 7 1 15.382231 -0.323642 71.512941
6118 7 1 14.821647 -0.047461 72.293626
6119 7 1 14.301374 0.314770 73.066998
6120 7 1 13.552067 -0.260058 73.395801
6121 7 1 13.412739 0.407744 72.664618
6122 7 1 13.457344 1.380370 72.436567
6123 7 1 13.501488 2.240644 72.944484
6124 7 1 14.086657 2.578550 72.207330
6125 7 1 13.123587 2.837103 72.282480
6126 7 1 12.907905 3.269926 71.407182
6127 7 1 12.350689 2.663740 71.974676
6128 7 1 11.925097 2.070411 72.657927
6129 7 1 11.233714 2.756727 72.432183
6130 7 1 11.761639 3.141356 73.189386
6131 7 1 11.159723 3.904980 72.955769
6132 7 1 11.988367 4.440203 72.791802
6133 7 1 12.247683 4.906262 73.637700
6134 7 1 11.608291 4.141939 73.721289
6135 7 1 11.456716 3.839010 74.662172
6136 7 1 11.103390 3.249836 75.388832
6137 7 1 11.193470 2.864475 74.470473
6138 7 1 10.220545 3.088814 74.414905
6139 7 1 10.601220 2.216785 74.722562
6140 7 1 9.787887 1.680579 74.948333
6141 7 1 9.078489 2.236504 75.381579
6142 7 1 9.903115 2.802163 75.386302
6143 7 1 10.098706 3.003713 76.346053
6144 7 1 9.911146 3.116617 77.321795
6145 7 1 8.955079 3.407718 77.287202
6146 7 1 9.214061 3.920978 78.105427
6147 7 1 8.897914 4.766878 77.675889
6148 7 1 8.283580 4.109104 77.240084
6149 7 1 8.140865 3.898578 78.207198
6150 7 1 7.245244 4.305661 78.027904
6151 7 1 7.550394 5.017105 78.660938
6152 7 1 7.197297 5.656302 77.977747
6153 7 1 7.306880 5.838763 78.954834
6154 7 1 7.945145 5.542911 79.665530
6155 7 1 8.758843 5.792024 79.140326
6156 7 1 8.742635 6.770462 79.346233
6157 7 1 9.685068 6.791596 79.012507
6158 7 1 10.618469 6.591183 78.714852
6159 7 1 11.612956 6.689461 78.751411
6160 7 1 12.249014 7.184798 78.159742
6161 7 1 12.084305 6.210996 78.002955
6162 7 1 11.624416 5.325547 77.936019
6163 7 1 11.951905 5.245767 78.877500
6164 7 1 11.880537 5.019660 79.848985
6165 7 1 11.187213 5.116287 79.134867
6166 7 1 10.316025 5.484016 79.460147
6167 7 1 10.736398 5.784899 80.316158
6168 7 1 11.483667 5.734077 80.978734
6169 7 1 11.902141 6.257773 80.236694
6170 7 1 11.399758 6.018618 79.405781
6171 7 1 10.975279 6.922253 79.462878
6172 7 1 11.937077 7.192296 79.417912
6173 7 1 11.525124 7.813838 78.751594
6174 7 1 11.269771 7.976784 79.704613
6175 7 1 10.531245 8.162757 80.352682
6176 7 1 9.740076 7.799928 80.845029
6177 7 1 10.038786 7.496481 81.749844
6178 7 1 9.392099 6.848102 81.348098
6179 7 1 9.479788 5.888386 81.615038
6180 7 1 9.576342 6.096824 80.641780
6181 7 1 10.290974 6.615851 81.110728
6182 7 1 10.353248 7.299799 80.383859
6183 7 1 10.594103 7.823597 81.200942
6184 7 1 10.833998 6.947651 81.619476
6185 7 1 11.076488 6.410374 80.811681
6186 7 1 11.790344 6.340083 81.508437
6187 7 1 12.334861 6.196442 82.334796
6188 7 1 12.858067 6.705532 81.651362
6189 7 1 13.100555 6.116809 80.880255
6190 7 1 14.059023 5.956090 80.644655
6191 7 1 15.045189 6.020830 80.492056
6192 7 1 15.413296 6.599325 79.764155
6193 7 1 14.698938 7.189341 79.387892
6194 7 1 14.746671 7.727932 78.546678
6195 7 1 13.984340 8.316875 78.278355
6196 7 1 14.265475 8.355811 79.237233
6197 7 1 13.415443 8.855935 79.071943
6198 7 1 14.207608 9.158570 79.601930
6199 7 1 14.787230 8.822134 80.344122
6200 7 1 14.868809 9.776591 80.631100
6201 7 1 15.016216 9.154413 81.399973
6202 7 1 14.182450 8.809042 81.830731
6203 7 1 14.020862 9.320301 80.986631
6204 7 1 13.457687 9.909876 81.565626
6205 7 1 14.348091 9.769577 81.998635
6206 7 1 14.082302 10.722261 81.851162
6207 7 1 14.811449 11.398475 81.956416
6208 7 1 15.656573 10.882303 81.817374
6209 7 1 16.306347 10.866913 82.577346
6210 7 1 17.093277 10.786221 81.965603
6211 7 1 17.529870 11.578834 81.539984
6212 7 1 17.070498 11.985517 82.329659
6213 7 1 17.610496 12.559125 82.945594
6214 7 1 17.811725 13.530414 83.072498
6215 7 1 17.950737 14.491267 82.832840
6216 7 1 18.176583 13.717170 82.241429
6217 7 1 19.043511 13.351829 81.902369
6218 7 1 18.646558 12.685741 82.533839
6219 7 1 18.291018 11.834557 82.919944
6220 7 1 17.385871 11.494233 83.174677
6221 7 1 17.291822 12.295682 83.765300
6222 7 1 17.574746 11.474175 84.260356
6223 7 1 18.083875 11.411921 85.118792
6224 7 1 18.689059 12.151082 85.414416
6225 7 1 18.039506 11.816820 86.097314
6226 7 1 17.891649 12.341938 85.259228
6227 7 1 18.456083 12.158660 84.454353
6228 7 1 18.855593 11.421268 83.909703
6229 7 1 18.947120 10.790605 83.139062
6230 7 1 19.714782 11.274709 82.719137
6231 7 1 19.627851 12.011225 82.048326
6232 7 1 19.401375 12.215061 83.000775
6233 7 1 19.349020 12.079311 83.990134
6234 7 1 18.696536 12.675194 83.521958
6235 7 1 18.916016 13.008103 84.439019
6236 7 1 19.733625 13.286474 83.935010
6237 7 1 19.225053 14.133628 84.088908
6238 7 1 20.209915 13.961247 84.070706
6239 7 1 19.979599 14.904705 84.309123
6240 7 1 20.416412 15.132279 83.438833
6241 7 1 20.284140 16.111755 83.286744
6242 7 1 19.289479 16.014517 83.321292
6243 7 1 18.890428 16.674720 82.684981
6244 7 1 19.186613 17.443518 82.118214
6245 7 1 19.886011 17.272976 82.812302
6246 7 1 19.673216 17.733100 83.674279
6247 7 1 20.576036 17.556268 83.282302
6248 7 1 20.094982 17.169744 84.069185
6249 7 1 19.575087 16.889794 84.876240
6250 7 1 19.159588 17.240583 85.715470
6251 7 1 19.836219 16.504750 85.742332
6252 7 1 19.881990 15.505924 85.758189
6253 7 1 20.661654 15.831222 86.293263
6254 7 1 20.340159 16.777218 86.334895
6255 7 1 19.734830 17.572963 86.354048
6256 7 1 20.019651 18.166038 85.600962
6257 7 1 20.604677 17.910349 84.831308
6258 7 1 21.237707 17.627047 85.551733
6259 7 1 21.474785 18.583775 85.383018
6260 7 1 21.078707 18.954644 84.543031
6261 7 1 21.216918 19.942945 84.607518
6262 7 1 20.411075 20.289463 85.087666
6263 7 1 20.410559 19.436700 85.609964
6264 7 1 20.072751 19.365835 86.548508
6265 7 1 20.022243 18.906241 87.435200
6266 7 1 21.020367 18.966519 87.445932
6267 7 1 20.991950 19.781816 88.024278
6268 7 1 20.458886 20.610730 87.854737
6269 7 1 20.821166 21.468954 87.491135
6270 7 1 20.806876 22.198266 88.175167
6271 7 1 21.792987 22.348018 88.247002
6272 7 1 21.976485 22.909961 89.053568
6273 7 1 22.506661 23.706115 88.761931
6274 7 1 22.106692 24.566404 88.445816
6275 7 1 21.341795 24.522553 89.088474
6276 7 1 22.191009 24.741764 89.568871
6277 7 1 22.940278 24.492553 90.182459
6278 7 1 22.638200 25.433971 90.032525
6279 7 1 22.839329 26.063648 89.282156
6280 7 1 22.880683 25.653527 88.371062
6281 7 1 22.052067 26.003570 87.934180
6282 7 1 22.369680 26.323749 87.041652
6283 7 1 23.271572 26.616907 86.724398
6284 7 1 22.708109 26.573719 85.899387
6285 7 1 21.762299 26.274878 85.772352
6286 7 1 21.511905 26.793100 86.590123
6287 7 1 20.785052 26.708361 85.908577
6288 7 1 20.810840 27.485774 86.537037
6289 7 1 21.542809 27.901233 85.997024
6290 7 1 20.589093 27.994542 85.711160
6291 7 1 19.858358 28.352948 85.130151
6292 7 1 19.342067 27.582984 84.755187
6293 7 1 18.554527 27.706980 84.151526
6294 7 1 17.636395 27.815368 83.770361
6295 7 1 17.296400 28.212681 84.622737
6296 7 1 18.182729 28.092349 85.069886
6297 7 1 18.971216 28.611713 84.740419
6298 7 1 19.292531 29.558385 84.716590
6299 7 1 19.108302 28.990853 83.914114
6300 7 1 19.627606 28.223241 84.289739
6301 7 1 20.034716 29.130545 84.394909
6302 7 1 20.842513 29.594063 84.759073
6303 7 1 20.988933 30.208229 83.983599
6304 7 1 20.031429 30.492415 84.032824
6305 7 1 19.089583 30.483237 83.696904
6306 7 1 18.431342 30.335809 84.435133
6307 7 1 17.518843 29.926734 84.433353
6308 7 1 17.062452 29.039622 84.364504
6309 7 1 16.547218 29.833198 84.040819
6310 7 1 16.653801 28.984190 83.523301
6311 7 1 15.679969 29.137517 83.355546
6312 7 1 16.358402 29.648362 82.827562
6313 7 1 16.155913 29.785557 81.857936
6314 7 1 16.584190 29.479423 81.007724
6315 7 1 17.500419 29.875035 80.944365
6316 7 1 18.176380 29.710517 80.226026
6317 7 1 18.360161 29.188347 79.393222
6318 7 1 17.931440 28.290306 79.294631
6319 7 1 18.469268 27.785987 78.619054
6320 7 1 18.907470 27.507305 79.473639
6321 7 1 19.862394 27.280131 79.664718
6322 7 1 19.152926 27.619693 80.282255
6323 7 1 18.153376 27.626192 80.252974
6324 7 1 17.503886 28.003188 80.913305
6325 7 1 16.719116 28.102607 81.525066
6326 7 1 15.947468 27.898029 82.127317
6327 7 1 16.349888 28.344013 82.926789
6328 7 1 16.814906 27.643535 83.468166
6329 7 1 16.410709 28.123812 84.246600
6330 7 1 16.718496 28.450842 85.140086
6331 7 1 17.150332 27.597692 85.432752
6332 7 1 16.891490 26.689301 85.104382
6333 7 1 15.891601 26.674402 85.104863
6334 7 1 15.134623 27.158901 85.543320
6335 7 1 14.472800 27.166156 86.292945
6336 7 1 13.880739 26.898247 85.532888
6337 7 1 13.613110 27.860342 85.480457
6338 7 1 14.606119 27.905049 85.589709
6339 7 1 14.510846 27.972755 86.582855
6340 7 1 15.358228 27.646913 86.163606
6341 7 1 15.332317 28.327819 86.895519
6342 7 1 15.707555 29.175303 86.520065
6343 7 1 16.625336 28.844153 86.300933
6344 7 1 16.440508 27.867888 86.413824
6345 7 1 16.649834 26.998128 85.966945
6346 7 1 17.473471 27.257448 86.471302
6347 7 1 17.038549 26.357748 86.434097
6348 7 1 16.192384 25.939528 86.103800
6349 7 1 16.375964 25.075122 86.571882
6350 7 1 16.348809 24.919675 85.584411
6351 7 1 16.877412 25.370777 84.865324
6352 7 1 17.146722 25.216360 85.815917
6353 7 1 17.666888 26.058219 85.959796
6354 7 1 18.434315 25.575890 86.382187
6355 7 1 19.270891 25.028260 86.397748
6356 7 1 19.699778 24.421839 87.067308
6357 7 1 19.561530 25.314098 87.497147
6358 7 1 20.038098 25.684593 86.699891
6359 7 1 20.513985 26.460604 87.113822
6360 7 1 20.145738 26.499721 88.042727
6361 7 1 20.632877 25.672784 87.761889
6362 7 1 20.464615 25.946786 88.708785
6363 7 1 20.389860 24.973178 88.924421
6364 7 1 20.982936 24.392929 88.366236
6365 7 1 21.107462 23.628705 88.999051
6366 7 1 20.293751 23.061532 88.871819
6367 7 1 19.460022 22.576133 88.608601
6368 7 1 19.203619 22.209701 89.503019
6369 7 1 19.053832 22.003652 90.470029
6370 7 1 18.478218 22.739728 90.113853
6371 7 1 18.439433 23.284101 89.275908
6372 7 1 19.044289 23.961055 89.695292
6373 7 1 19.510117 23.094392 89.873898
6374 7 1 19.209493 23.742111 90.573959
6375 7 1 18.496433 24.434990 90.681032
6376 7 1 17.516689 24.249295 90.755986
6377 7 1 16.890357 24.209782 91.534541
6378 7 1 16.318304 24.812707 92.090630
6379 7 1 15.466896 25.074618 91.636198
6380 7 1 14.952215 25.331374 92.454232
6381 7 1 14.482110 24.453999 92.358236
6382 7 1 14.171416 25.274044 92.838857
6383 7 1 14.542220 24.538277 93.405559
6384 7 1 13.570859 24.316349 93.490444
6385 7 1 12.750328 24.701138 93.067753
6386 7 1 13.340407 25.222048 93.684569
6387 7 1 12.719189 25.969838 93.450264
6388 7 1 13.654930 25.942245 93.098657
6389 7 1 14.364984 26.124593 93.778784
6390 7 1 14.553265 26.796645 94.494952
6391 7 1 14.602477 25.872264 94.873235
6392 7 1 13.693680 25.922877 94.459076
6393 7 1 13.611177 25.524881 95.372745
6394 7 1 13.126705 26.353034 95.654610
6395 7 1 14.114747 26.234007 95.556601
6396 7 1 14.974940 26.388870 96.042486
6397 7 1 14.588359 25.573337 96.473137
6398 7 1 13.834861 26.230558 96.455784
6399 7 1 13.030396 25.845193 96.907811
6400 7 1 13.174426 26.403115 97.725110
6401 7 1 13.311141 27.386439 97.605180
6402 7 1 14.288727 27.536523 97.457525
6403 7 1 14.022464 28.443585 97.131422
6404 7 1 13.452297 28.377663 97.950301
6405 7 1 12.607929 28.890415 98.105630
6406 7 1 12.757527 28.324842 98.916646
6407 7 1 12.427590 27.714528 99.636825
6408 7 1 11.684344 27.052023 99.543698
6409 7 1 11.660628 27.449308 98.626310
6410 7 1 11.077105 27.598485 97.828032
6411 7 1 11.499714 26.694443 97.763925
6412 7 1 11.923350 27.144747 96.977949
6413 7 1 11.045311 26.685830 96.842142
6414 7 1 11.027522 26.811803 95.850268
6415 7 1 10.258742 27.273344 96.292940
6416 7 1 9.308810 26.960908 96.296288
6417 7 1 9.595720 27.823564 95.879745
6418 7 1 8.858832 28.259053 95.362690
6419 7 1 9.235905 27.705525 94.620112
6420 7 1 9.910675 28.439989 94.692562
6421 7 1 10.563021 28.486820 93.936090
6422 7 1 10.878931 28.402056 94.881085
6423 7 1 10.768055 27.573518 94.332240
6424 7 1 9.955394 27.114767 94.691588
6425 7 1 9.855376 26.915038 95.666321
6426 7 1 10.202539 26.148465 95.126096
6427 7 1 9.860025 25.336303 94.653785
6428 7 1 9.461600 25.396744 93.738578
6429 7 1 10.397248 25.732144 93.848441
6430 7 1 10.024171 25.262453 93.048313
6431 7 1 10.000166 24.422416 93.590311
6432 7 1 10.937595 24.565097 93.907911
6433 7 1 11.297055 23.696642 93.566483
6434 7 1 11.613001 24.044376 94.449240
6435 7 1 11.656652 23.813071 95.421141
6436 7 1 11.136646 23.074791 95.850719
6437 7 1 11.311193 22.692566 96.758153
6438 7 1 10.679449 22.165135 97.326234
6439 7 1 11.102675 22.037664 98.223246
6440 7 1 10.677194 21.155956 98.019389
6441 7 1 9.869410 21.457867 98.525684
6442 7 1 9.328433 22.273407 98.731203
6443 7 1 8.658170 23.006002 98.849741
6444 7 1 8.922642 23.562671 99.637253
6445 7 1 9.379300 24.383375 99.980630
6446 7 1 10.108747 24.463903 99.301350
6447 7 1 10.953224 24.802842 99.716053
6448 7 1 10.722627 23.870162 99.993422
6449 7 1 11.593342 23.587778 99.590786
6450 7 1 11.048271 22.825122 99.242571
6451 7 1 10.641664 22.016218 99.667242
6452 7 1 11.494585 21.967587 99.147471
6453 7 1 12.173914 21.280731 99.405815
6454 7 1 12.938957 21.392541 98.771617
6455 7 1 13.171704 20.585178 98.229404
6456 7 1 14.154653 20.412272 98.166827
6457 7 1 14.709658 20.086892 97.401258
6458 7 1 15.683060 19.862070 97.357161
6459 7 1 16.249812 19.041679 97.281324
6460 7 1 16.014217 18.272256 96.687622
6461 7 1 15.969629 18.252733 95.688807
6462 7 1 16.695187 18.411991 95.019328
6463 7 1 17.447568 17.908502 95.444090
6464 7 1 17.847557 18.164507 96.324130
6465 7 1 18.617778 18.738532 96.046182
6466 7 1 18.057102 19.240482 95.387631
6467 7 1 18.992026 18.938308 95.201599
6468 7 1 19.043779 18.069117 95.693359
6469 7 1 19.761201 18.145619 96.385785
6470 7 1 20.513626 18.669633 96.784866
6471 7 1 19.979993 18.962693 97.578183
6472 7 1 19.057839 18.645310 97.799315
6473 7 1 18.894389 17.966232 97.083677
6474 7 1 18.571749 17.394490 97.838007
6475 7 1 17.766242 16.835056 98.033438
6476 7 1 17.554300 15.871220 97.871883
6477 7 1 17.920162 15.326384 98.626401
6478 7 1 18.897859 15.325420 98.836421
6479 7 1 18.100811 15.084203 99.390071
6480 7 1 18.491293 15.879186 99.854318
6481 7 1 17.496438 15.966588 99.905542
6482 7 1 16.743884 15.416966 99.542805
6483 7 1 15.854481 15.792063 99.281531
6484 7 1 15.809858 15.071684 99.973675
6485 7 1 15.149455 15.802076 99.799334
6486 7 1 14.263146 15.972292 99.368656
6487 7 1 13.374788 15.641633 99.050089
6488 7 1 13.324658 14.746439 99.492937
6489 7 1 13.594641 14.679607 98.532394
6490 7 1 14.051850 14.013232 97.943408
6491 7 1 13.950428 13.924304 98.934269
6492 7 1 14.592719 13.172208 99.081969
6493 7 1 14.124213 13.771668 99.730930
6494 7 1 14.763657 14.443853 99.357730
6495 7 1 15.210562 13.672722 98.904264
6496 7 1 15.674746 14.291453 99.538066
6497 7 1 15.571460 13.321429 99.758035
6498 7 1 15.021887 12.511163 99.961599
6499 7 1 16.011712 12.371476 99.988683
6500 7 1 16.990752 12.565071 99.925430
6501 7 1 17.634936 12.384709 99.182129
6502 7 1 18.283249 11.759205 98.748038
6503 7 1 18.744091 10.878340 98.639867
6504 7 1 19.231571 10.279304 99.275099
6505 7 1 19.294230 10.284382 98.277077
6506 7 1 20.159172 10.508621 98.726065
6507 7 1 20.938088 10.715451 99.318106
6508 7 1 21.132333 9.967384 98.683547
6509 7 1 20.295428 9.420176 98.695990
6510 7 1 20.822891 8.583932 98.546061
6511 7 1 20.416303 8.992871 99.363040
6512 7 1 19.882859 8.485153 98.686534
6513 7 1 20.249010 8.586271 97.761489
6514 7 1 19.449612 8.997288 97.323279
6515 7 1 19.393823 9.447413 98.214500
6516 7 1 18.429687 9.220203 98.351673
6517 7 1 18.061088 8.296472 98.247481
6518 7 1 17.341652 8.787517 98.738690
6519 7 1 17.394556 7.850727 99.084561
6520 7 1 18.219066 7.855400 99.650388
6521 7 1 18.026150 8.728012 99.201688
6522 7 1 18.884957 8.497869 98.743993
6523 7 1 18.342771 7.657704 98.731468
6524 7 1 17.706776 7.282044 98.057383
6525 7 1 18.165582 6.544619 98.553065
6526 7 1 18.556530 5.808106 98.001060
6527 7 1 17.674638 5.869311 97.533600
6528 7 1 17.596877 5.018927 98.053985
6529 7 1 18.410334 4.438592 98.015269
6530 7 1 18.045865 3.624385 97.563351
6531 7 1 17.676593 4.339505 96.969850
6532 7 1 18.413733 4.964496 97.226778
6533 7 1 19.334538 5.112109 96.865768
6534 7 1 20.313530 5.264592 96.730406
6535 7 1 21.234772 5.426472 97.084112
6536 7 1 20.849008 6.342971 97.190016
6537 7 1 20.724242 7.161131 96.628726
6538 7 1 20.548769 7.245006 95.647821
6539 7 1 21.265104 7.906760 95.426585
6540 7 1 21.064174 8.825736 95.087306
6541 7 1 20.873477 9.053561 94.132460
6542 7 1 20.467285 8.141080 94.083627
6543 7 1 20.550995 7.710148 94.982121
6544 7 1 19.882967 8.405889 94.718147
6545 7 1 19.125636 7.999128 95.229023
6546 7 1 18.670226 7.654633 94.408093
6547 7 1 17.715072 7.483251 94.649566
6548 7 1 18.155743 7.244668 95.514949
6549 7 1 19.025319 6.831281 95.244858
6550 7 1 18.435169 6.302848 94.634546
6551 7 1 19.406112 6.223232 94.860226
6552 7 1 20.097149 6.589420 94.237029
6553 7 1 19.591219 6.203210 93.465747
6554 7 1 20.549994 6.438868 93.306955
6555 7 1 21.044676 7.060167 92.699272
6556 7 1 22.019593 7.164941 92.502907
6557 7 1 22.587600 7.922229 92.180598
6558 7 1 22.429642 7.062121 91.695559
6559 7 1 23.247709 6.643926 92.090375
6560 7 1 22.862169 5.722882 92.035256
6561 7 1 22.115044 6.132064 91.511448
6562 7 1 21.721241 5.618443 92.273756
6563 7 1 21.707346 6.294192 93.010758
6564 7 1 21.490809 6.194767 93.981956
6565 7 1 20.855056 5.433163 93.856341
6566 7 1 21.270173 4.541018 94.034537
6567 7 1 21.909661 5.225295 93.684082
6568 7 1 22.385556 5.848144 94.305037
6569 7 1 22.946122 5.540606 93.536150
6570 7 1 23.295015 6.398533 93.913291
6571 7 1 23.076998 6.876785 94.764022
6572 7 1 23.629070 7.096954 95.568225
6573 7 1 23.828235 6.133183 95.745646
6574 7 1 23.425641 5.223890 95.851021
6575 7 1 22.992221 5.884627 95.238180
6576 7 1 22.437233 6.387893 95.900532
6577 7 1 21.562908 6.329118 96.382302
6578 7 1 21.204595 5.717964 95.676538
6579 7 1 21.354833 6.652464 95.353836
6580 7 1 21.793056 7.043219 94.544347
6581 7 1 21.540689 6.914413 93.585327
6582 7 1 20.897514 7.269489 94.263742
6583 7 1 20.856926 6.380318 94.719512
6584 7 1 21.629033 5.745026 94.735483
6585 7 1 20.958012 5.009486 94.828821
6586 7 1 20.254210 4.503880 95.327846
6587 7 1 19.854658 5.243732 95.869119
6588 7 1 19.128043 4.591353 96.084597
6589 7 1 19.081429 3.848207 96.752101
6590 7 1 19.299531 3.030820 97.285309
6591 7 1 19.277218 2.040656 97.423427
6592 7 1 18.763838 1.953850 96.569666
6593 7 1 19.024258 1.451938 95.744884
6594 7 1 19.229283 1.000328 96.613224
6595 7 1 18.849537 0.577841 97.436205
6596 7 1 18.525984 1.510626 97.277381
6597 7 1 17.640730 1.692818 97.705319
6598 7 1 17.667744 2.617323 97.325107
6599 7 1 16.705884 2.733776 97.572622
6600 7 1 15.753338 2.933777 97.343149
6601 7 1 15.442348 3.252697 98.238457
6602 7 1 14.595604 3.344194 97.714385
6603 7 1 14.312599 2.722778 98.444966
6604 7 1 13.663478 2.919597 97.710185
6605 7 1 13.117488 2.540669 96.962985
6606 7 1 12.415465 3.246008 96.864699
6607 7 1 11.909859 4.072890 96.618469
6608 7 1 12.088938 4.674860 97.396647
6609 7 1 12.685446 4.671688 96.594046
6610 7 1 13.260751 3.864813 96.459970
6611 7 1 14.032384 3.370042 96.859701
6612 7 1 14.675260 3.211529 96.110313
6613 7 1 15.390631 3.376433 95.431304
6614 7 1 15.729407 3.322893 94.491962
6615 7 1 15.275701 3.405012 93.604603
6616 7 1 15.106190 2.452153 93.352957
6617 7 1 15.791576 1.762298 93.586081
6618 7 1 15.867812 2.755815 93.670416
6619 7 1 15.947136 2.148987 92.879551
6620 7 1 16.667522 2.815262 92.686885
6621 7 1 15.820762 3.302582 92.473540
6622 7 1 16.329951 3.893317 91.847634
6623 7 1 15.532829 3.874158 91.244120
6624 7 1 14.691800 3.338320 91.318599
6625 7 1 14.994667 2.438778 91.633394
6626 7 1 15.784261 2.717210 91.086570
6627 7 1 16.749590 2.801928 91.333478
6628 7 1 17.398425 3.002632 92.067461
6629 7 1 17.486096 3.983711 91.894840
6630 7 1 18.110218 4.741652 92.084568
6631 7 1 18.468012 5.488379 91.523869
6632 7 1 18.333549 6.473402 91.415945
6633 7 1 17.637133 5.795163 91.181433
6634 7 1 17.851408 5.228340 90.385946
6635 7 1 18.043236 6.187662 90.593077
6636 7 1 18.633879 6.441362 89.827063
6637 7 1 19.070204 6.625596 88.946337
6638 7 1 19.893554 6.060975 89.003769
6639 7 1 19.327974 5.487309 88.411294
6640 7 1 18.736389 6.272284 88.227335
6641 7 1 17.931394 5.692167 88.351623
6642 7 1 17.758937 6.602952 88.726762
6643 7 1 17.085173 5.889114 88.917756
6644 7 1 16.457289 5.665463 88.172276
6645 7 1 16.780000 5.090458 88.924092
6646 7 1 17.603614 4.644671 88.573472
6647 7 1 18.095844 3.933512 89.075430
6648 7 1 17.943308 3.128700 88.501835
6649 7 1 17.161569 2.611531 88.153381
6650 7 1 17.100720 2.237462 87.227979
6651 7 1 17.106758 2.941829 86.518169
6652 7 1 18.031974 2.707635 86.816712
6653 7 1 17.329066 3.221937 87.308050
6654 7 1 16.973983 3.934283 86.702675
6655 7 1 16.781490 3.614147 85.775066
6656 7 1 16.253320 3.118859 85.085336
6657 7 1 16.631875 2.194609 85.134919
6658 7 1 16.760513 1.216460 84.971592
6659 7 1 17.491807 1.279478 85.650737
6660 7 1 17.759227 0.336321 85.848074
6661 7 1 17.281157 0.591060 86.688644
6662 7 1 16.821610 0.867882 85.844733
6663 7 1 16.962857 -0.047655 85.468113
6664 7 1 17.504958 -0.705674 85.990738
6665 7 1 16.830645 -1.315836 85.574801
6666 7 1 16.717503 -0.943548 86.495996
6667 7 1 16.556404 0.020975 86.705140
6668 7 1 16.835629 -0.620097 87.420024
6669 7 1 17.491700 0.033391 87.797549
6670 7 1 17.338172 -0.051438 88.782046
6671 7 1 16.490870 -0.580520 88.735667
6672 7 1 16.390471 -1.567171 88.863885
6673 7 1 15.425367 -1.732841 88.661088
6674 7 1 16.064192 -1.830432 87.897951
6675 7 1 15.444106 -2.591917 88.086720
6676 7 1 15.183264 -2.894801 89.003356
6677 7 1 15.390601 -3.415754 88.175335
6678 7 1 15.299130 -3.266155 87.190829
6679 7 1 14.952643 -3.643680 86.332096
6680 7 1 15.856277 -3.874066 86.693159
6681 7 1 16.459876 -3.081831 86.603527
6682 7 1 16.228680 -3.654727 87.389872
6683 7 1 16.718031 -3.868501 88.235352
6684 7 1 16.224053 -3.225432 88.820542
6685 7 1 16.695387 -2.609369 89.451660
6686 7 1 17.454242 -2.467529 88.816034
6687 7 1 17.289854 -2.279204 87.847783
6688 7 1 17.011080 -1.790773 87.020909
6689 7 1 16.857016 -2.751682 87.250946
6690 7 1 16.912653 -2.340201 86.341228
6691 7 1 15.949907 -2.250970 86.085967
6692 7 1 15.895013 -3.125440 85.604004
6693 7 1 15.211563 -3.840875 85.458924
6694 7 1 14.323710 -3.951845 85.012378
6695 7 1 13.981152 -3.012417 85.001048
6696 7 1 14.909203 -2.895848 84.647305
6697 7 1 15.239085 -1.988888 84.385387
6698 7 1 15.134957 -1.000513 84.274608
6699 7 1 15.440973 -0.702367 85.178744
6700 7 1 15.059274 -0.648670 86.101470
6701 7 1 14.996049 -1.632361 86.269860
6702 7 1 15.011078 -1.523543 85.275912
6703 7 1 14.496521 -2.367656 85.125233
6704 7 1 13.584884 -2.341314 84.715084
6705 7 1 13.101995 -3.197387 84.530806
6706 7 1 12.529749 -3.025412 85.332654
6707 7 1 11.875266 -3.424170 84.690279
6708 7 1 12.360458 -4.271044 84.907980
6709 7 1 12.238577 -4.889336 85.684421
6710 7 1 11.572513 -5.612396 85.867571
6711 7 1 11.773960 -6.577767 85.701803
6712 7 1 12.099393 -7.488798 85.955011
6713 7 1 12.357051 -7.694951 86.898999
6714 7 1 12.934334 -7.077192 86.365033
6715 7 1 13.416084 -6.997077 85.492394
6716 7 1 13.658193 -7.895617 85.126321
6717 7 1 14.004301 -7.041984 84.737065
6718 7 1 13.971408 -7.723204 84.005726
6719 7 1 14.279726 -8.338539 83.280259
6720 7 1 14.285360 -9.270640 83.642412
6721 7 1 14.829788 -10.029738 83.285524
6722 7 1 13.976468 -10.530162 83.431885
6723 7 1 14.609497 -11.291681 83.571041
6724 7 1 15.480367 -10.962146 83.206359
6725 7 1 16.031825 -11.222198 83.998992
6726 7 1 16.791188 -10.827903 84.516582
6727 7 1 17.042339 -9.915335 84.839294
6728 7 1 16.728227 -10.437918 85.631910
6729 7 1 17.490986 -9.870687 85.942471
6730 7 1 18.260238 -10.323575 86.393185
6731 7 1 18.887477 -9.837767 87.001923
6732 7 1 19.094728 -8.943640 86.604954
6733 7 1 19.682205 -9.718188 86.370546
6734 7 1 20.427114 -10.306178 86.685788
6735 7 1 20.918374 -9.729023 86.033441
6736 7 1 21.900847 -9.646456 85.866323
6737 7 1 21.811018 -10.642047 85.893346
6738 7 1 21.424695 -11.229791 86.604198
6739 7 1 22.244539 -10.657208 86.602178
6740 7 1 22.093733 -10.583443 87.587985
6741 7 1 22.963456 -11.076383 87.563640
6742 7 1 23.078098 -11.909464 88.104781
6743 7 1 22.148511 -12.178214 87.852507
6744 7 1 22.422171 -13.063329 87.476100
6745 7 1 21.634012 -13.482830 87.926459
6746 7 1 21.284879 -12.545911 87.943464
6747 7 1 20.620329 -13.225199 87.632109
6748 7 1 21.140888 -12.529892 87.136563
6749 7 1 21.312692 -13.207528 86.421515
6750 7 1 20.961935 -13.907001 87.044176
6751 7 1 21.269440 -14.858310 87.065452
6752 7 1 21.732175 -15.680704 87.396428
6753 7 1 21.728256 -16.089499 88.309046
6754 7 1 22.470957 -15.449001 88.504382
6755 7 1 21.902203 -14.648537 88.315234
6756 7 1 21.694619 -14.896474 89.261509
6757 7 1 20.726586 -15.146227 89.238375
6758 7 1 20.533034 -15.131343 90.219352
6759 7 1 20.312025 -16.098753 90.342936
6760 7 1 20.458240 -16.039915 91.330438
6761 7 1 21.319740 -16.424613 90.999038
6762 7 1 21.072347 -15.940186 91.838161
6763 7 1 21.948436 -16.351179 91.586062
6764 7 1 22.253119 -15.399573 91.626240
6765 7 1 21.412438 -14.893491 91.433529
6766 7 1 20.464542 -15.211231 91.410413
6767 7 1 20.452060 -14.476763 90.731884
6768 7 1 19.565995 -14.561646 90.276160
6769 7 1 18.747880 -15.133680 90.217299
6770 7 1 17.956888 -14.546885 90.390512
6771 7 1 18.325037 -13.721785 90.819086
6772 7 1 18.987365 -13.970359 90.112310
6773 7 1 19.760126 -13.478336 89.711370
6774 7 1 20.236433 -12.994920 90.445836
6775 7 1 21.054362 -13.301602 89.959073
6776 7 1 20.780667 -12.908980 89.081041
6777 7 1 21.775328 -12.806079 89.073335
6778 7 1 22.475312 -13.219885 88.491281
6779 7 1 23.077089 -13.011939 89.262399
6780 7 1 23.382851 -13.930498 89.011881
6781 7 1 24.067099 -13.543206 88.393973
6782 7 1 24.898205 -13.974138 88.745486
6783 7 1 25.517274 -14.751308 88.632527
6784 7 1 25.697573 -14.515468 89.587446
6785 7 1 26.420994 -13.835142 89.704995
6786 7 1 26.328448 -14.399914 88.884954
6787 7 1 26.906622 -13.588274 88.801563
6788 7 1 27.200760 -12.640732 88.926650
6789 7 1 28.021311 -13.132402 89.218124
6790 7 1 28.529301 -12.802419 88.422475
6791 7 1 28.809583 -13.434858 87.700351
6792 7 1 29.510739 -12.875230 88.142162
6793 7 1 30.271931 -12.291560 87.859469
6794 7 1 30.939100 -12.351578 87.116985
6795 7 1 30.381391 -13.045952 87.571742
6796 7 1 30.388042 -13.080820 88.571112
6797 7 1 31.091045 -13.786885 88.485912
6798 7 1 31.192984 -12.920921 87.996306
6799 7 1 31.994131 -12.344590 88.157569
6800 7 1 31.667467 -11.470739 87.797463
6801 7 1 32.350373 -10.741203 87.759835
6802 7 1 31.656751 -10.086144 88.059480
6803 7 1 31.599429 -10.445616 88.990874
6804 7 1 30.979171 -11.101273 88.560299
6805 7 1 30.223412 -10.463569 88.411429
6806 7 1 30.070117 -11.403928 88.107740
6807 7 1 29.461093 -11.952937 88.680173
6808 7 1 28.577010 -11.801231 89.122192
6809 7 1 28.676235 -11.363140 90.015630
6810 7 1 28.000712 -12.100470 90.019299
6811 7 1 27.811884 -11.286295 89.470242
6812 7 1 27.352742 -11.276127 90.358547
6813 7 1 28.114889 -11.048043 90.964443
6814 7 1 28.827081 -10.455620 91.341029
6815 7 1 28.387778 -10.864791 92.140775
6816 7 1 28.205705 -10.443497 93.029235
6817 7 1 27.405972 -9.929164 93.338894
6818 7 1 26.648999 -10.554870 93.150522
6819 7 1 27.049334 -9.846182 92.569581
6820 7 1 27.863169 -9.269507 92.498034
6821 7 1 28.546971 -8.645646 92.876468
6822 7 1 28.598484 -8.773934 91.886070
6823 7 1 29.377170 -8.606926 92.490849
6824 7 1 29.746030 -9.524732 92.637727
6825 7 1 30.118828 -9.670872 91.721395
6826 7 1 30.307044 -8.727892 91.446871
6827 7 1 30.710605 -8.584981 92.350593
6828 7 1 30.819665 -7.996300 93.151568
6829 7 1 30.044042 -8.035667 92.521599
6830 7 1 30.593284 -7.706494 91.753499
6831 7 1 30.497715 -7.230892 90.879045
6832 7 1 30.232505 -6.315736 90.575478
6833 7 1 30.356430 -6.537913 91.542576
6834 7 1 29.890496 -7.420328 91.477386
6835 7 1 29.011075 -7.379106 91.003130
6836 7 1 29.432600 -7.922992 90.277524
6837 7 1 29.334300 -8.092004 91.258224
6838 7 1 28.613771 -7.746212 91.859277
6839 7 1 28.690906 -7.845730 92.851319
6840 7 1 29.372855 -7.147545 93.069228
6841 7 1 29.658375 -6.718397 93.926147
6842 7 1 30.242540 -7.193403 94.584266
6843 7 1 30.091664 -7.037347 95.560424
6844 7 1 29.305711 -6.840593 94.974279
6845 7 1 28.530853 -7.168752 95.514563
6846 7 1 28.666442 -6.198763 95.312730
6847 7 1 28.824143 -5.775396 94.420603
6848 7 1 29.297266 -4.925044 94.650942
6849 7 1 30.119383 -4.848242 94.086827
6850 7 1 30.455989 -4.242295 94.807608
6851 7 1 30.548546 -4.159974 95.799907
6852 7 1 30.833067 -3.800269 96.688535
6853 7 1 30.067476 -4.443209 96.666249
6854 7 1 30.690622 -5.005798 96.122942
6855 7 1 31.411965 -5.640842 95.846567
6856 7 1 32.073785 -6.321793 95.533037
6857 7 1 32.457055 -6.636112 94.664529
6858 7 1 32.733956 -7.213284 95.432773
6859 7 1 32.363727 -8.123946 95.249401
6860 7 1 32.863617 -7.522059 94.626632
6861 7 1 33.509746 -8.163754 94.213418
6862 7 1 33.994397 -7.611214 94.891513
6863 7 1 34.241912 -6.862188 94.276943
6864 7 1 34.806611 -7.596345 94.653941
6865 7 1 35.674857 -7.725338 95.133012
6866 7 1 35.935901 -7.209592 95.949016
6867 7 1 36.430943 -6.376488 96.195735
6868 7 1 37.422624 -6.502618 96.170055
6869 7 1 37.215877 -7.113550 96.934266
6870 7 1 38.137247 -7.461089 96.760217
6871 7 1 37.872465 -6.618624 97.229410
6872 7 1 37.285315 -5.814221 97.138919
6873 7 1 36.599867 -6.485927 97.419939
6874 7 1 36.912448 -6.856839 98.294420
6875 7 1 36.970291 -5.879416 98.091200
6876 7 1 37.393291 -4.973868 98.123667
6877 7 1 37.859648 -4.447911 98.834920
6878 7 1 37.118779 -5.024347 99.179644
6879 7 1 36.672342 -5.568560 99.889945
6880 7 1 36.770155 -6.441156 99.411396
6881 7 1 37.278078 -7.232047 99.752728
6882 7 1 37.612143 -7.056720 98.826628
6883 7 1 36.941708 -7.776563 99.006468
6884 7 1 36.439896 -7.527591 98.178097
6885 7 1 35.488420 -7.465215 97.876761
6886 7 1 35.670102 -8.071799 97.102780
6887 7 1 36.018237 -8.002986 96.167865
6888 7 1 35.210797 -8.592743 96.152819
6889 7 1 35.074496 -7.661110 96.489689
6890 7 1 34.288920 -7.344676 95.957956
6891 7 1 35.094822 -6.875394 95.596990
6892 7 1 34.419865 -6.322982 96.086147
6893 7 1 35.177434 -6.858506 96.459380
6894 7 1 34.481760 -7.217729 97.081470
6895 7 1 33.511340 -6.976308 97.081218
6896 7 1 32.681811 -6.418737 97.112782
6897 7 1 32.835532 -5.483515 97.431734
6898 7 1 33.170109 -4.790508 96.793142
6899 7 1 34.155167 -4.930005 96.894143
6900 7 1 34.307414 -5.430356 97.746475
6901 7 1 35.074163 -5.549537 97.115688
6902 7 1 34.802610 -6.181261 97.841763
6903 7 1 35.768690 -5.924248 97.816603
6904 7 1 35.955496 -6.510835 98.604650
6905 7 1 35.878230 -6.558460 99.600523
6906 7 1 35.195116 -5.910316 99.263974
6907 7 1 35.842427 -5.309929 98.794374
6908 7 1 35.095227 -4.723212 99.106552
6909 7 1 34.103325 -4.641629 99.203894
6910 7 1 34.404383 -5.593202 99.266123
6911 7 1 33.741583 -6.318711 99.080833
6912 7 1 32.764660 -6.423997 98.894992
6913 7 1 31.984210 -6.770437 99.415450
6914 7 1 32.123850 -6.637239 98.434247
6915 7 1 31.621511 -5.938298 98.943302
6916 7 1 31.170606 -6.005898 99.833311
6917 7 1 30.208087 -5.734811 99.841553
6918 7 1 29.485967 -5.326604 99.283065
6919 7 1 29.847219 -4.425383 99.043695
6920 7 1 29.317592 -5.018281 98.437093
6921 7 1 29.379385 -6.000612 98.613754
6922 7 1 29.507406 -5.559964 97.725249
6923 7 1 30.211512 -5.782398 98.399607
6924 7 1 30.614420 -5.335834 99.198509
6925 7 1 31.335436 -4.750503 98.827668
6926 7 1 31.031251 -4.405142 97.939864
6927 7 1 32.010273 -4.606718 97.910170
6928 7 1 32.609038 -5.013471 98.600121
6929 7 1 32.829138 -4.466586 97.792362
6930 7 1 32.780962 -3.962621 98.654742
6931 7 1 32.435160 -3.324830 99.342959
6932 7 1 33.401109 -3.202370 99.570873
6933 7 1 34.133048 -3.733428 99.143975
6934 7 1 33.853465 -4.238925 99.960251
6935 7 1 33.158793 -4.551904 99.312582
6936 7 1 33.422607 -4.962807 98.439908
6937 7 1 33.699867 -4.083137 98.053503
6938 7 1 33.170726 -3.601643 97.354810
6939 7 1 33.980354 -3.749718 96.786852
6940 7 1 34.647541 -4.326075 96.314970
6941 7 1 34.164585 -4.641765 95.498212
6942 7 1 34.314371 -4.161885 94.633760
6943 7 1 33.485055 -3.603537 94.611791
6944 7 1 34.143493 -3.727730 93.869473
6945 7 1 34.314133 -4.114792 92.963347
6946 7 1 33.489348 -3.552031 93.018378
6947 7 1 33.775201 -3.884763 92.119725
6948 7 1 34.134479 -3.049736 92.536437
6949 7 1 34.586988 -3.877052 92.203596
6950 7 1 34.692695 -3.181083 91.493348
6951 7 1 35.073562 -2.509726 92.129131
6952 7 1 34.255260 -1.968388 92.322353
6953 7 1 34.726941 -1.087141 92.352681
6954 7 1 33.912468 -0.506960 92.347898
6955 7 1 32.945770 -0.659272 92.553560
6956 7 1 32.150371 -0.239842 92.991075
6957 7 1 31.530464 -0.148561 93.770423
6958 7 1 31.961612 0.313259 94.545557
6959 7 1 31.843806 1.029582 93.857805
6960 7 1 32.719561 1.084674 94.337407
6961 7 1 33.382149 0.604401 94.912137
6962 7 1 33.216874 1.320380 95.590412
6963 7 1 32.930500 0.395926 95.842153
6964 7 1 32.231700 0.467256 96.553905
6965 7 1 31.339012 0.116307 96.271164
6966 7 1 31.571997 -0.783249 95.901682
6967 7 1 31.417198 0.075534 95.413286
6968 7 1 30.783813 0.749616 95.793334
6969 7 1 30.301579 0.629981 94.925499
6970 7 1 30.769236 1.472676 94.658734
6971 7 1 31.279723 1.980245 93.964633
6972 7 1 31.676794 2.140387 93.060925
6973 7 1 32.095944 3.044362 92.976405
6974 7 1 31.232566 3.390080 92.608902
6975 7 1 31.886765 2.936622 92.003592
6976 7 1 31.494732 2.852672 91.087480
6977 7 1 31.791756 1.907513 90.951641
6978 7 1 32.194666 1.140921 91.451640
6979 7 1 32.560876 0.325543 91.900025
6980 7 1 33.531363 0.563387 91.939841
6981 7 1 33.416902 1.267272 92.640873
6982 7 1 33.783383 1.722994 93.452050
6983 7 1 34.271962 2.080791 94.247834
6984 7 1 34.021461 2.816081 94.877595
6985 7 1 33.646668 1.892946 94.963337
6986 7 1 32.739659 2.002001 94.556592
6987 7 1 33.385007 2.737542 94.350426
6988 7 1 32.933732 3.490907 93.872104
6989 7 1 32.245373 2.794082 94.073589
6990 7 1 31.648545 3.268175 94.720916
6991 7 1 32.528547 3.741686 94.758110
6992 7 1 33.348592 3.783306 95.328893
6993 7 1 32.923238 4.546239 94.842059
6994 7 1 33.493029 4.817528 94.066339
6995 7 1 33.963833 5.250615 93.297717
6996 7 1 34.210892 4.507193 92.676199
6997 7 1 34.914239 3.985956 92.192862
6998 7 1 35.252036 3.822303 91.265979
6999 7 1 34.767646 3.010256 91.591473
7000 7 1 34.959100 2.206431 92.154686
7001 8 1 14.801275 72.687701 36.914587
7002 8 1 14.646976 72.619817 35.928898
7003 8 1 14.178996 72.870456 35.081446
7004 8 1 13.423362 73.507154 35.235178
7005 8 1 12.695621 74.122364 35.538346
7006 8 1 13.169896 74.068265 36.417059
7007 8 1 13.900461 73.582325 35.937333
7008 8 1 14.486083 74.364039 36.151737
7009 8 1 15.385407 74.078273 36.482727
7010 8 1 16.331218 74.398228 36.427309
7011 8 1 16.729141 74.010277 35.595954
7012 8 1 16.548113 73.026803 35.593343
7013 8 1 15.667609 72.711843 35.947622
7014 8 1 15.335382 72.014996 36.583255
7015 8 1 16.064816 71.602034 37.128588
7016 8 1 16.102917 72.554343 37.431335
7017 8 1 15.833049 72.035339 38.242388
7018 8 1 16.795904 71.773947 38.174674
7019 8 1 17.308912 71.046785 37.718540
7020 8 1 17.453921 70.927312 38.700730
7021 8 1 17.838435 70.545639 39.541251
7022 8 1 18.724793 70.203025 39.852674
7023 8 1 19.493185 70.660222 39.404853
7024 8 1 19.596144 71.104835 40.294639
7025 8 1 19.498999 70.111851 40.227212
7026 8 1 19.038555 70.242685 41.105206
7027 8 1 18.852433 69.566766 40.392120
7028 8 1 18.016426 69.591323 39.843951
7029 8 1 18.398558 68.879520 40.433283
7030 8 1 17.822733 68.099767 40.187496
7031 8 1 16.838277 67.925367 40.208282
7032 8 1 16.429846 67.409467 40.961296
7033 8 1 15.937637 67.610999 40.114470
7034 8 1 15.321920 68.173457 39.562624
7035 8 1 14.834045 68.545907 38.773157
7036 8 1 14.595196 68.841014 37.848028
7037 8 1 15.021094 69.380640 38.574261
7038 8 1 15.803079 69.314658 39.194056
7039 8 1 16.626438 69.790518 39.503309
7040 8 1 16.163973 69.361124 40.279032
7041 8 1 15.212864 69.161005 40.043777
7042 8 1 15.130281 69.430641 41.003191
7043 8 1 14.561179 68.729329 40.573907
7044 8 1 15.321286 68.371662 41.116413
7045 8 1 15.115857 69.062795 41.809329
7046 8 1 14.975853 69.674496 42.587932
7047 8 1 14.645209 68.739752 42.718042
7048 8 1 14.603210 67.816551 43.100057
7049 8 1 13.655789 67.850020 43.418292
7050 8 1 13.545758 66.964498 42.966912
7051 8 1 12.636604 67.379897 42.996630
7052 8 1 12.707452 67.745995 43.924506
7053 8 1 12.154745 67.106457 44.458833
7054 8 1 11.391729 66.622859 44.887715
7055 8 1 11.916097 66.227562 44.133542
7056 8 1 12.894809 66.156554 43.940976
7057 8 1 12.602361 66.231108 44.894346
7058 8 1 13.014256 67.142115 44.914565
7059 8 1 13.852229 67.495492 44.498721
7060 8 1 13.072219 67.980204 44.894498
7061 8 1 12.603978 68.636402 45.486236
7062 8 1 13.452785 69.161451 45.548286
7063 8 1 13.178312 69.681177 46.357328
7064 8 1 13.880679 69.939968 47.020433
7065 8 1 13.317025 70.613372 46.542081
7066 8 1 12.633497 70.532448 45.816656
7067 8 1 12.430708 71.497220 45.984260
7068 8 1 13.423437 71.601227 45.923668
7069 8 1 13.555293 71.379225 44.957579
7070 8 1 12.637780 70.981815 44.972907
7071 8 1 11.757850 71.299607 44.619735
7072 8 1 11.720107 70.656944 43.854516
7073 8 1 12.268340 71.420021 43.512236
7074 8 1 12.610319 71.924569 44.305004
7075 8 1 13.277947 72.634391 44.080447
7076 8 1 13.028179 73.274864 43.354217
7077 8 1 12.582358 72.545566 42.835211
7078 8 1 11.761790 73.112585 42.763407
7079 8 1 11.114917 73.578539 42.159716
7080 8 1 10.672815 72.710275 42.384802
7081 8 1 11.399637 72.106047 42.058249
7082 8 1 11.090226 71.298244 42.559966
7083 8 1 10.482379 71.120938 43.333972
7084 8 1 9.488190 71.013294 43.332945
7085 8 1 9.481784 70.371657 42.565964
7086 8 1 10.284828 70.963220 42.494040
7087 8 1 11.013905 70.980141 41.809817
7088 8 1 11.456138 70.331595 42.429348
7089 8 1 11.348474 69.738735 43.227424
7090 8 1 10.763341 69.291838 42.550740
7091 8 1 10.927349 68.439193 43.046823
7092 8 1 11.803741 68.830863 43.327061
7093 8 1 11.998179 67.901806 43.012342
7094 8 1 12.222678 68.594841 42.327285
7095 8 1 12.827590 67.886841 41.962845
7096 8 1 12.798330 66.891533 41.870619
7097 8 1 11.852575 67.061783 41.593919
7098 8 1 12.183796 67.756541 40.955481
7099 8 1 12.655935 68.524189 41.388843
7100 8 1 11.918322 69.196491 41.451587
7101 8 1 12.852079 69.501679 41.264619
7102 8 1 13.073774 69.963392 40.405740
7103 8 1 13.867287 70.054110 39.803987
7104 8 1 13.695438 69.074634 39.698653
7105 8 1 13.038676 68.452684 40.125081
7106 8 1 12.215683 68.585220 39.572707
7107 8 1 11.605662 69.363123 39.723506
7108 8 1 10.803025 69.872538 39.413231
7109 8 1 10.202962 69.598262 38.661768
7110 8 1 10.159991 70.448368 39.186623
7111 8 1 9.624938 70.583580 40.020551
7112 8 1 9.677989 71.543397 40.296118
7113 8 1 10.557932 71.525645 40.770865
7114 8 1 10.426889 71.139821 39.857647
7115 8 1 10.860981 72.040429 39.835964
7116 8 1 11.763446 71.939904 39.417095
7117 8 1 11.311148 71.586442 38.598260
7118 8 1 10.581433 71.918320 38.000453
7119 8 1 10.351088 72.738763 38.523726
7120 8 1 9.569021 72.504968 39.101403
7121 8 1 8.801505 72.532487 38.460964
7122 8 1 9.636045 71.994304 38.343053
7123 8 1 9.464473 72.938219 38.060942
7124 8 1 9.703650 72.388937 37.260265
7125 8 1 10.147415 73.240532 36.981234
7126 8 1 9.941311 73.623484 36.080751
7127 8 1 9.781146 74.390198 36.702440
7128 8 1 9.130275 74.210850 35.964740
7129 8 1 9.176078 73.488158 35.275089
7130 8 1 8.628977 73.552615 36.109670
7131 8 1 7.669223 73.491552 35.835545
7132 8 1 7.408824 73.624650 36.791828
7133 8 1 7.404848 74.460056 36.242209
7134 8 1 7.479270 75.237398 36.866870
7135 8 1 7.689295 75.408154 37.829539
7136 8 1 7.706122 74.641502 38.471382
7137 8 1 7.537273 73.871117 39.086196
7138 8 1 6.984637 74.119962 38.290791
7139 8 1 6.268633 74.471366 37.687589
7140 8 1 6.228269 75.048760 36.872121
7141 8 1 6.782881 75.717285 37.367579
7142 8 1 6.545476 75.164708 38.166514
7143 8 1 7.131361 75.941428 38.397694
7144 8 1 6.730354 76.822508 38.146910
7145 8 1 6.362625 77.751529 38.105740
7146 8 1 6.573048 77.212395 38.921250
7147 8 1 7.413666 76.713293 39.131626
7148 8 1 7.258917 75.882424 39.666145
7149 8 1 7.396494 76.757448 40.130263
7150 8 1 7.534653 77.732458 39.956284
7151 8 1 7.269490 78.654263 39.673505
7152 8 1 7.762333 79.025088 38.886361
7153 8 1 7.658732 79.849674 38.330192
7154 8 1 7.273178 80.677291 38.738111
7155 8 1 7.542893 79.890529 39.293321
7156 8 1 7.288177 79.806382 40.256669
7157 8 1 6.855731 79.814075 41.158296
7158 8 1 6.474029 80.129902 40.289644
7159 8 1 6.068948 79.383140 39.762145
7160 8 1 5.658299 79.349796 40.673329
7161 8 1 5.076555 78.581381 40.406659
7162 8 1 4.332351 78.539085 39.740047
7163 8 1 4.948464 77.753921 39.802684
7164 8 1 4.918615 76.947563 39.212010
7165 8 1 5.390715 76.325390 38.587492
7166 8 1 5.794964 75.416712 38.483155
7167 8 1 4.869133 75.716237 38.713638
7168 8 1 5.049265 74.789988 38.382555
7169 8 1 4.897492 74.267779 37.543352
7170 8 1 4.257522 74.522965 38.268140
7171 8 1 4.290742 73.543205 38.070739
7172 8 1 3.589756 73.592171 38.782232
7173 8 1 3.148689 73.756534 37.899937
7174 8 1 3.442625 73.434640 36.999944
7175 8 1 4.356415 73.031922 37.052928
7176 8 1 4.535125 73.288425 36.103050
7177 8 1 4.213159 72.757998 35.318840
7178 8 1 3.533295 73.357726 35.740872
7179 8 1 3.528151 73.957841 34.940974
7180 8 1 3.419886 74.742554 34.330643
7181 8 1 4.035691 75.511045 34.156845
7182 8 1 4.710834 74.993381 33.631293
7183 8 1 4.824539 74.189240 33.047830
7184 8 1 5.620537 74.040661 33.634611
7185 8 1 6.127222 74.085306 34.495585
7186 8 1 6.059728 73.102208 34.325400
7187 8 1 5.130112 73.196102 33.969031
7188 8 1 4.156203 72.974433 34.017647
7189 8 1 3.647338 73.828565 34.124962
7190 8 1 2.717083 74.193241 34.084517
7191 8 1 2.846799 74.877613 33.367014
7192 8 1 2.896698 74.183516 32.648864
7193 8 1 3.239583 73.252696 32.775369
7194 8 1 3.614666 72.465142 32.286420
7195 8 1 3.134139 72.155411 33.106884
7196 8 1 2.274548 71.959517 32.634941
7197 8 1 2.366428 71.620784 33.571327
7198 8 1 3.174602 71.408791 34.120794
7199 8 1 3.918686 70.814164 33.816232
7200 8 1 4.367758 71.707545 33.830541
7201 8 1 5.221099 71.520553 33.343876
7202 8 1 5.139464 72.219947 32.633816
7203 8 1 5.230050 73.175475 32.353173
7204 8 1 5.988010 73.560668 31.826748
7205 8 1 6.830922 73.023066 31.804775
7206 8 1 6.633607 72.454826 31.005920
7207 8 1 6.095907 71.935347 31.670014
7208 8 1 6.259699 71.360839 30.868070
7209 8 1 5.736269 70.526261 31.039829
7210 8 1 5.665972 70.447024 30.045455
7211 8 1 5.565690 70.441512 29.050511
7212 8 1 5.273252 69.642035 28.525805
7213 8 1 4.730826 68.836305 28.287953
7214 8 1 5.270130 68.942001 27.452502
7215 8 1 5.849793 69.724480 27.225089
7216 8 1 5.267269 69.909101 26.433521
7217 8 1 4.375725 70.260471 26.719333
7218 8 1 3.783681 69.463670 26.598537
7219 8 1 3.985207 68.571683 26.193881
7220 8 1 4.277276 67.620497 26.293587
7221 8 1 3.845665 67.116227 25.545640
7222 8 1 3.357793 67.695806 24.892900
7223 8 1 3.355359 68.594612 24.454559
7224 8 1 4.169777 68.822054 23.920711
7225 8 1 4.610198 68.191976 24.560266
7226 8 1 4.556892 67.296905 25.002992
7227 8 1 5.163103 68.070289 25.188421
7228 8 1 5.976470 67.573592 25.491285
7229 8 1 6.334462 67.483647 24.561903
7230 8 1 7.315079 67.397833 24.738041
7231 8 1 7.767820 66.506885 24.773209
7232 8 1 6.918460 66.361311 24.265866
7233 8 1 6.064558 66.183707 23.776676
7234 8 1 5.628308 65.840292 22.944959
7235 8 1 4.820393 65.591625 22.410695
7236 8 1 3.896196 65.253825 22.232508
7237 8 1 3.565574 66.186986 22.373574
7238 8 1 3.336486 67.152385 22.498164
7239 8 1 3.487670 68.112460 22.262791
7240 8 1 3.525057 67.795325 23.210434
7241 8 1 2.635510 67.346961 23.298042
7242 8 1 1.969910 66.748106 22.852678
7243 8 1 1.087818 66.380921 22.557567
7244 8 1 0.278495 66.075454 22.055884
7245 8 1 -0.141242 65.278888 21.620794
7246 8 1 -0.534889 64.597758 22.238131
7247 8 1 -0.452615 63.608768 22.115131
7248 8 1 -1.406183 63.730050 21.839455
7249 8 1 -1.526962 64.630003 21.420529
7250 8 1 -1.754397 65.492153 20.967794
7251 8 1 -2.123198 64.784435 20.365198
7252 8 1 -1.847184 64.703527 19.407456
7253 8 1 -1.180479 65.335041 19.803301
7254 8 1 -0.286994 65.690831 19.529259
7255 8 1 -0.433741 64.701659 19.526949
7256 8 1 0.272658 65.006841 20.165592
7257 8 1 -0.207873 64.198961 20.506795
7258 8 1 -0.675557 64.889180 21.058945
7259 8 1 -1.238607 64.119436 20.758166
7260 8 1 -1.756722 63.703439 20.010835
7261 8 1 -1.251069 62.849252 20.131991
7262 8 1 -1.307457 61.910376 19.792384
7263 8 1 -2.192758 62.140737 19.388434
7264 8 1 -2.901134 62.029788 20.085494
7265 8 1 -2.821387 61.148136 19.620381
7266 8 1 -3.468019 60.676464 20.219874
7267 8 1 -4.272918 60.083056 20.217701
7268 8 1 -3.418083 59.678784 20.543003
7269 8 1 -2.718049 58.977133 20.410194
7270 8 1 -2.424079 59.503010 19.612049
7271 8 1 -1.773255 58.754306 19.486072
7272 8 1 -1.800629 59.030512 18.525364
7273 8 1 -1.370600 58.440965 17.841617
7274 8 1 -0.658537 58.722058 18.485008
7275 8 1 -0.353408 58.772237 19.435997
7276 8 1 -0.716198 58.135887 20.116762
7277 8 1 -0.618828 57.142133 20.171291
7278 8 1 -0.075248 57.829143 20.653513
7279 8 1 0.137791 57.489142 19.737536
7280 8 1 0.109080 56.509010 19.541280
7281 8 1 -0.751810 56.892373 19.206765
7282 8 1 -1.615672 57.382554 19.322804
7283 8 1 -2.230414 57.671565 20.056675
7284 8 1 -3.140006 57.312818 20.266300
7285 8 1 -3.154404 56.313404 20.235252
7286 8 1 -3.974710 56.783212 20.561408
7287 8 1 -4.852512 56.346267 20.365087
7288 8 1 -4.288627 56.031349 21.128540
7289 8 1 -5.059736 55.448337 21.384446
7290 8 1 -5.925452 55.143253 21.781258
7291 8 1 -6.706884 55.039264 22.396522
7292 8 1 -7.541535 55.226374 22.914546
7293 8 1 -7.587926 54.670175 23.744299
7294 8 1 -7.151268 54.882311 24.618558
7295 8 1 -7.844489 55.601533 24.572047
7296 8 1 -7.239966 56.354125 24.833118
7297 8 1 -8.003040 56.948808 25.086239
7298 8 1 -7.641159 57.393609 25.905504
7299 8 1 -6.673744 57.607801 25.770486
7300 8 1 -5.911193 56.972809 25.894180
7301 8 1 -5.649344 57.917295 25.695734
7302 8 1 -5.089766 58.048423 24.877395
7303 8 1 -5.426207 58.691170 25.565642
7304 8 1 -5.584337 59.036476 24.640570
7305 8 1 -5.188395 59.954717 24.648516
7306 8 1 -5.819640 59.869326 23.877648
7307 8 1 -6.773158 59.752645 23.599820
7308 8 1 -6.467928 60.701971 23.674745
7309 8 1 -5.555125 61.109058 23.707498
7310 8 1 -5.541701 62.015079 24.130518
7311 8 1 -4.598060 62.244338 23.891808
7312 8 1 -4.603549 62.284857 22.892645
7313 8 1 -4.812786 62.157690 21.923083
7314 8 1 -4.329167 61.282761 21.898359
7315 8 1 -3.597099 61.104794 22.555934
7316 8 1 -4.333514 61.465441 23.128322
7317 8 1 -4.448677 60.618476 23.647348
7318 8 1 -4.179432 60.071156 22.854916
7319 8 1 -3.905787 59.631952 21.999219
7320 8 1 -3.791097 58.783829 22.516455
7321 8 1 -4.485454 58.643693 21.810600
7322 8 1 -5.138199 59.101117 22.414494
7323 8 1 -4.847662 59.974340 22.023251
7324 8 1 -4.696942 60.286419 21.085227
7325 8 1 -4.002542 60.989817 20.933439
7326 8 1 -3.248334 61.645251 20.973154
7327 8 1 -2.862244 62.032831 21.810241
7328 8 1 -2.430993 62.784648 21.311449
7329 8 1 -2.065873 62.536311 22.208676
7330 8 1 -1.139293 62.872687 22.376906
7331 8 1 -1.585696 62.672310 21.504797
7332 8 1 -0.737462 63.027823 21.112228
7333 8 1 -0.098101 62.904518 20.353273
7334 8 1 0.705577 62.441820 19.979089
7335 8 1 -0.038809 61.806865 19.772395
7336 8 1 -0.171299 61.333302 20.643133
7337 8 1 -1.115913 61.618548 20.805424
7338 8 1 -2.070981 61.474446 20.546427
7339 8 1 -2.065157 60.654015 21.118142
7340 8 1 -1.097072 60.900175 21.165209
7341 8 1 -1.133945 59.946442 20.866826
7342 8 1 -0.688311 59.367465 20.184041
7343 8 1 -1.609800 59.260200 20.557340
7344 8 1 -1.125319 58.871860 21.341222
7345 8 1 -0.649228 59.020784 22.207916
7346 8 1 -1.448899 59.495040 22.576167
7347 8 1 -2.326260 59.934199 22.769494
7348 8 1 -1.677187 60.691800 22.700612
7349 8 1 -0.855916 60.874187 23.241214
7350 8 1 -0.738212 60.632832 22.277941
7351 8 1 -0.447068 59.867722 22.852261
7352 8 1 -0.945051 59.461086 23.618199
7353 8 1 -1.142162 60.129727 24.335183
7354 8 1 -1.704434 59.892588 23.542962
7355 8 1 -2.037900 58.954319 23.451020
7356 8 1 -2.996872 59.076805 23.706695
7357 8 1 -3.126184 60.023889 24.000481
7358 8 1 -2.797188 59.303882 24.611506
7359 8 1 -1.834394 59.289748 24.341642
7360 8 1 -1.335578 59.286869 25.208346
7361 8 1 -1.132446 59.658169 26.114366
7362 8 1 -0.965196 60.285550 26.874906
7363 8 1 -1.422018 61.174702 26.848028
7364 8 1 -0.978501 60.666813 27.586501
7365 8 1 -0.011732 60.919910 27.622562
7366 8 1 0.352796 61.324944 28.461053
7367 8 1 -0.147780 62.157328 28.223230
7368 8 1 0.198967 61.736441 27.385006
7369 8 1 0.995823 62.123582 26.921171
7370 8 1 1.994793 62.078709 26.914490
7371 8 1 2.486674 62.938261 27.053138
7372 8 1 2.252489 63.411671 27.902279
7373 8 1 1.598023 63.613144 28.631033
7374 8 1 1.232276 64.479015 28.289719
7375 8 1 1.059561 65.432440 28.537007
7376 8 1 1.144348 65.532446 29.528374
7377 8 1 0.776416 65.303842 30.429688
7378 8 1 1.551797 64.674728 30.374917
7379 8 1 1.461398 64.015897 31.121756
7380 8 1 1.724999 63.735452 30.198791
7381 8 1 1.673389 64.358236 29.418100
7382 8 1 2.151852 65.044318 28.870045
7383 8 1 1.911307 65.795326 29.484963
7384 8 1 1.243860 66.530903 29.369026
7385 8 1 2.203459 66.481847 29.091965
7386 8 1 2.761492 65.958041 29.735569
7387 8 1 3.438654 65.223038 29.700597
7388 8 1 3.955815 65.730156 29.011121
7389 8 1 3.444485 66.584578 28.918898
7390 8 1 4.317641 66.949951 28.596251
7391 8 1 5.125506 66.367397 28.685619
7392 8 1 4.893596 66.909506 27.877946
7393 8 1 5.460566 67.713974 28.055079
7394 8 1 5.917097 67.289650 27.273077
7395 8 1 5.211542 67.997063 27.231139
7396 8 1 4.280166 67.637971 27.291054
7397 8 1 4.910521 67.213675 26.640958
7398 8 1 4.521148 66.429515 27.124159
7399 8 1 3.648619 66.477249 26.637934
7400 8 1 3.031078 65.845066 27.105896
7401 8 1 3.114837 65.424711 26.202411
7402 8 1 2.183506 65.769517 26.319587
7403 8 1 2.553149 66.697225 26.267411
7404 8 1 2.599343 67.062267 27.197255
7405 8 1 3.401790 67.411076 27.681417
7406 8 1 2.676801 68.035515 27.972048
7407 8 1 3.212227 68.442495 28.712106
7408 8 1 2.402705 68.340438 29.290258
7409 8 1 2.261498 67.359845 29.426262
7410 8 1 1.680318 67.820195 28.755213
7411 8 1 1.574235 68.032962 27.783885
7412 8 1 1.942453 68.466468 26.961396
7413 8 1 1.417622 69.013968 27.613160
7414 8 1 1.491974 69.410288 26.698063
7415 8 1 0.610605 69.685948 27.081731
7416 8 1 -0.268179 69.262743 27.302266
7417 8 1 0.038501 68.701938 28.071321
7418 8 1 0.920200 68.246944 28.196167
7419 8 1 0.428647 68.437068 29.046007
7420 8 1 -0.452127 68.219487 29.466596
7421 8 1 0.134515 67.921195 30.219506
7422 8 1 -0.586136 67.503255 30.772668
7423 8 1 -1.195819 67.017128 30.146595
7424 8 1 -0.216326 66.936769 30.331356
7425 8 1 0.752700 66.691205 30.305164
7426 8 1 1.254362 66.693431 31.170225
7427 8 1 0.553826 66.194905 31.680834
7428 8 1 -0.342306 66.463504 31.327561
7429 8 1 -0.606277 66.651776 32.273538
7430 8 1 -1.285392 66.467366 31.563048
7431 8 1 -1.220144 65.922578 30.727017
7432 8 1 -1.980488 66.040413 30.088275
7433 8 1 -1.624139 66.716067 29.442901
7434 8 1 -2.544643 66.334718 29.528026
7435 8 1 -2.187110 67.204789 29.867358
7436 8 1 -2.666735 67.940141 30.346125
7437 8 1 -2.458161 68.755603 30.886050
7438 8 1 -2.712538 69.227063 30.041646
7439 8 1 -2.271922 68.588012 29.411193
7440 8 1 -3.010250 68.125271 28.920538
7441 8 1 -3.323253 67.238652 28.580044
7442 8 1 -2.505367 66.978341 28.066917
7443 8 1 -2.321384 66.298687 27.356832
7444 8 1 -2.064251 65.696818 28.112899
7445 8 1 -2.932022 65.250070 28.330593
7446 8 1 -3.350572 66.091297 28.672870
7447 8 1 -3.511810 65.687996 29.573620
7448 8 1 -3.895617 65.705100 30.496875
7449 8 1 -4.222837 64.793734 30.746552
7450 8 1 -3.780682 65.119273 31.582329
7451 8 1 -3.292500 64.319106 31.930771
7452 8 1 -3.719959 64.214110 32.828688
7453 8 1 -4.316239 63.600856 32.310644
7454 8 1 -5.240962 63.844108 32.017871
7455 8 1 -5.516285 63.824938 32.979031
7456 8 1 -4.917790 64.625969 32.966653
7457 8 1 -5.545339 65.353850 32.690298
7458 8 1 -5.033500 64.814613 32.021535
7459 8 1 -5.605759 64.829044 31.201589
7460 8 1 -5.219973 64.765047 30.281223
7461 8 1 -5.112173 63.797086 30.054439
7462 8 1 -5.244763 62.910232 30.497055
7463 8 1 -6.150114 62.770562 30.096016
7464 8 1 -6.506658 63.415907 29.420438
7465 8 1 -6.001237 62.663775 28.997534
7466 8 1 -5.184474 62.602695 28.423804
7467 8 1 -5.000121 61.634505 28.254625
7468 8 1 -4.455166 60.831668 28.012805
7469 8 1 -4.900877 61.117084 27.164347
7470 8 1 -4.778039 60.446251 26.432982
7471 8 1 -5.554158 60.850483 25.949004
7472 8 1 -6.464895 60.468961 26.107116
7473 8 1 -6.379099 59.482021 25.970777
7474 8 1 -5.646372 59.795292 26.574907
7475 8 1 -4.875561 59.413307 27.084747
7476 8 1 -4.037022 59.013425 26.714684
7477 8 1 -4.438949 58.107098 26.845161
7478 8 1 -4.357860 57.146384 27.110592
7479 8 1 -3.375898 56.957926 27.095266
7480 8 1 -4.080679 56.291993 27.339842
7481 8 1 -4.945823 56.324764 26.839391
7482 8 1 -4.761908 55.789127 26.015213
7483 8 1 -3.841746 55.657028 26.383793
7484 8 1 -2.917316 55.320262 26.562731
7485 8 1 -3.151564 54.361738 26.400372
7486 8 1 -3.608544 54.187264 27.272570
7487 8 1 -3.352028 55.137329 27.450269
7488 8 1 -4.299519 54.838295 27.563580
7489 8 1 -4.682289 54.061968 28.064383
7490 8 1 -3.991951 53.405644 27.759961
7491 8 1 -3.809904 52.759491 27.018783
7492 8 1 -4.657127 52.713014 26.489583
7493 8 1 -4.508913 51.726960 26.413887
7494 8 1 -5.411427 52.002795 26.744616
7495 8 1 -6.055066 52.171501 27.491120
7496 8 1 -6.197841 51.185275 27.407612
7497 8 1 -5.303265 50.770780 27.574729
7498 8 1 -5.379069 51.507526 28.246636
7499 8 1 -6.002474 50.791272 28.560237
7500 8 1 -6.948189 50.874098 28.245973
7501 8 1 -7.555671 50.235735 27.773258
7502 8 1 -8.483466 50.608236 27.794219
7503 8 1 -7.772811 50.739315 28.485441
7504 8 1 -7.099542 50.604873 29.212514
7505 8 1 -6.575055 49.876716 28.771264
7506 8 1 -6.775915 48.943069 28.474687
7507 8 1 -6.821624 48.905543 29.472937
7508 8 1 -6.195206 48.365975 30.035490
7509 8 1 -6.652204 47.677689 29.472095
7510 8 1 -6.408517 48.181065 28.643102
7511 8 1 -5.460890 48.474355 28.769532
7512 8 1 -5.261263 47.607242 28.313173
7513 8 1 -4.823398 47.759589 27.427134
7514 8 1 -5.542928 48.037446 26.790682
7515 8 1 -5.567199 47.371755 27.536515
7516 8 1 -6.020478 46.923757 26.765907
7517 8 1 -6.181301 46.161178 27.392492
7518 8 1 -6.486304 46.744756 28.145094
7519 8 1 -7.379304 46.909848 28.563777
7520 8 1 -7.144185 46.019642 28.953971
7521 8 1 -7.752153 45.821132 29.722716
7522 8 1 -6.797960 45.970694 29.981845
7523 8 1 -7.571571 45.675668 30.542635
7524 8 1 -7.252935 46.030474 31.421603
7525 8 1 -6.879687 45.280071 30.876092
7526 8 1 -6.445850 44.785264 31.629053
7527 8 1 -6.563489 44.986652 32.601475
7528 8 1 -6.408280 45.776447 33.194885
7529 8 1 -7.194027 46.276122 33.559474
7530 8 1 -7.277042 45.279916 33.585595
7531 8 1 -7.924648 45.926740 33.182823
7532 8 1 -8.088919 46.538925 33.956286
7533 8 1 -9.016331 46.527872 34.330164
7534 8 1 -9.547658 45.778442 33.935137
7535 8 1 -9.841904 45.855055 34.887791
7536 8 1 -10.837105 45.839569 34.791168
7537 8 1 -11.539155 45.188490 34.502686
7538 8 1 -12.476570 45.417708 34.764817
7539 8 1 -12.925070 45.865285 35.538460
7540 8 1 -12.476546 46.626969 35.070845
7541 8 1 -12.697840 47.437749 34.528937
7542 8 1 -13.633356 47.734290 34.336912
7543 8 1 -14.468092 47.211013 34.508370
7544 8 1 -14.809838 46.728230 35.314677
7545 8 1 -15.532803 46.411006 35.928427
7546 8 1 -15.890733 47.294803 35.627115
7547 8 1 -15.060559 47.763065 35.929673
7548 8 1 -14.572861 48.079615 35.116071
7549 8 1 -14.346762 49.038330 35.288537
7550 8 1 -15.232897 49.030972 35.751906
7551 8 1 -14.635989 48.623221 36.442876
7552 8 1 -14.369626 48.812451 37.387991
7553 8 1 -14.250755 47.861628 37.101974
7554 8 1 -13.798778 48.695311 36.784659
7555 8 1 -13.815965 49.511966 37.361529
7556 8 1 -13.287619 48.818049 37.850742
7557 8 1 -13.885471 48.800098 38.652147
7558 8 1 -13.104808 49.400013 38.827267
7559 8 1 -12.258270 49.737344 39.239069
7560 8 1 -12.765559 50.476884 38.796645
7561 8 1 -12.913662 51.353721 39.254053
7562 8 1 -13.197639 50.786904 40.027407
7563 8 1 -13.697970 50.157816 39.432497
7564 8 1 -13.671504 49.174819 39.614199
7565 8 1 -13.762315 49.877707 40.319678
7566 8 1 -14.391932 49.516904 41.007723
7567 8 1 -13.859213 49.516266 41.854015
7568 8 1 -14.502034 48.872979 42.269903
7569 8 1 -14.891140 48.848456 41.349037
7570 8 1 -14.708916 47.942094 40.967853
7571 8 1 -15.179418 47.932905 40.085501
7572 8 1 -16.147861 47.697844 40.168347
7573 8 1 -16.219967 46.925770 40.799776
7574 8 1 -15.354064 47.203299 41.215938
7575 8 1 -15.443209 46.227556 41.015993
7576 8 1 -15.121713 45.367167 40.620554
7577 8 1 -14.705039 44.471200 40.466843
7578 8 1 -15.505022 44.139441 40.966807
7579 8 1 -16.226466 43.508136 41.251361
7580 8 1 -15.436744 43.362113 41.847192
7581 8 1 -15.072720 42.990230 40.993266
7582 8 1 -14.239199 43.504202 41.195938
7583 8 1 -13.354869 43.064633 41.353224
7584 8 1 -13.435493 43.846330 40.734799
7585 8 1 -13.840682 44.307936 39.945658
7586 8 1 -13.195752 44.058763 39.223178
7587 8 1 -12.555668 43.772456 38.510211
7588 8 1 -12.786976 43.776369 37.537339
7589 8 1 -12.000188 44.352191 37.759583
7590 8 1 -11.231080 43.747904 37.967692
7591 8 1 -10.817721 43.669913 37.060470
7592 8 1 -10.301019 43.611032 36.206332
7593 8 1 -10.618298 44.509699 35.903459
7594 8 1 -10.612725 44.785093 34.942144
7595 8 1 -10.876310 44.112588 34.250580
7596 8 1 -11.688939 43.765840 33.782179
7597 8 1 -10.956661 43.191576 34.148225
7598 8 1 -10.778459 43.640120 35.024041
7599 8 1 -10.410936 42.717931 35.144432
7600 8 1 -10.713534 42.647887 36.094972
7601 8 1 -10.415510 41.920753 35.476540
7602 8 1 -10.706584 41.908837 36.433166
7603 8 1 -11.431074 41.241769 36.259574
7604 8 1 -12.218628 40.687719 35.989782
7605 8 1 -11.356117 40.196402 35.868609
7606 8 1 -11.393447 39.197125 35.861428
7607 8 1 -12.176042 39.791209 36.047467
7608 8 1 -12.742216 40.106942 36.808886
7609 8 1 -12.550345 40.310029 37.769063
7610 8 1 -13.055898 39.695443 38.374621
7611 8 1 -14.047683 39.635245 38.487484
7612 8 1 -13.561970 39.972783 37.681164
7613 8 1 -13.493155 40.907824 37.333368
7614 8 1 -13.207616 41.231394 38.235460
7615 8 1 -13.816237 40.846376 38.929248
7616 8 1 -14.702232 40.869301 39.392376
7617 8 1 -15.608565 40.879116 38.969925
7618 8 1 -15.752660 40.004239 39.432340
7619 8 1 -15.878708 40.244667 38.469891
7620 8 1 -16.808943 40.597477 38.368963
7621 8 1 -17.279781 39.775058 38.049686
7622 8 1 -16.966283 39.934116 37.113513
7623 8 1 -16.611713 40.400258 36.302963
7624 8 1 -17.369468 40.278700 35.661846
7625 8 1 -17.694922 41.173381 35.967827
7626 8 1 -18.077185 40.965190 36.868122
7627 8 1 -17.098628 41.097556 36.710311
7628 8 1 -16.225123 40.960323 37.177384
7629 8 1 -15.331888 40.903027 37.623307
7630 8 1 -15.051547 41.574022 38.309728
7631 8 1 -14.509984 42.382010 38.541816
7632 8 1 -14.752745 42.437525 37.573320
7633 8 1 -15.526212 42.797234 37.051440
7634 8 1 -16.014168 42.267297 36.357850
7635 8 1 -16.311490 43.188572 36.608554
7636 8 1 -15.856377 44.017490 36.283335
7637 8 1 -15.764455 43.621263 35.369795
7638 8 1 -16.172084 44.534358 35.379614
7639 8 1 -16.913751 45.172864 35.174091
7640 8 1 -17.071131 45.497980 34.241604
7641 8 1 -18.022171 45.702258 34.473541
7642 8 1 -18.061789 46.596333 34.027377
7643 8 1 -17.433228 46.664927 33.252648
7644 8 1 -17.651898 45.750619 32.911733
7645 8 1 -17.762696 45.422386 31.973657
7646 8 1 -17.528032 46.389932 32.067396
7647 8 1 -18.141473 46.525695 31.289412
7648 8 1 -17.280374 46.463878 30.784747
7649 8 1 -16.993528 45.592574 31.182928
7650 8 1 -17.090076 44.843048 30.528031
7651 8 1 -16.410327 44.614510 29.831101
7652 8 1 -15.422612 44.559279 29.977281
7653 8 1 -15.870463 43.665209 29.969102
7654 8 1 -16.644064 43.502932 29.356559
7655 8 1 -17.235429 43.803330 28.608196
7656 8 1 -17.595998 44.643964 29.012331
7657 8 1 -18.485871 45.082809 28.887664
7658 8 1 -18.656684 45.344134 27.937647
7659 8 1 -18.780431 46.237007 28.370619
7660 8 1 -18.529950 47.078774 27.892406
7661 8 1 -19.483656 47.140940 27.598160
7662 8 1 -20.260381 46.642214 27.982830
7663 8 1 -21.198490 46.554324 28.317833
7664 8 1 -20.997463 47.028952 27.460910
7665 8 1 -21.065891 48.022911 27.546712
7666 8 1 -21.955439 48.100014 27.096423
7667 8 1 -22.751264 48.241542 27.685178
7668 8 1 -23.559127 48.800048 27.496954
7669 8 1 -22.640960 49.178165 27.378650
7670 8 1 -23.293358 49.474516 28.076183
7671 8 1 -23.774241 50.350495 28.113761
7672 8 1 -22.833596 50.669930 27.999087
7673 8 1 -22.445654 51.491378 28.417087
7674 8 1 -22.925820 51.663188 29.277274
7675 8 1 -22.180466 52.321832 29.380402
7676 8 1 -21.961720 53.008700 30.073484
7677 8 1 -22.275653 52.110123 30.380088
7678 8 1 -23.216889 51.797678 30.251819
7679 8 1 -23.388987 51.046552 30.889150
7680 8 1 -22.487990 51.480248 30.878627
7681 8 1 -23.167453 52.168479 31.132926
7682 8 1 -23.379722 52.031506 32.100490
7683 8 1 -24.346349 52.087981 32.350376
7684 8 1 -23.925877 51.623410 31.571032
7685 8 1 -24.796723 51.397962 32.007838
7686 8 1 -25.499581 51.955382 31.565940
7687 8 1 -25.065585 52.787647 31.910878
7688 8 1 -24.880080 52.532297 30.961992
7689 8 1 -23.954114 52.687596 31.306185
7690 8 1 -24.019302 52.707134 30.308503
7691 8 1 -24.484198 53.589463 30.235242
7692 8 1 -24.716455 52.735170 29.770226
7693 8 1 -24.508201 52.065643 29.057229
7694 8 1 -24.021584 52.704014 28.460835
7695 8 1 -24.614146 52.824672 27.664398
7696 8 1 -24.289084 52.507076 26.773630
7697 8 1 -24.116837 53.284698 26.168952
7698 8 1 -23.150042 53.194094 26.407906
7699 8 1 -23.765457 53.894140 26.770122
7700 8 1 -24.419640 54.601871 26.503362
7701 8 1 -25.028356 55.127688 25.909239
7702 8 1 -26.003333 54.920996 25.991083
7703 8 1 -26.100486 55.776572 26.499562
7704 8 1 -25.947383 55.775556 25.511352
7705 8 1 -25.229150 56.372985 25.868031
7706 8 1 -25.364842 56.957712 25.068230
7707 8 1 -24.418464 56.635088 25.051422
7708 8 1 -24.194980 57.242152 25.814003
7709 8 1 -25.023835 57.797476 25.881930
7710 8 1 -25.173239 58.305891 25.033878
7711 8 1 -26.018798 58.785368 25.268681
7712 8 1 -26.859743 58.371556 24.920012
7713 8 1 -26.182200 58.166322 24.213744
7714 8 1 -25.667157 58.004536 23.371987
7715 8 1 -25.745529 57.512320 22.505049
7716 8 1 -25.219591 56.754249 22.890688
7717 8 1 -25.878559 56.752817 23.642858
7718 8 1 -26.011768 55.820956 23.305382
7719 8 1 -25.440491 55.354788 22.629859
7720 8 1 -25.890553 54.526788 22.964313
7721 8 1 -25.579783 53.992577 23.750469
7722 8 1 -24.973789 53.370213 23.255056
7723 8 1 -25.410873 52.966565 22.451299
7724 8 1 -24.928975 52.386645 21.794438
7725 8 1 -24.433801 52.475763 20.930227
7726 8 1 -24.265880 53.155422 21.644276
7727 8 1 -24.926216 53.488312 20.971119
7728 8 1 -24.548891 54.283286 20.496101
7729 8 1 -24.561921 55.268618 20.325947
7730 8 1 -25.078860 55.594899 21.117348
7731 8 1 -24.135699 55.922727 21.171903
7732 8 1 -23.727371 56.142620 20.285948
7733 8 1 -24.012506 57.098725 20.353485
7734 8 1 -23.939628 56.957452 19.366201
7735 8 1 -24.647368 56.381206 18.957490
7736 8 1 -24.746410 57.325494 18.643624
7737 8 1 -25.200175 58.132171 18.264982
7738 8 1 -24.370723 58.321672 18.790433
7739 8 1 -23.897149 57.613930 18.266191
7740 8 1 -23.879042 56.666188 18.584714
7741 8 1 -23.037054 57.121185 18.874600
7742 8 1 -22.172613 56.775559 18.509516
7743 8 1 -22.584184 55.865536 18.559193
7744 8 1 -21.980501 55.945367 19.352410
7745 8 1 -22.575335 56.279061 20.083725
7746 8 1 -22.968648 56.679140 20.911518
7747 8 1 -23.763835 57.097933 21.350026
7748 8 1 -24.576996 56.599975 21.651365
7749 8 1 -24.414657 57.037178 22.535955
7750 8 1 -24.661637 56.095728 22.306449
7751 8 1 -24.430936 56.327744 23.251407
7752 8 1 -25.026769 56.064102 24.010008
7753 8 1 -25.359772 55.250463 23.533457
7754 8 1 -25.101193 54.529126 24.175959
7755 8 1 -25.086656 54.391189 25.166293
7756 8 1 -25.997285 54.608879 24.815059
7757 8 1 -26.265726 55.120923 23.999123
7758 8 1 -27.118750 55.605237 24.193523
7759 8 1 -26.826754 55.582519 23.237373
7760 8 1 -26.854903 56.581255 23.195724
7761 8 1 -27.141618 57.329719 23.793717
7762 8 1 -27.511239 57.185924 24.711706
7763 8 1 -27.258279 56.780354 25.590070
7764 8 1 -27.398362 57.630155 26.098219
7765 8 1 -28.173813 57.474495 25.486299
7766 8 1 -28.317438 56.618648 24.989413
7767 8 1 -29.105011 57.101579 24.606651
7768 8 1 -28.231162 57.562331 24.451424
7769 8 1 -28.726266 58.422343 24.574925
7770 8 1 -28.079641 59.097764 24.220407
7771 8 1 -27.893835 59.850483 24.851985
7772 8 1 -27.968586 60.791177 24.521065
7773 8 1 -27.515800 61.479464 23.954280
7774 8 1 -27.140770 61.325953 23.040066
7775 8 1 -27.998156 60.846939 22.851823
7776 8 1 -28.753895 60.398466 22.374612
7777 8 1 -29.748994 60.327269 22.443229
7778 8 1 -29.297196 59.545952 22.012622
7779 8 1 -28.852554 59.235769 21.172336
7780 8 1 -28.265217 59.357510 21.972470
7781 8 1 -28.643549 58.715380 22.639203
7782 8 1 -28.638108 58.082214 23.413201
7783 8 1 -29.472767 58.610611 23.568578
7784 8 1 -29.631512 57.626460 23.489549
7785 8 1 -29.335409 56.792170 23.024486
7786 8 1 -28.338800 56.810702 22.944321
7787 8 1 -28.453301 55.854283 22.675708
7788 8 1 -28.622089 56.395742 21.852099
7789 8 1 -28.388962 55.559535 21.355701
7790 8 1 -27.772854 55.129248 20.695957
7791 8 1 -27.334664 55.279386 21.582212
7792 8 1 -28.066801 54.612152 21.445193
7793 8 1 -28.331027 54.208774 20.569139
7794 8 1 -28.852028 54.848703 21.133982
7795 8 1 -29.279566 54.857587 20.230028
7796 8 1 -29.793803 54.018024 20.405221
7797 8 1 -30.473783 53.695308 19.746828
7798 8 1 -30.125589 53.531114 18.823897
7799 8 1 -30.294340 53.171518 17.906175
7800 8 1 -29.659876 52.412763 17.758712
7801 8 1 -28.977893 51.863959 17.275271
7802 8 1 -29.888098 52.079746 16.921771
7803 8 1 -30.774822 52.068235 17.383928
7804 8 1 -31.005779 53.040902 17.359883
7805 8 1 -31.916065 52.929028 16.961306
7806 8 1 -31.791692 52.330053 16.170256
7807 8 1 -32.541303 52.977414 16.032392
7808 8 1 -32.721055 52.007002 15.871176
7809 8 1 -32.850303 52.553088 15.043477
7810 8 1 -33.765551 52.300448 15.357316
7811 8 1 -33.820635 53.297106 15.296986
7812 8 1 -33.027559 53.823466 14.990431
7813 8 1 -33.898990 54.077926 14.571077
7814 8 1 -34.570559 54.706131 14.178196
7815 8 1 -34.138465 55.215059 13.433691
7816 8 1 -33.390199 55.751943 13.044007
7817 8 1 -33.609039 56.600897 12.562980
7818 8 1 -34.593922 56.568036 12.733058
7819 8 1 -34.638820 55.756074 12.151077
7820 8 1 -35.348281 55.640756 11.455831
7821 8 1 -34.622808 56.092810 10.936854
7822 8 1 -34.340517 56.317856 10.004295
7823 8 1 -34.909834 56.059952 9.223678
7824 8 1 -35.049631 55.102023 8.973021
7825 8 1 -35.614591 55.897600 8.754213
7826 8 1 -35.483294 56.781524 8.305392
7827 8 1 -35.236739 57.749130 8.359694
7828 8 1 -35.384102 58.620690 8.827314
7829 8 1 -35.158790 57.906350 9.489849
7830 8 1 -35.999391 57.543305 9.087870
7831 8 1 -35.828834 58.114326 9.890892
7832 8 1 -36.609729 58.227648 10.505188
7833 8 1 -36.570572 57.327378 10.071621
7834 8 1 -36.165443 56.794457 10.814497
7835 8 1 -37.149927 56.960210 10.872096
7836 8 1 -36.613601 56.158088 10.609503
7837 8 1 -37.168198 56.128148 9.777923
7838 8 1 -37.837619 55.782023 10.435245
7839 8 1 -38.807150 55.537413 10.448517
7840 8 1 -39.459855 56.294396 10.479388
7841 8 1 -39.362078 56.812096 9.629432
7842 8 1 -38.977482 57.551994 9.077493
7843 8 1 -38.575641 58.383872 8.694737
7844 8 1 -37.965094 57.679541 9.056882
7845 8 1 -38.158969 56.996249 9.760817
7846 8 1 -37.849271 57.937691 9.894137
7847 8 1 -37.417561 58.349732 9.091736
7848 8 1 -37.858135 58.801985 8.316261
7849 8 1 -38.449857 58.303836 7.682453
7850 8 1 -37.585239 58.609400 7.283623
7851 8 1 -37.248818 58.038884 6.534402
7852 8 1 -37.837730 57.264724 6.766479
7853 8 1 -37.537162 56.735155 5.973247
7854 8 1 -37.024692 56.523590 6.805482
7855 8 1 -36.945004 55.618987 7.224222
7856 8 1 -35.959385 55.758846 7.129379
7857 8 1 -36.401016 54.901072 7.392411
7858 8 1 -35.590067 54.525411 7.841010
7859 8 1 -35.927253 53.967849 7.082439
7860 8 1 -35.237050 54.294659 6.436827
7861 8 1 -35.741421 53.862073 5.689512
7862 8 1 -36.725545 53.869405 5.512184
7863 8 1 -37.036352 52.938828 5.705640
7864 8 1 -37.330109 52.975365 6.660821
7865 8 1 -38.268704 52.643528 6.755280
7866 8 1 -38.670695 53.001944 7.597861
7867 8 1 -39.516234 52.683964 8.026756
7868 8 1 -39.669031 53.101583 7.131074
7869 8 1 -40.057241 53.712376 7.821165
7870 8 1 -40.595691 52.931841 8.138714
7871 8 1 -41.491729 52.500164 8.034935
7872 8 1 -41.040726 52.043346 8.801689
7873 8 1 -40.155989 52.229761 8.374500
7874 8 1 -40.143280 51.391930 8.920283
7875 8 1 -39.872237 52.250012 9.356439
7876 8 1 -40.562060 52.944969 9.153514
7877 8 1 -39.597742 53.201734 9.218043
7878 8 1 -38.725425 53.687134 9.276772
7879 8 1 -39.283063 53.335868 10.028870
7880 8 1 -38.785743 53.997112 10.590500
7881 8 1 -38.164676 54.643769 11.033344
7882 8 1 -37.642431 53.821473 11.259374
7883 8 1 -38.187887 54.417028 11.849113
7884 8 1 -38.276067 53.420958 11.840886
7885 8 1 -37.688942 52.621616 11.713068
7886 8 1 -36.791961 52.475479 11.295852
7887 8 1 -36.046505 53.100313 11.527969
7888 8 1 -36.187870 54.088914 11.476171
7889 8 1 -36.150746 55.079503 11.607912
7890 8 1 -36.293465 55.877497 12.193435
7891 8 1 -35.494472 55.827545 12.792697
7892 8 1 -35.517246 54.847082 12.988077
7893 8 1 -36.060285 54.440351 13.722705
7894 8 1 -36.555310 54.420432 12.854055
7895 8 1 -37.397484 54.702463 13.313621
7896 8 1 -36.896723 55.563278 13.404368
7897 8 1 -37.835820 55.796356 13.656897
7898 8 1 -38.318513 55.034467 13.225003
7899 8 1 -39.053847 54.903995 13.890030
7900 8 1 -39.441807 54.943401 12.969197
7901 8 1 -40.138260 54.828732 12.260815
7902 8 1 -40.197484 53.832190 12.202535
7903 8 1 -39.707548 53.011168 12.495597
7904 8 1 -39.120501 53.789313 12.272290
7905 8 1 -39.311547 53.836233 11.291831
7906 8 1 -39.304188 54.733841 10.851096
7907 8 1 -39.770304 55.328755 10.196258
7908 8 1 -38.972316 55.204292 9.606577
7909 8 1 -39.611283 54.523496 9.248474
7910 8 1 -38.614316 54.525483 9.170677
7911 8 1 -38.414632 54.716030 10.131832
7912 8 1 -37.809264 54.002366 9.779393
7913 8 1 -37.806775 53.421926 8.965094
7914 8 1 -37.145811 53.150006 8.265676
7915 8 1 -36.864497 53.506565 7.374762
7916 8 1 -36.112877 52.867896 7.209930
7917 8 1 -36.582978 52.035549 6.916328
7918 8 1 -36.471373 51.647546 6.001451
7919 8 1 -36.814317 50.725526 6.181088
7920 8 1 -37.721613 51.135416 6.274919
7921 8 1 -37.282463 50.823169 5.432512
7922 8 1 -37.837034 50.402788 4.714368
7923 8 1 -38.211298 50.880591 5.509120
7924 8 1 -38.663104 50.070646 5.883100
7925 8 1 -38.050158 49.328143 6.153259
7926 8 1 -37.432137 50.035780 5.810769
7927 8 1 -36.556410 49.597326 5.608630
7928 8 1 -36.009349 48.773801 5.758736
7929 8 1 -35.978429 49.638479 6.260110
7930 8 1 -35.921393 48.792793 6.790733
7931 8 1 -35.661452 48.699783 7.751868
7932 8 1 -36.204417 48.617258 8.587559
7933 8 1 -35.755502 47.851280 9.047724
7934 8 1 -34.960004 47.402734 9.455143
7935 8 1 -34.561121 46.498582 9.302167
7936 8 1 -33.795615 46.467708 9.944855
7937 8 1 -34.316486 45.638041 10.145719
7938 8 1 -34.981507 44.906730 10.297149
7939 8 1 -34.407091 45.299629 11.015255
7940 8 1 -34.716627 46.159832 10.609991
7941 8 1 -34.877246 47.126538 10.809192
7942 8 1 -34.469261 47.902740 11.289876
7943 8 1 -35.395548 47.934903 11.665318
7944 8 1 -34.849932 47.098125 11.711205
7945 8 1 -35.745222 47.008276 11.274876
7946 8 1 -36.063250 47.616282 10.547424
7947 8 1 -36.977495 47.311380 10.280609
7948 8 1 -36.683010 47.953067 10.988787
7949 8 1 -36.085990 48.488561 11.586125
7950 8 1 -35.874543 48.534705 10.609825
7951 8 1 -35.592507 49.148438 9.872406
7952 8 1 -34.650575 48.981290 10.163652
7953 8 1 -34.173910 49.456965 10.902925
7954 8 1 -33.847680 48.767827 10.255884
7955 8 1 -33.333094 48.681702 11.108987
7956 8 1 -32.964281 49.543111 11.458203
7957 8 1 -32.974880 50.430700 11.918718
7958 8 1 -33.795134 51.001611 11.883451
7959 8 1 -34.488377 50.969343 11.163469
7960 8 1 -35.417735 50.650391 11.349380
7961 8 1 -35.933267 50.344578 10.548939
7962 8 1 -36.669465 49.923369 11.078651
7963 8 1 -37.570513 49.512131 10.940819
7964 8 1 -38.181429 49.328967 11.711035
7965 8 1 -38.175362 48.700596 12.488925
7966 8 1 -37.498195 49.422308 12.345481
7967 8 1 -37.373866 50.389880 12.125600
7968 8 1 -37.726689 50.784238 11.277073
7969 8 1 -37.815125 50.165627 10.496369
7970 8 1 -38.149041 50.172094 9.553788
7971 8 1 -38.048042 50.042316 8.567402
7972 8 1 -37.560556 49.601706 9.321206
7973 8 1 -37.012013 49.360742 8.520558
7974 8 1 -36.823630 49.916614 7.710917
7975 8 1 -36.615687 50.847065 8.012615
7976 8 1 -35.666555 50.823535 8.326614
7977 8 1 -35.819274 50.580897 7.368593
7978 8 1 -35.111358 50.066739 7.852842
7979 8 1 -34.516259 50.466915 8.549775
7980 8 1 -33.523232 50.362328 8.495373
7981 8 1 -33.726512 50.636675 7.555473
7982 8 1 -32.926765 50.045734 7.661280
7983 8 1 -32.382575 50.794127 8.040442
7984 8 1 -32.687871 50.385273 8.900460
7985 8 1 -32.159600 50.659937 9.703884
7986 8 1 -33.108875 50.351079 9.762917
7987 8 1 -33.685850 50.495733 10.566767
7988 8 1 -34.257013 49.786175 10.154093
7989 8 1 -34.169949 50.734867 9.850114
7990 8 1 -34.956742 51.125749 10.327783
7991 8 1 -35.327777 51.398809 9.440219
7992 8 1 -35.722701 51.639390 8.553564
7993 8 1 -35.848183 52.331069 7.842343
7994 8 1 -36.279193 53.220380 7.995171
7995 8 1 -35.519407 53.539098 8.561866
7996 8 1 -34.703344 54.009381 8.225896
7997 8 1 -34.008498 53.414743 7.821429
7998 8 1 -34.260031 52.529572 8.212840
7999 8 1 -33.953399 51.663149 7.818774
8000 8 1 -33.851892 51.323124 6.883852
8001 9 1 32.285524 -76.977606 35.057150
8002 9 1 31.996115 -76.067593 34.760301
8003 9 1 32.492427 -75.203089 34.680879
8004 9 1 33.230889 -74.626435 34.331388
8005 9 1 33.019611 -74.349206 33.394101
8006 9 1 32.871817 -73.465295 33.837788
8007 9 1 33.500484 -72.886505 33.318384
8008 9 1 33.835125 -73.634736 32.745527
8009 9 1 34.550588 -74.255515 33.066069
8010 9 1 33.742718 -74.001441 33.597851
8011 9 1 34.533724 -73.540577 34.000235
8012 9 1 34.277008 -72.596450 34.206929
8013 9 1 33.708509 -71.822733 34.486521
8014 9 1 33.888709 -71.751095 35.467539
8015 9 1 34.512845 -71.449076 34.746957
8016 9 1 33.939257 -70.718101 34.377263
8017 9 1 33.740909 -71.468521 33.746765
8018 9 1 33.016877 -71.252258 34.401751
8019 9 1 32.235211 -70.876668 33.903826
8020 9 1 31.427044 -70.984289 33.324788
8021 9 1 30.787946 -71.753069 33.347833
8022 9 1 31.295297 -72.232630 32.631862
8023 9 1 31.895100 -72.764261 33.229864
8024 9 1 31.536831 -72.870936 34.157368
8025 9 1 31.321221 -73.721924 34.636252
8026 9 1 32.136878 -74.247248 34.393893
8027 9 1 31.800716 -74.363478 35.328498
8028 9 1 30.995634 -74.918572 35.537576
8029 9 1 30.994868 -74.524428 34.618528
8030 9 1 30.304619 -75.241340 34.716473
8031 9 1 31.109482 -75.500119 34.182404
8032 9 1 31.001842 -76.114066 33.400431
8033 9 1 31.043764 -77.089610 33.616201
8034 9 1 31.542559 -76.738025 34.408407
8035 9 1 32.329651 -77.347068 34.310663
8036 9 1 32.638895 -78.123785 33.761958
8037 9 1 33.272004 -78.226504 32.994741
8038 9 1 33.268713 -77.443206 33.616380
8039 9 1 33.328086 -76.935499 34.475861
8040 9 1 33.032246 -76.206970 35.093700
8041 9 1 33.366189 -76.188852 34.151280
8042 9 1 33.926642 -75.895549 34.925791
8043 9 1 33.703737 -75.803402 35.896266
8044 9 1 34.672459 -75.872428 35.657911
8045 9 1 35.365268 -75.906456 36.378228
8046 9 1 35.678231 -76.579780 37.048071
8047 9 1 36.255137 -76.166938 37.752870
8048 9 1 36.571422 -75.232484 37.589286
8049 9 1 37.369682 -75.601296 37.113094
8050 9 1 38.215486 -76.105622 36.939112
8051 9 1 38.198177 -75.252035 37.459774
8052 9 1 37.395983 -74.670011 37.326606
8053 9 1 37.323066 -73.698750 37.100034
8054 9 1 36.441609 -73.255779 36.936296
8055 9 1 36.797123 -72.561815 37.562414
8056 9 1 37.629870 -72.461091 37.018000
8057 9 1 38.553736 -72.696853 37.319475
8058 9 1 38.408920 -73.588073 37.749308
8059 9 1 38.717140 -74.489011 38.054774
8060 9 1 39.051882 -75.255508 37.506658
8061 9 1 39.404009 -75.698474 38.331150
8062 9 1 40.396274 -75.822618 38.331413
8063 9 1 39.698063 -76.522930 38.479956
8064 9 1 40.200855 -76.909105 37.706606
8065 9 1 39.375669 -77.230062 37.241789
8066 9 1 40.154210 -77.659305 36.783941
8067 9 1 39.271370 -78.124281 36.717678
8068 9 1 38.381500 -77.878736 36.333179
8069 9 1 39.022658 -77.429247 35.711185
8070 9 1 38.591411 -78.183903 35.216697
8071 9 1 39.007917 -77.901287 34.352607
8072 9 1 39.737601 -77.365932 33.927216
8073 9 1 39.648569 -76.592278 34.554537
8074 9 1 39.202188 -76.400833 33.680413
8075 9 1 39.829808 -75.725467 34.067677
8076 9 1 39.377013 -75.193783 33.351933
8077 9 1 39.524558 -75.637221 32.467855
8078 9 1 39.654563 -76.255823 31.692982
8079 9 1 38.769284 -76.476139 32.102545
8080 9 1 39.389784 -76.657593 32.865470
8081 9 1 38.787604 -77.375260 32.515708
8082 9 1 39.370475 -78.033411 32.992256
8083 9 1 38.393659 -77.849361 33.101599
8084 9 1 37.712494 -78.481778 33.470467
8085 9 1 37.801539 -79.279536 32.874101
8086 9 1 38.567989 -79.122639 32.251254
8087 9 1 39.484656 -78.755148 32.408326
8088 9 1 40.455741 -78.517538 32.431468
8089 9 1 40.144330 -77.606183 32.700644
8090 9 1 40.385758 -77.029778 31.919959
8091 9 1 41.272529 -77.454137 31.736775
8092 9 1 42.113727 -77.499276 32.275615
8093 9 1 42.898792 -78.098908 32.120325
8094 9 1 41.969027 -78.450610 32.229154
8095 9 1 42.162845 -79.402584 31.992132
8096 9 1 43.046683 -79.444636 31.526233
8097 9 1 43.772369 -79.912856 31.022100
8098 9 1 44.396010 -79.808307 31.796787
8099 9 1 44.767371 -78.885415 31.694998
8100 9 1 44.446711 -78.713883 32.626532
8101 9 1 43.776258 -79.440257 32.777774
8102 9 1 43.933817 -78.921458 33.618025
8103 9 1 42.939172 -78.904327 33.719949
8104 9 1 42.659699 -79.195054 34.635030
8105 9 1 42.765111 -79.364830 35.614859
8106 9 1 41.821298 -79.109904 35.825170
8107 9 1 42.247835 -79.432250 36.670250
8108 9 1 42.633020 -80.311166 36.388934
8109 9 1 43.119905 -81.180893 36.308199
8110 9 1 44.062795 -80.868728 36.424441
8111 9 1 44.754224 -80.699253 37.126726
8112 9 1 44.115243 -81.372621 37.498584
8113 9 1 44.200951 -82.171031 36.902601
8114 9 1 44.179565 -82.876320 37.611199
8115 9 1 43.546572 -83.048974 36.856540
8116 9 1 43.266553 -82.186694 36.434564
8117 9 1 42.481990 -82.479379 36.981186
8118 9 1 42.050528 -82.668380 37.863296
8119 9 1 42.173646 -83.439819 38.487575
8120 9 1 42.826068 -84.151665 38.227535
8121 9 1 43.458378 -84.388901 37.490037
8122 9 1 43.882312 -84.615791 38.366850
8123 9 1 44.860216 -84.423001 38.447699
8124 9 1 44.480357 -83.530257 38.690012
8125 9 1 45.479251 -83.494055 38.660035
8126 9 1 45.737669 -82.538985 38.514905
8127 9 1 46.586504 -82.385759 38.008940
8128 9 1 46.434065 -81.826215 38.823601
8129 9 1 45.561975 -81.570995 38.406082
8130 9 1 45.848396 -80.695024 38.794202
8131 9 1 46.299580 -79.852015 39.087065
8132 9 1 46.878274 -79.589159 39.859089
8133 9 1 47.751895 -79.217601 39.544876
8134 9 1 47.510762 -78.638616 40.323741
8135 9 1 47.951654 -78.168381 41.088263
8136 9 1 48.399048 -78.373805 40.217838
8137 9 1 48.516812 -77.611902 39.580944
8138 9 1 47.943267 -77.641359 40.399587
8139 9 1 47.747954 -76.838523 39.836286
8140 9 1 46.886427 -77.266561 39.563239
8141 9 1 46.119373 -76.921065 40.103850
8142 9 1 45.195203 -76.683288 39.804899
8143 9 1 44.413098 -76.270541 39.338046
8144 9 1 44.808515 -75.447210 39.745196
8145 9 1 45.399706 -74.743866 39.350481
8146 9 1 46.355371 -74.939679 39.130569
8147 9 1 47.184992 -75.028908 39.681720
8148 9 1 47.481560 -74.677510 40.569733
8149 9 1 48.308110 -74.215794 40.891657
8150 9 1 47.483627 -73.786652 40.522786
8151 9 1 47.424683 -72.852750 40.875422
8152 9 1 47.341944 -73.010754 41.859388
8153 9 1 46.780973 -72.183105 41.876995
8154 9 1 46.544441 -71.866159 40.958519
8155 9 1 45.678094 -72.288177 40.691420
8156 9 1 45.873732 -71.931332 41.604867
8157 9 1 46.354975 -71.413365 42.312056
8158 9 1 45.427504 -71.755597 42.462641
8159 9 1 46.139844 -71.665161 43.158625
8160 9 1 45.169369 -71.740330 43.387812
8161 9 1 44.951517 -71.728034 44.363716
8162 9 1 44.859108 -72.605565 43.893184
8163 9 1 43.975029 -72.801606 43.468954
8164 9 1 43.398302 -72.413627 44.187884
8165 9 1 44.096983 -72.784766 44.799521
8166 9 1 43.485483 -73.337533 44.233380
8167 9 1 43.523843 -73.458660 45.225275
8168 9 1 42.789517 -72.782596 45.164429
8169 9 1 43.218704 -71.888986 45.033053
8170 9 1 42.439770 -71.824980 44.409222
8171 9 1 42.511874 -72.414957 43.605028
8172 9 1 42.123435 -73.164845 43.069508
8173 9 1 43.061037 -73.374907 42.792419
8174 9 1 42.743012 -74.306995 42.619002
8175 9 1 43.236312 -75.107041 42.277560
8176 9 1 43.931933 -74.814050 41.621612
8177 9 1 44.462576 -74.390590 42.355846
8178 9 1 45.246846 -74.420471 42.975546
8179 9 1 46.013827 -73.858923 42.665057
8180 9 1 45.913010 -74.477142 43.444570
8181 9 1 45.781798 -73.722518 44.087475
8182 9 1 45.066365 -74.420883 44.108513
8183 9 1 44.665904 -74.111012 44.970842
8184 9 1 44.734743 -73.392797 44.278434
8185 9 1 44.876464 -73.246033 45.257401
8186 9 1 45.586939 -73.356779 45.952355
8187 9 1 45.048391 -72.839969 46.617843
8188 9 1 45.588007 -72.096657 46.222492
8189 9 1 46.400779 -71.517166 46.282416
8190 9 1 46.689397 -72.458900 46.109681
8191 9 1 47.594473 -72.693271 46.464516
8192 9 1 47.508825 -73.477377 47.079205
8193 9 1 48.276520 -74.091965 46.897754
8194 9 1 47.395631 -74.060916 46.425451
8195 9 1 46.843414 -74.871083 46.622139
8196 9 1 46.767861 -74.881737 45.625054
8197 9 1 46.561311 -74.163143 46.289102
8198 9 1 45.890567 -74.624998 46.869440
8199 9 1 44.985190 -74.288834 46.610043
8200 9 1 44.854230 -74.338222 47.600200
8201 9 1 44.321464 -74.802610 48.307663
8202 9 1 43.944490 -75.277820 49.102689
8203 9 1 44.539321 -76.078813 49.170414
8204 9 1 45.166885 -76.407188 49.876342
8205 9 1 45.499951 -76.380043 50.818854
8206 9 1 45.784730 -77.294619 50.531711
8207 9 1 46.728135 -77.623628 50.489987
8208 9 1 47.420077 -78.116137 51.017862
8209 9 1 47.193886 -78.757401 51.751086
8210 9 1 47.785519 -78.894865 50.956684
8211 9 1 47.523266 -79.829418 50.716196
8212 9 1 46.713617 -79.436488 51.152172
8213 9 1 46.647778 -80.433293 51.197401
8214 9 1 47.508787 -80.080912 51.564133
8215 9 1 46.899953 -80.552258 52.202220
8216 9 1 46.475513 -80.911007 53.033574
8217 9 1 45.843035 -81.684788 53.068711
8218 9 1 45.370758 -82.204691 53.780508
8219 9 1 45.179500 -81.224845 53.722873
8220 9 1 44.936700 -81.149287 52.755744
8221 9 1 45.537666 -80.353028 52.825105
8222 9 1 44.982535 -79.819069 52.187361
8223 9 1 44.287106 -79.587891 51.506968
8224 9 1 43.578176 -80.087251 52.005023
8225 9 1 42.812836 -80.473281 51.490014
8226 9 1 41.922854 -80.162875 51.155977
8227 9 1 41.730298 -79.503098 51.882349
8228 9 1 41.469862 -80.112326 52.631358
8229 9 1 40.996397 -80.852035 53.109545
8230 9 1 41.760245 -80.280629 53.409599
8231 9 1 41.565968 -79.572846 54.088789
8232 9 1 41.807770 -79.919901 54.994926
8233 9 1 42.740462 -79.560132 55.020446
8234 9 1 42.086448 -79.188225 55.679196
8235 9 1 41.372097 -79.739178 56.110652
8236 9 1 41.047580 -80.685041 56.104968
8237 9 1 40.681016 -80.878751 55.194964
8238 9 1 40.809249 -81.816801 55.516861
8239 9 1 40.334561 -82.470735 54.927759
8240 9 1 40.115346 -83.128784 55.648117
8241 9 1 39.989974 -83.547710 54.748794
8242 9 1 40.563332 -84.228232 54.292558
8243 9 1 40.505338 -83.245567 54.116473
8244 9 1 39.525347 -83.373328 53.963842
8245 9 1 38.580724 -83.196297 54.240151
8246 9 1 38.544580 -83.328838 53.249632
8247 9 1 37.689693 -83.750813 52.947795
8248 9 1 36.699545 -83.835328 53.059441
8249 9 1 36.681033 -84.322521 53.932539
8250 9 1 35.874746 -83.916246 53.502606
8251 9 1 35.409342 -84.081884 52.633145
8252 9 1 34.888711 -83.968788 51.786887
8253 9 1 34.955130 -83.237390 52.465596
8254 9 1 34.710378 -82.581613 51.751415
8255 9 1 34.731208 -83.391651 51.165407
8256 9 1 35.670936 -83.692464 51.002859
8257 9 1 35.390776 -84.095065 50.131410
8258 9 1 34.635708 -84.633012 50.506224
8259 9 1 34.087373 -84.958076 51.276719
8260 9 1 33.863086 -85.873202 50.941696
8261 9 1 33.458843 -86.770741 50.765600
8262 9 1 32.690680 -87.386043 50.588599
8263 9 1 33.361200 -87.648752 49.894779
8264 9 1 34.219178 -87.532080 49.394517
8265 9 1 34.092636 -86.945263 50.194287
8266 9 1 34.186272 -86.143211 49.604418
8267 9 1 34.155438 -85.410654 50.284425
8268 9 1 33.603715 -85.207113 49.475615
8269 9 1 33.157309 -85.636425 48.690495
8270 9 1 34.056120 -85.338733 48.368752
8271 9 1 33.403000 -85.386238 47.612990
8272 9 1 33.797165 -84.489451 47.814004
8273 9 1 33.077384 -83.804736 47.699636
8274 9 1 32.654295 -83.850516 46.794705
8275 9 1 33.332510 -83.519971 46.138379
8276 9 1 33.459953 -82.570305 45.852209
8277 9 1 33.643866 -82.904707 46.776521
8278 9 1 34.628873 -83.066152 46.715725
8279 9 1 35.439994 -82.760895 46.216826
8280 9 1 35.023155 -82.444595 45.364652
8281 9 1 34.910117 -81.862386 44.559509
8282 9 1 34.268125 -81.148558 44.279698
8283 9 1 34.873808 -81.044433 45.068561
8284 9 1 34.224799 -80.469254 45.566515
8285 9 1 33.876882 -81.095294 46.264388
8286 9 1 33.940917 -82.073487 46.461972
8287 9 1 33.147342 -82.151230 47.065457
8288 9 1 32.150348 -82.126751 47.138969
8289 9 1 32.134508 -82.983097 47.655129
8290 9 1 32.473511 -82.762987 46.740455
8291 9 1 32.153078 -82.199499 45.979006
8292 9 1 32.117686 -82.380660 44.996190
8293 9 1 31.237456 -82.558665 44.556293
8294 9 1 30.902255 -82.959360 45.408985
8295 9 1 30.548960 -83.591896 46.098247
8296 9 1 29.820349 -83.396709 45.441720
8297 9 1 29.324968 -82.589175 45.761856
8298 9 1 28.827445 -82.131890 46.498986
8299 9 1 29.366676 -82.974046 46.500625
8300 9 1 28.669656 -83.581155 46.119073
8301 9 1 28.956056 -84.503856 46.377139
8302 9 1 29.580358 -84.961420 45.743987
8303 9 1 29.269600 -85.794119 45.285684
8304 9 1 29.316477 -85.061594 44.606560
8305 9 1 30.171562 -84.839487 45.075066
8306 9 1 30.760586 -84.589268 44.306664
8307 9 1 30.817918 -85.299922 43.605462
8308 9 1 30.341198 -86.119005 43.286338
8309 9 1 30.321141 -85.747264 42.358218
8310 9 1 31.046355 -86.433876 42.409476
8311 9 1 31.805227 -86.266870 43.038938
8312 9 1 32.080906 -85.379380 42.669665
8313 9 1 31.506949 -84.674231 42.253327
8314 9 1 32.363389 -84.175456 42.386494
8315 9 1 32.503290 -85.082052 41.988358
8316 9 1 31.928968 -85.187610 41.176562
8317 9 1 31.118064 -85.033684 40.611991
8318 9 1 31.197896 -84.044740 40.487022
8319 9 1 30.836346 -83.231316 40.031366
8320 9 1 31.337836 -83.013108 39.194172
8321 9 1 31.969353 -83.205257 39.945348
8322 9 1 32.923596 -83.450346 39.774029
8323 9 1 33.391742 -82.799814 39.175992
8324 9 1 32.464038 -82.499527 38.954197
8325 9 1 32.284075 -83.479520 39.039212
8326 9 1 31.968124 -84.079272 39.774380
8327 9 1 31.236911 -84.000015 39.096851
8328 9 1 30.360032 -84.235739 39.515800
8329 9 1 30.010205 -83.686413 40.274655
8330 9 1 29.233731 -83.364813 39.732750
8331 9 1 28.587396 -83.086066 40.443068
8332 9 1 27.934810 -82.467175 40.880223
8333 9 1 27.059900 -82.684464 40.447421
8334 9 1 26.882187 -82.210949 41.310092
8335 9 1 26.159745 -82.014939 40.647025
8336 9 1 27.097619 -81.681081 40.552520
8337 9 1 27.953257 -81.317778 40.183881
8338 9 1 28.095613 -80.640137 39.462398
8339 9 1 27.827966 -80.796272 38.511615
8340 9 1 27.370407 -80.251255 37.809050
8341 9 1 27.287364 -80.028176 36.837794
8342 9 1 26.575583 -79.789752 37.498493
8343 9 1 25.755066 -79.633656 38.048389
8344 9 1 25.733340 -80.515719 37.577758
8345 9 1 25.236546 -81.374640 37.453457
8346 9 1 26.213858 -81.547553 37.575777
8347 9 1 26.918366 -81.337719 38.253743
8348 9 1 26.821694 -82.320288 38.094958
8349 9 1 27.602961 -82.237775 37.476239
8350 9 1 26.912220 -82.500185 36.802430
8351 9 1 26.180981 -81.921518 36.441273
8352 9 1 25.998447 -82.859595 36.146835
8353 9 1 25.758062 -82.966810 35.182096
8354 9 1 24.833712 -82.897960 34.806815
8355 9 1 24.476761 -82.092706 34.333368
8356 9 1 24.201897 -82.031157 35.292879
8357 9 1 24.214647 -81.952959 36.289735
8358 9 1 24.482779 -82.891919 36.505276
8359 9 1 24.273897 -83.702573 37.052275
8360 9 1 23.557850 -83.908425 37.719285
8361 9 1 23.527041 -84.693539 38.337870
8362 9 1 23.027334 -83.976797 38.824259
8363 9 1 23.876305 -83.567068 38.490538
8364 9 1 23.115435 -82.924608 38.581764
8365 9 1 22.425829 -82.447211 38.037213
8366 9 1 23.327610 -82.195786 37.685678
8367 9 1 23.513735 -81.385044 37.130652
8368 9 1 23.198854 -80.774121 37.857029
8369 9 1 22.563027 -81.283944 37.277542
8370 9 1 21.653830 -81.258855 37.693152
8371 9 1 21.521436 -80.330073 37.346979
8372 9 1 22.511779 -80.398427 37.467593
8373 9 1 23.276825 -80.564295 36.845344
8374 9 1 22.699222 -81.109765 36.238024
8375 9 1 21.878431 -81.447603 35.777406
8376 9 1 22.351162 -81.636616 34.916710
8377 9 1 21.644993 -82.275017 34.610493
8378 9 1 21.417946 -82.490240 35.560297
8379 9 1 20.453964 -82.440784 35.821626
8380 9 1 20.437396 -82.203216 36.792856
8381 9 1 19.715849 -82.748243 36.365871
8382 9 1 19.385728 -81.804495 36.384818
8383 9 1 19.721996 -80.868748 36.491130
8384 9 1 19.228058 -81.317580 35.746432
8385 9 1 19.743582 -81.316932 34.889556
8386 9 1 20.317058 -81.182946 35.697747
8387 9 1 21.024622 -81.796432 36.048444
8388 9 1 21.331199 -81.716068 36.996891
8389 9 1 21.851037 -82.544137 37.206821
8390 9 1 21.649068 -83.058030 36.373081
8391 9 1 22.304607 -83.252354 35.643351
8392 9 1 22.391868 -84.109085 35.135022
8393 9 1 22.873398 -84.729182 35.754383
8394 9 1 23.615121 -84.235874 36.208798
8395 9 1 24.516773 -84.351292 35.792022
8396 9 1 24.999737 -84.681490 34.981026
8397 9 1 24.350922 -83.931268 35.108323
8398 9 1 23.453514 -83.678802 34.746493
8399 9 1 23.662214 -82.720155 34.552997
8400 9 1 23.061353 -82.672894 33.755041
8401 9 1 22.742806 -83.065605 32.892310
8402 9 1 22.164674 -82.323938 33.232446
8403 9 1 21.796971 -82.145496 32.319783
8404 9 1 22.440679 -82.455812 31.620251
8405 9 1 22.990952 -82.033482 32.340555
8406 9 1 23.626478 -81.264298 32.407357
8407 9 1 23.706906 -81.540994 31.449771
8408 9 1 24.630511 -81.262112 31.712789
8409 9 1 24.282144 -80.374035 31.412858
8410 9 1 24.799709 -79.523581 31.506956
8411 9 1 25.474092 -79.382702 32.231774
8412 9 1 25.612522 -78.955621 31.338219
8413 9 1 26.205156 -78.156880 31.234303
8414 9 1 25.438308 -78.259665 30.600758
8415 9 1 25.045253 -77.568042 29.994816
8416 9 1 24.164645 -77.829727 29.599785
8417 9 1 24.896907 -77.601655 28.958088
8418 9 1 24.196850 -78.269424 28.705095
8419 9 1 25.040314 -78.631702 29.101734
8420 9 1 25.038674 -79.060571 28.198369
8421 9 1 24.362970 -79.223363 28.917343
8422 9 1 24.385293 -80.162618 28.574851
8423 9 1 24.799793 -81.070970 28.519284
8424 9 1 23.871128 -81.001764 28.883690
8425 9 1 24.006779 -80.313064 29.595934
8426 9 1 24.936744 -80.584013 29.347435
8427 9 1 24.633586 -81.027334 30.190976
8428 9 1 24.997628 -80.358153 30.838795
8429 9 1 25.302104 -79.790930 30.073580
8430 9 1 24.531045 -79.274623 30.446265
8431 9 1 24.232850 -78.754905 29.645657
8432 9 1 23.340316 -79.185799 29.512566
8433 9 1 22.690080 -79.913037 29.732377
8434 9 1 22.969633 -80.127507 28.796507
8435 9 1 23.059053 -80.608785 27.924512
8436 9 1 22.305977 -80.167839 27.436206
8437 9 1 22.481491 -81.136632 27.611232
8438 9 1 22.179158 -81.546186 28.471965
8439 9 1 21.622301 -81.598700 29.300912
8440 9 1 20.779048 -81.425708 28.791993
8441 9 1 20.916959 -81.520630 29.777878
8442 9 1 21.221539 -80.569470 29.828127
8443 9 1 22.023319 -80.215059 30.309314
8444 9 1 21.488467 -79.785792 29.581535
8445 9 1 22.085013 -78.985260 29.524250
8446 9 1 22.739995 -78.241719 29.658955
8447 9 1 23.396392 -78.140167 28.911406
8448 9 1 23.575309 -78.715099 28.113006
8449 9 1 23.451854 -78.639009 27.123577
8450 9 1 22.864992 -79.164208 27.739823
8451 9 1 22.633585 -78.408547 28.352545
8452 9 1 21.974732 -79.079544 28.692653
8453 9 1 21.451944 -79.163822 27.844366
8454 9 1 22.041089 -78.570819 27.295498
8455 9 1 22.115963 -79.500557 26.934970
8456 9 1 22.495429 -80.278662 26.434412
8457 9 1 23.212909 -79.593849 26.561904
8458 9 1 23.100295 -79.642533 25.569459
8459 9 1 23.076223 -80.620129 25.360351
8460 9 1 23.671546 -80.432101 26.141527
8461 9 1 24.275260 -79.692900 25.843013
8462 9 1 24.785264 -80.501407 26.136634
8463 9 1 24.305893 -80.814036 25.316593
8464 9 1 24.383447 -80.218347 24.517130
8465 9 1 24.312184 -79.250954 24.274082
8466 9 1 24.102398 -79.559281 23.346222
8467 9 1 23.418088 -78.834070 23.270133
8468 9 1 22.530132 -78.385896 23.166819
8469 9 1 21.711688 -78.003171 23.595387
8470 9 1 22.020116 -77.212324 24.124003
8471 9 1 22.637310 -76.905098 24.848353
8472 9 1 22.583994 -77.902548 24.800912
8473 9 1 21.644161 -78.208562 24.952792
8474 9 1 22.249557 -78.151486 25.746668
8475 9 1 22.268157 -79.149056 25.813810
8476 9 1 21.301830 -79.383425 25.707583
8477 9 1 21.244553 -79.892926 26.566145
8478 9 1 20.544914 -80.221726 27.200492
8479 9 1 20.010939 -80.059296 28.030243
8480 9 1 19.035166 -80.021145 28.245680
8481 9 1 18.711303 -79.263480 28.812298
8482 9 1 18.786326 -78.607356 28.061384
8483 9 1 18.778528 -77.687624 27.668916
8484 9 1 17.847487 -77.916556 27.384746
8485 9 1 17.593926 -78.614142 28.054881
8486 9 1 18.226524 -79.387356 28.010617
8487 9 1 17.813873 -78.922984 27.226986
8488 9 1 16.838748 -78.823419 27.028952
8489 9 1 16.984181 -79.811186 27.085224
8490 9 1 16.725068 -79.491440 27.996609
8491 9 1 16.783030 -80.469362 28.197380
8492 9 1 17.516875 -79.920102 28.597111
8493 9 1 16.853627 -80.008123 29.340316
8494 9 1 16.909505 -79.068939 29.001477
8495 9 1 17.119174 -78.536489 29.821560
8496 9 1 17.026635 -78.202331 28.883597
8497 9 1 17.666466 -77.505644 29.208009
8498 9 1 18.338896 -77.576274 29.944792
8499 9 1 18.722420 -77.217621 29.093747
8500 9 1 18.960944 -76.353961 29.537816
8501 9 1 19.478908 -77.125264 29.907688
8502 9 1 19.444168 -78.026284 29.475304
8503 9 1 19.281646 -77.913996 30.455599
8504 9 1 18.577831 -78.515161 30.834074
8505 9 1 18.940978 -79.396178 30.530870
8506 9 1 19.873393 -79.142727 30.788484
8507 9 1 19.518248 -80.026445 31.093301
8508 9 1 18.792658 -80.243019 30.440143
8509 9 1 19.003969 -81.219605 30.480481
8510 9 1 18.077657 -81.108099 30.840358
8511 9 1 18.000632 -80.515630 30.038455
8512 9 1 17.883507 -80.528932 29.045427
8513 9 1 18.700113 -80.713594 29.592286
8514 9 1 19.565815 -80.741789 30.092052
8515 9 1 20.377031 -80.192980 29.890216
8516 9 1 20.985841 -80.463513 30.635979
8517 9 1 21.565952 -81.263748 30.787947
8518 9 1 22.194809 -81.967928 30.458297
8519 9 1 22.949234 -82.623479 30.425184
8520 9 1 23.583366 -81.858281 30.314060
8521 9 1 23.473873 -80.901379 30.583037
8522 9 1 22.794776 -81.151204 31.273265
8523 9 1 21.967833 -81.346442 31.800568
8524 9 1 21.553785 -80.650587 32.387380
8525 9 1 21.797499 -79.767883 31.985587
8526 9 1 21.242068 -79.020025 31.621987
8527 9 1 22.163751 -78.705296 31.395170
8528 9 1 21.296291 -78.462315 30.961035
8529 9 1 20.375107 -78.268112 30.623832
8530 9 1 21.093375 -77.629616 30.900264
8531 9 1 21.100326 -78.070917 30.002931
8532 9 1 21.874589 -77.498559 30.272975
8533 9 1 21.218785 -76.790877 30.535859
8534 9 1 21.483454 -76.411228 31.422322
8535 9 1 21.682161 -76.849782 32.298785
8536 9 1 22.228547 -76.851291 31.461253
8537 9 1 22.162252 -76.157955 32.178811
8538 9 1 21.346123 -75.767509 32.604821
8539 9 1 21.653528 -76.291374 33.399218
8540 9 1 21.925486 -77.064935 33.971619
8541 9 1 21.879159 -77.680052 34.758693
8542 9 1 20.891111 -77.752738 34.622760
8543 9 1 20.916575 -77.608218 35.611934
8544 9 1 21.732765 -77.203572 36.024361
8545 9 1 21.590310 -78.190344 36.101743
8546 9 1 21.276910 -78.351280 37.037627
8547 9 1 20.953879 -77.430322 36.819711
8548 9 1 20.059237 -77.423489 37.266442
8549 9 1 19.226791 -77.554259 36.727988
8550 9 1 18.495961 -77.128635 37.261591
8551 9 1 17.767482 -76.507768 37.551145
8552 9 1 16.983527 -77.124851 37.483157
8553 9 1 17.063820 -76.672214 38.371229
8554 9 1 17.477240 -77.581432 38.322190
8555 9 1 16.884614 -78.338614 38.047471
8556 9 1 17.539379 -78.379314 37.292736
8557 9 1 17.701589 -77.901365 36.429455
8558 9 1 17.126360 -78.669535 36.148338
8559 9 1 16.920526 -77.984629 35.449384
8560 9 1 16.140698 -78.103144 36.064058
8561 9 1 15.258927 -77.845675 36.459264
8562 9 1 15.764854 -77.383760 35.730792
8563 9 1 15.897358 -76.570060 36.296774
8564 9 1 15.150830 -76.207764 35.738708
8565 9 1 14.993652 -76.724983 34.897412
8566 9 1 14.234435 -76.800591 34.250981
8567 9 1 13.625472 -76.070752 33.940337
8568 9 1 14.117822 -76.039220 34.810163
8569 9 1 13.469943 -76.454053 35.449043
8570 9 1 12.848265 -76.815304 34.754051
8571 9 1 12.152004 -77.522846 34.633197
8572 9 1 12.593967 -77.935251 33.836584
8573 9 1 12.983147 -77.386759 33.096520
8574 9 1 12.217141 -76.760536 32.951332
8575 9 1 12.880211 -76.840560 33.695599
8576 9 1 11.994781 -76.410588 33.872057
8577 9 1 12.021273 -75.710881 33.158118
8578 9 1 12.399303 -74.962911 32.612561
8579 9 1 12.517651 -74.342251 31.837464
8580 9 1 12.893685 -73.450955 31.584107
8581 9 1 13.480617 -72.704089 31.271535
8582 9 1 13.509542 -73.536087 30.717512
8583 9 1 13.690697 -73.677344 29.744255
8584 9 1 12.962542 -74.362092 29.714078
8585 9 1 12.983592 -75.213842 30.237604
8586 9 1 12.205935 -75.842528 30.235938
8587 9 1 12.432230 -75.331140 31.064957
8588 9 1 12.478829 -74.343035 30.918409
8589 9 1 12.396558 -73.350153 30.832288
8590 9 1 11.873547 -72.627242 30.380780
8591 9 1 11.543537 -71.698526 30.549841
8592 9 1 11.006156 -72.039418 31.321212
8593 9 1 11.278397 -72.409959 32.209234
8594 9 1 11.813329 -71.749260 32.735850
8595 9 1 11.650692 -72.014429 33.686236
8596 9 1 11.289480 -72.714396 33.070142
8597 9 1 11.578506 -73.429822 32.434036
8598 9 1 11.869496 -73.475245 31.478389
8599 9 1 11.192242 -74.203700 31.375045
8600 9 1 11.743630 -74.897009 30.911046
8601 9 1 11.680893 -74.921137 29.913308
8602 9 1 11.792533 -74.151757 30.542268
8603 9 1 11.160723 -73.635682 29.963923
8604 9 1 10.581754 -74.249475 30.500630
8605 9 1 10.163863 -74.857932 29.825984
8606 9 1 9.179216 -75.003977 29.921595
8607 9 1 9.519802 -75.869011 29.553196
8608 9 1 9.210992 -75.981546 28.608754
8609 9 1 8.278248 -76.188462 28.904008
8610 9 1 7.415024 -75.854957 29.282979
8611 9 1 6.448522 -75.654007 29.442643
8612 9 1 6.397097 -75.025669 28.666404
8613 9 1 6.381155 -74.288675 27.990693
8614 9 1 7.252130 -73.980975 28.373738
8615 9 1 6.690989 -73.590559 29.103598
8616 9 1 7.119136 -73.875070 29.961352
8617 9 1 6.227860 -73.474983 30.174795
8618 9 1 5.815429 -72.916018 29.455450
8619 9 1 5.654826 -73.364295 28.576101
8620 9 1 6.401234 -73.475968 27.920048
8621 9 1 5.664161 -73.880681 27.378817
8622 9 1 5.187013 -74.373607 28.106384
8623 9 1 4.306074 -73.937690 27.922201
8624 9 1 4.970520 -74.301778 27.269550
8625 9 1 4.285668 -74.288608 26.540987
8626 9 1 3.673020 -73.704091 26.009007
8627 9 1 2.928046 -74.352542 26.165615
8628 9 1 2.654674 -73.741562 26.908563
8629 9 1 3.056087 -74.305994 27.629871
8630 9 1 3.280676 -73.668834 28.367154
8631 9 1 3.451041 -73.228411 29.248632
8632 9 1 3.813219 -73.486437 30.144316
8633 9 1 3.258088 -74.247112 30.480772
8634 9 1 3.531375 -74.368058 31.435071
8635 9 1 3.005327 -75.195856 31.240077
8636 9 1 2.519316 -75.290197 32.108923
8637 9 1 2.747436 -76.086105 32.669719
8638 9 1 2.547825 -76.804544 32.003385
8639 9 1 1.782809 -76.750698 31.361628
8640 9 1 2.394712 -77.388930 30.894473
8641 9 1 1.989403 -78.273839 31.123953
8642 9 1 1.007996 -78.197602 31.300099
8643 9 1 0.623094 -77.719199 30.510807
8644 9 1 0.118612 -77.694516 29.647738
8645 9 1 0.212351 -78.689827 29.671578
8646 9 1 0.445488 -79.566479 30.092445
8647 9 1 -0.069021 -79.906168 29.305113
8648 9 1 0.716825 -80.439734 28.992458
8649 9 1 1.374411 -79.711776 28.798405
8650 9 1 1.946377 -80.440269 28.421372
8651 9 1 2.813822 -80.576659 28.899844
8652 9 1 2.806147 -79.627659 28.584663
8653 9 1 2.073751 -79.446327 27.928374
8654 9 1 2.797516 -78.782846 27.738752
8655 9 1 2.842514 -78.607916 26.755200
8656 9 1 2.589541 -77.690270 27.061680
8657 9 1 2.063555 -78.417445 27.502764
8658 9 1 2.178919 -78.150459 28.459535
8659 9 1 1.936623 -78.469511 29.375776
8660 9 1 2.811010 -78.911514 29.575973
8661 9 1 2.637385 -79.896008 29.550959
8662 9 1 3.064236 -79.692646 30.432118
8663 9 1 4.061140 -79.736708 30.497250
8664 9 1 4.072291 -80.480552 31.165510
8665 9 1 3.623574 -80.066110 31.957274
8666 9 1 4.134802 -79.379378 32.474038
8667 9 1 4.669808 -79.666797 31.679582
8668 9 1 5.151456 -78.923740 32.144213
8669 9 1 5.672196 -78.482838 31.413162
8670 9 1 6.653278 -78.572681 31.241675
8671 9 1 6.928395 -78.070868 30.421617
8672 9 1 7.181423 -77.118649 30.592658
8673 9 1 6.597365 -76.487116 31.102601
8674 9 1 6.269515 -75.624831 30.716622
8675 9 1 5.485398 -75.150335 30.316606
8676 9 1 4.977169 -74.994755 31.163658
8677 9 1 5.394746 -75.821325 31.541032
8678 9 1 5.468966 -76.680311 32.047624
8679 9 1 4.486498 -76.705993 31.862971
8680 9 1 4.792058 -76.279660 31.011576
8681 9 1 4.502998 -76.838250 30.234130
8682 9 1 3.916572 -77.376078 30.839807
8683 9 1 3.571297 -78.179406 31.325039
8684 9 1 2.706050 -78.495846 31.713901
8685 9 1 2.500938 -77.940487 32.519820
8686 9 1 3.411613 -77.811921 32.127210
8687 9 1 3.807169 -77.640280 33.029470
8688 9 1 3.909430 -76.724316 33.417482
8689 9 1 3.534342 -77.469528 33.968817
8690 9 1 2.866629 -78.076012 33.537151
8691 9 1 2.805628 -78.945386 33.046777
8692 9 1 1.896889 -79.310202 32.844043
8693 9 1 1.400573 -80.169409 32.968278
8694 9 1 1.428893 -79.982158 31.986374
8695 9 1 0.471812 -79.790004 32.203333
8696 9 1 0.294292 -80.617356 32.736226
8697 9 1 0.521936 -81.515938 32.361088
8698 9 1 0.137223 -80.960242 31.624069
8699 9 1 -0.534178 -80.461239 32.171989
8700 9 1 -0.861375 -80.264266 31.247790
8701 9 1 -1.060191 -79.401055 31.711837
8702 9 1 -2.001889 -79.067693 31.666285
8703 9 1 -1.305748 -78.743279 32.306710
8704 9 1 -0.699701 -78.976576 33.067157
8705 9 1 -0.809833 -78.920466 34.059489
8706 9 1 -0.622998 -79.847605 34.384306
8707 9 1 -0.159834 -79.723689 33.506739
8708 9 1 -1.015368 -80.204558 33.314838
8709 9 1 -1.436458 -79.486384 33.868832
8710 9 1 -1.536599 -78.498320 33.751773
8711 9 1 -1.039245 -77.738387 34.170269
8712 9 1 -0.849626 -77.030828 33.489530
8713 9 1 -0.776343 -77.574730 32.653587
8714 9 1 -0.393106 -78.155497 31.935367
8715 9 1 0.331866 -77.477095 31.816259
8716 9 1 0.223803 -77.195105 32.769571
8717 9 1 0.792921 -76.461109 33.140183
8718 9 1 0.531211 -75.709782 32.534365
8719 9 1 0.831629 -75.046128 31.849300
8720 9 1 1.741212 -74.680107 31.652611
8721 9 1 2.138642 -73.765064 31.583714
8722 9 1 3.014285 -73.378961 31.873841
8723 9 1 2.812124 -72.972781 30.982691
8724 9 1 2.308011 -72.322192 31.550674
8725 9 1 3.227570 -71.996885 31.330250
8726 9 1 2.877655 -71.527094 30.519784
8727 9 1 2.283548 -70.741788 30.345626
8728 9 1 1.463810 -70.423193 29.869678
8729 9 1 1.121299 -70.890030 30.684999
8730 9 1 0.948086 -71.315237 29.796632
8731 9 1 0.852975 -72.166448 30.312765
8732 9 1 0.110876 -71.559767 30.027763
8733 9 1 -0.366240 -71.792940 30.875106
8734 9 1 -1.254746 -71.372883 30.690417
8735 9 1 -2.108189 -71.614638 30.228692
8736 9 1 -1.926045 -72.264608 29.490882
8737 9 1 -2.455623 -73.112741 29.476117
8738 9 1 -2.870328 -72.725670 28.652590
8739 9 1 -2.087852 -73.071277 28.134626
8740 9 1 -2.424830 -73.893702 27.676300
8741 9 1 -1.796924 -74.542698 27.246720
8742 9 1 -0.829292 -74.387333 27.445594
8743 9 1 -0.297315 -73.733583 27.983750
8744 9 1 0.292195 -73.018024 28.358520
8745 9 1 -0.216216 -72.891275 27.506784
8746 9 1 -0.250721 -72.280343 26.715854
8747 9 1 -0.459200 -72.017163 27.657806
8748 9 1 0.502629 -72.128604 27.407876
8749 9 1 1.064983 -71.409785 26.999149
8750 9 1 1.755087 -70.686161 27.010338
8751 9 1 2.493285 -70.936623 26.383973
8752 9 1 3.308457 -70.853087 26.957137
8753 9 1 2.585032 -70.202847 27.189179
8754 9 1 1.909573 -69.476378 27.062694
8755 9 1 1.314960 -69.477026 27.866705
8756 9 1 1.556017 -68.662665 27.338778
8757 9 1 2.370494 -68.083871 27.298470
8758 9 1 1.841211 -67.240359 27.389831
8759 9 1 2.692586 -67.098063 27.894720
8760 9 1 3.285355 -66.292800 27.881462
8761 9 1 4.009188 -66.671969 28.457915
8762 9 1 4.210920 -65.999212 27.746085
8763 9 1 4.085505 -66.060894 26.755900
8764 9 1 5.006731 -66.407036 26.933463
8765 9 1 4.784815 -66.753266 26.021938
8766 9 1 4.825909 -67.325851 25.203122
8767 9 1 4.712234 -67.613938 26.153956
8768 9 1 5.323579 -68.353224 26.436290
8769 9 1 4.597342 -68.781858 25.898840
8770 9 1 3.620138 -68.667159 25.720190
8771 9 1 3.977133 -69.587589 25.879446
8772 9 1 3.996599 -69.350532 26.850746
8773 9 1 3.984675 -69.578110 27.824433
8774 9 1 4.747320 -70.202339 27.993876
8775 9 1 5.061862 -70.642468 28.834917
8776 9 1 5.118309 -70.813690 29.818531
8777 9 1 6.019017 -70.814394 29.384105
8778 9 1 6.537258 -70.171207 28.820425
8779 9 1 5.832825 -70.277262 28.118623
8780 9 1 6.192630 -71.196836 28.276499
8781 9 1 5.508244 -71.143429 27.549337
8782 9 1 6.403826 -70.999538 27.128352
8783 9 1 6.903238 -70.553322 26.385736
8784 9 1 6.011633 -70.813333 26.015016
8785 9 1 6.638835 -70.296370 25.432465
8786 9 1 7.586580 -70.598647 25.534493
8787 9 1 8.373110 -70.363491 24.963466
8788 9 1 9.240779 -69.919659 25.187437
8789 9 1 9.958679 -69.368505 25.612701
8790 9 1 10.220906 -68.968643 24.734437
8791 9 1 11.035403 -69.437601 24.392863
8792 9 1 10.232876 -69.332714 23.805540
8793 9 1 10.118651 -70.325502 23.769124
8794 9 1 9.305603 -70.433140 24.341284
8795 9 1 10.051909 -71.063289 24.555617
8796 9 1 10.944475 -71.385117 24.239779
8797 9 1 11.875391 -71.070904 24.053593
8798 9 1 11.542535 -71.762653 24.694444
8799 9 1 12.397671 -72.095489 24.297000
8800 9 1 13.090642 -72.377727 24.960427
8801 9 1 13.563211 -73.187875 25.307323
8802 9 1 13.573512 -73.556545 26.236827
8803 9 1 13.138553 -74.072463 25.498830
8804 9 1 12.871365 -74.605760 26.301453
8805 9 1 12.067802 -74.116241 26.640066
8806 9 1 11.425843 -73.665026 26.020153
8807 9 1 12.018979 -72.877464 25.853008
8808 9 1 12.167076 -72.126176 26.496151
8809 9 1 12.972060 -72.606997 26.843731
8810 9 1 13.392133 -72.467707 25.946994
8811 9 1 13.714227 -71.590466 25.591037
8812 9 1 12.872307 -71.122789 25.860201
8813 9 1 11.877844 -71.191135 25.940017
8814 9 1 11.898425 -70.567749 26.721660
8815 9 1 12.774733 -70.095933 26.818998
8816 9 1 13.229479 -70.293989 25.950678
8817 9 1 13.962249 -69.621036 26.051597
8818 9 1 14.502308 -69.288158 26.824596
8819 9 1 15.258857 -69.230719 27.476006
8820 9 1 14.895789 -68.312716 27.635544
8821 9 1 14.246975 -67.645993 28.002313
8822 9 1 13.415153 -67.109204 28.143490
8823 9 1 12.591856 -66.923059 27.607269
8824 9 1 12.472773 -66.191993 28.279104
8825 9 1 13.019292 -65.801472 29.019921
8826 9 1 12.429711 -64.994595 28.983246
8827 9 1 13.326254 -65.021139 29.425407
8828 9 1 12.899590 -65.421385 30.236433
8829 9 1 11.989293 -65.516538 30.639303
8830 9 1 11.389504 -66.284161 30.413451
8831 9 1 11.231710 -66.709351 31.304695
8832 9 1 10.579296 -67.320109 31.753393
8833 9 1 9.676543 -67.298062 32.182986
8834 9 1 8.780024 -67.684789 31.966894
8835 9 1 8.546204 -67.429378 32.905026
8836 9 1 9.385817 -67.275239 33.425884
8837 9 1 9.008807 -66.352172 33.502116
8838 9 1 8.066750 -66.660057 33.368937
8839 9 1 8.266591 -65.985080 32.658676
8840 9 1 8.827245 -66.769329 32.392929
8841 9 1 7.844093 -66.855130 32.231523
8842 9 1 7.550035 -66.373718 31.405828
8843 9 1 7.335991 -65.717190 30.682532
8844 9 1 8.259906 -65.335744 30.652858
8845 9 1 8.555072 -65.917904 31.410464
8846 9 1 9.334665 -66.537523 31.319325
8847 9 1 9.869777 -65.701944 31.443673
8848 9 1 10.326194 -65.931822 30.584116
8849 9 1 10.778381 -66.323331 29.782712
8850 9 1 10.281648 -67.047600 29.304496
8851 9 1 11.064072 -67.631080 29.522124
8852 9 1 10.465375 -67.522441 30.315697
8853 9 1 11.433839 -67.754226 30.224302
8854 9 1 10.650852 -68.293747 30.533898
8855 9 1 11.477828 -68.852446 30.596874
8856 9 1 12.029759 -68.732891 29.771599
8857 9 1 11.929890 -68.820737 28.780484
8858 9 1 12.926085 -68.852121 28.699179
8859 9 1 12.935735 -68.979950 29.690929
8860 9 1 13.789328 -69.227883 29.232772
8861 9 1 14.485003 -69.920790 29.422289
8862 9 1 13.703800 -70.529651 29.284414
8863 9 1 13.490679 -71.144190 30.043967
8864 9 1 12.518216 -71.121078 29.812061
8865 9 1 12.746685 -71.761481 30.545332
8866 9 1 13.020104 -71.160446 31.296330
8867 9 1 13.926517 -70.743021 31.360923
8868 9 1 13.150117 -70.521524 31.950958
8869 9 1 13.793159 -71.280517 32.053066
8870 9 1 14.226591 -70.961781 32.896004
8871 9 1 13.893644 -70.125496 32.460373
8872 9 1 14.888610 -70.025580 32.468083
8873 9 1 14.960117 -69.491303 31.625803
8874 9 1 14.833439 -69.644469 30.645756
8875 9 1 15.299335 -69.080749 29.963729
8876 9 1 15.735607 -68.185136 30.050581
8877 9 1 14.760567 -68.111297 29.841187
8878 9 1 14.900639 -67.972233 28.860860
8879 9 1 15.732141 -68.318053 28.426105
8880 9 1 16.395679 -67.753197 28.916671
8881 9 1 17.176934 -67.566698 29.512371
8882 9 1 17.908620 -67.999019 28.985366
8883 9 1 17.436488 -68.865482 29.147645
8884 9 1 18.394229 -69.018652 29.391102
8885 9 1 18.316556 -68.901541 30.381179
8886 9 1 18.490089 -67.948015 30.627501
8887 9 1 18.244773 -68.683349 31.259248
8888 9 1 17.997080 -69.627260 31.477608
8889 9 1 17.334509 -70.148457 30.939692
8890 9 1 16.737313 -70.307593 31.725843
8891 9 1 16.286902 -70.272303 30.833719
8892 9 1 15.325406 -70.537267 30.760782
8893 9 1 15.405985 -71.034603 31.624590
8894 9 1 16.027210 -71.284405 32.367341
8895 9 1 16.312370 -70.580546 33.017931
8896 9 1 16.966339 -70.846541 33.726148
8897 9 1 17.727414 -71.320314 33.283086
8898 9 1 18.275476 -71.778662 33.982761
8899 9 1 18.881616 -71.450406 34.707221
8900 9 1 19.084436 -70.659303 35.284300
8901 9 1 18.818922 -71.021939 36.177607
8902 9 1 19.428479 -71.812440 36.118039
8903 9 1 18.778944 -72.343860 36.661819
8904 9 1 18.248967 -71.503593 36.776168
8905 9 1 17.418622 -71.326155 37.304414
8906 9 1 17.066003 -70.829891 38.097749
8907 9 1 17.224471 -71.616972 38.693896
8908 9 1 16.674618 -71.758040 37.870633
8909 9 1 16.125533 -71.489952 38.662236
8910 9 1 15.793439 -72.414750 38.847873
8911 9 1 14.827682 -72.162453 38.908368
8912 9 1 15.074165 -73.086097 39.201846
8913 9 1 14.667923 -73.586862 38.437515
8914 9 1 14.651710 -74.474511 37.977280
8915 9 1 15.526991 -74.905634 37.758155
8916 9 1 15.368306 -74.777203 38.737095
8917 9 1 14.443147 -75.123356 38.892850
8918 9 1 13.576604 -75.481814 39.240141
8919 9 1 13.412574 -75.050449 38.353001
8920 9 1 13.657770 -75.984905 38.611209
8921 9 1 14.093803 -76.217241 37.741787
8922 9 1 13.352383 -76.828721 38.018170
8923 9 1 13.535765 -77.669963 37.509562
8924 9 1 13.910779 -78.444473 37.000153
8925 9 1 14.593155 -78.972918 36.495069
8926 9 1 14.222983 -79.638416 35.846931
8927 9 1 13.653265 -80.453848 35.949368
8928 9 1 14.161991 -80.983706 36.627931
8929 9 1 14.625974 -81.414366 37.402045
8930 9 1 15.416209 -81.568236 36.808874
8931 9 1 15.808401 -81.556605 35.889064
8932 9 1 15.103436 -82.237143 35.689336
8933 9 1 15.150021 -82.291594 34.691907
8934 9 1 15.628350 -82.179837 33.820866
8935 9 1 14.707074 -82.465151 33.556580
8936 9 1 15.035457 -82.864613 32.700663
8937 9 1 15.575592 -83.699151 32.809292
8938 9 1 15.889578 -84.552194 33.226103
8939 9 1 16.757411 -84.904631 32.875883
8940 9 1 17.068679 -84.790249 33.819296
8941 9 1 17.228329 -85.765021 33.663313
8942 9 1 16.273494 -85.933066 33.908367
8943 9 1 16.966131 -85.472143 34.463167
8944 9 1 17.076118 -86.436551 34.222709
8945 9 1 18.020642 -86.601590 34.506674
8946 9 1 18.009198 -86.540283 35.504728
8947 9 1 17.824721 -87.258535 36.175610
8948 9 1 18.225513 -86.818540 36.979208
8949 9 1 18.348836 -86.316820 37.835402
8950 9 1 18.811761 -86.739360 38.614607
8951 9 1 18.326284 -85.924569 38.931510
8952 9 1 18.338420 -86.563335 39.700816
8953 9 1 18.811878 -86.768983 40.557289
8954 9 1 18.359161 -87.285387 41.284183
8955 9 1 17.841244 -86.791011 41.982291
8956 9 1 17.216256 -86.585149 42.735292
8957 9 1 16.421386 -86.705979 43.329919
8958 9 1 16.281806 -86.801243 42.344301
8959 9 1 16.663166 -87.712358 42.500619
8960 9 1 17.064591 -87.747873 43.415821
8961 9 1 17.639364 -88.062032 44.171427
8962 9 1 17.562839 -89.050545 44.301758
8963 9 1 17.781985 -88.613675 45.174179
8964 9 1 17.832369 -89.601220 45.025128
8965 9 1 17.981274 -89.978204 45.939300
8966 9 1 18.735603 -90.093092 46.585666
8967 9 1 18.851853 -90.205258 47.572532
8968 9 1 18.313176 -89.478730 47.145936
8969 9 1 17.591154 -89.867991 47.717916
8970 9 1 17.487760 -90.350219 46.847993
8971 9 1 17.973802 -90.570654 47.693672
8972 9 1 18.276421 -91.514940 47.823073
8973 9 1 19.158494 -91.098886 48.044086
8974 9 1 19.368549 -90.708173 47.147861
8975 9 1 20.089580 -91.373130 47.342659
8976 9 1 19.396207 -92.075381 47.181175
8977 9 1 18.800782 -92.726474 47.651864
8978 9 1 18.730851 -92.995754 46.691344
8979 9 1 18.289790 -93.486314 45.939802
8980 9 1 17.499501 -93.531485 46.550868
8981 9 1 17.068488 -93.964327 45.759112
8982 9 1 17.931686 -94.317736 46.119657
8983 9 1 18.078949 -94.289030 47.108338
8984 9 1 18.055226 -95.019191 47.791201
8985 9 1 17.299470 -95.671265 47.851478
8986 9 1 18.126634 -96.185154 47.624062
8987 9 1 18.294624 -96.634879 48.501288
8988 9 1 19.115899 -97.195454 48.395153
8989 9 1 19.243488 -97.100010 49.382378
8990 9 1 18.431513 -96.519132 49.439613
8991 9 1 17.455962 -96.635451 49.626084
8992 9 1 16.457857 -96.608626 49.681452
8993 9 1 16.896969 -97.181966 50.373161
8994 9 1 15.954751 -97.324977 50.676101
8995 9 1 15.084033 -97.776720 50.870470
8996 9 1 15.403006 -98.713659 50.727639
8997 9 1 16.339814 -98.512190 50.441629
8998 9 1 15.826688 -98.156397 51.222726
8999 9 1 15.314700 -98.432581 52.036108
9000 9 1 16.280973 -98.194495 51.937969
9001 10 1 0.114310 -97.300661 72.728093
9002 10 1 0.486657 -96.524115 72.219827
9003 10 1 1.417336 -96.750345 72.507326
9004 10 1 2.347854 -96.712205 72.143070
9005 10 1 2.897129 -96.391924 71.371243
9006 10 1 3.850426 -96.646834 71.533247
9007 10 1 4.410432 -97.434567 71.276591
9008 10 1 5.275522 -97.851281 71.555818
9009 10 1 4.914765 -97.824563 70.623541
9010 10 1 4.812496 -98.280395 69.739371
9011 10 1 4.638517 -98.267300 68.754708
9012 10 1 5.096105 -97.407576 68.981617
9013 10 1 5.997206 -96.977132 68.929323
9014 10 1 5.195924 -96.466920 69.241782
9015 10 1 5.722278 -96.716739 70.054519
9016 10 1 6.239139 -96.256405 70.776286
9017 10 1 5.748586 -95.851799 70.004501
9018 10 1 6.218236 -95.316324 70.706423
9019 10 1 6.707761 -94.733062 70.058217
9020 10 1 6.132925 -95.247103 69.421566
9021 10 1 5.773355 -94.324759 69.280181
9022 10 1 5.981903 -93.935433 68.383001
9023 10 1 6.467825 -93.551760 67.597714
9024 10 1 7.054565 -93.774452 68.376267
9025 10 1 7.801555 -93.241039 68.773101
9026 10 1 6.979643 -92.968133 69.273084
9027 10 1 6.745201 -93.921739 69.461960
9028 10 1 7.688036 -93.799526 69.772002
9029 10 1 8.125126 -92.901032 69.731251
9030 10 1 7.721812 -92.072159 70.118946
9031 10 1 6.803463 -92.466727 70.149780
9032 10 1 7.030112 -92.098254 69.248194
9033 10 1 7.793533 -91.621758 68.812143
9034 10 1 7.662291 -91.244616 69.728952
9035 10 1 8.067565 -90.535286 70.305670
9036 10 1 8.860600 -90.009552 70.613401
9037 10 1 8.020376 -89.687370 70.177257
9038 10 1 7.244077 -89.111146 69.921667
9039 10 1 6.348540 -89.535567 69.787953
9040 10 1 5.907514 -89.475327 70.683423
9041 10 1 5.504322 -90.377302 70.528905
9042 10 1 4.661215 -90.242073 71.049370
9043 10 1 4.027934 -90.149074 70.281056
9044 10 1 3.973611 -91.128142 70.477206
9045 10 1 4.084049 -92.092042 70.719485
9046 10 1 3.931976 -93.047525 70.466647
9047 10 1 3.811614 -93.369668 69.527639
9048 10 1 2.977747 -93.204151 69.001073
9049 10 1 3.058527 -92.929728 68.042863
9050 10 1 2.841964 -93.883836 67.836033
9051 10 1 3.208308 -94.727602 67.443795
9052 10 1 3.760189 -95.013344 66.660354
9053 10 1 3.375440 -94.740564 65.778561
9054 10 1 4.332247 -95.025388 65.720282
9055 10 1 3.994520 -95.889095 66.094383
9056 10 1 3.107846 -96.077112 65.671939
9057 10 1 2.754883 -96.948349 65.330820
9058 10 1 3.381117 -97.629660 65.709827
9059 10 1 3.509010 -97.873122 66.671269
9060 10 1 3.700747 -96.891689 66.676382
9061 10 1 4.111659 -96.703193 65.784406
9062 10 1 4.646893 -96.797555 66.623823
9063 10 1 4.273258 -97.497911 67.232016
9064 10 1 3.829107 -98.001998 67.972709
9065 10 1 2.961098 -98.434681 68.216318
9066 10 1 2.595364 -97.699107 68.786553
9067 10 1 2.724513 -96.853732 68.268227
9068 10 1 3.654097 -97.066946 67.967537
9069 10 1 4.246531 -96.924894 68.760533
9070 10 1 4.927146 -97.107159 68.050925
9071 10 1 5.217508 -96.541547 67.279062
9072 10 1 5.216155 -96.146284 68.197629
9073 10 1 5.299253 -95.530166 67.414371
9074 10 1 4.386873 -95.932372 67.490481
9075 10 1 3.872982 -96.296289 68.267322
9076 10 1 3.372005 -96.280462 69.132637
9077 10 1 3.849059 -96.998615 69.639268
9078 10 1 3.425823 -97.310497 70.489915
9079 10 1 3.656255 -98.192653 70.900650
9080 10 1 3.528284 -98.065677 69.917034
9081 10 1 2.959165 -98.670981 69.360517
9082 10 1 3.046701 -99.475247 69.948303
9083 10 1 2.166458 -99.108533 70.249453
9084 10 1 1.769993 -98.877722 71.138015
9085 10 1 1.136522 -98.180651 70.802148
9086 10 1 1.664966 -97.333252 70.750561
9087 10 1 2.229855 -97.938007 70.189160
9088 10 1 1.617238 -97.985815 69.400227
9089 10 1 0.813171 -97.477172 69.708057
9090 10 1 0.841147 -98.174080 68.991442
9091 10 1 0.107640 -97.504311 68.875781
9092 10 1 0.768363 -97.328854 68.145945
9093 10 1 0.443296 -98.247720 67.922299
9094 10 1 -0.415440 -97.786912 67.698181
9095 10 1 -1.042198 -98.356127 68.230317
9096 10 1 -1.802090 -98.539812 68.853873
9097 10 1 -2.595683 -98.155043 68.382532
9098 10 1 -2.740850 -97.570839 69.181050
9099 10 1 -2.014810 -97.573985 69.868695
9100 10 1 -1.324928 -98.291808 69.962470
9101 10 1 -2.125237 -98.868061 70.128116
9102 10 1 -3.114547 -98.915420 70.266037
9103 10 1 -3.384397 -99.381929 71.108385
9104 10 1 -4.309274 -99.504214 70.748318
9105 10 1 -4.846107 -99.435709 71.589221
9106 10 1 -5.463998 -98.656406 71.693609
9107 10 1 -5.263254 -98.210896 70.821128
9108 10 1 -4.625046 -98.114538 70.057319
9109 10 1 -4.674377 -98.410745 69.103470
9110 10 1 -3.681303 -98.419651 69.220622
9111 10 1 -2.863140 -98.863532 68.855136
9112 10 1 -3.351483 -99.736157 68.861976
9113 10 1 -4.275994 -99.951578 69.176416
9114 10 1 -4.109749 -99.328779 69.940932
9115 10 1 -3.362199 -99.982655 69.824247
9116 10 1 -2.596555 -99.527650 70.278956
9117 10 1 -1.713331 -99.600706 69.815730
9118 10 1 -1.059528 -99.971352 69.156062
9119 10 1 -0.870650 -99.842851 68.182506
9120 10 1 -0.217071 -99.594246 67.467642
9121 10 1 0.065323 -99.513585 66.511740
9122 10 1 -0.671517 -98.954133 66.132161
9123 10 1 -1.301240 -98.844400 66.901191
9124 10 1 -1.660850 -98.584292 66.005075
9125 10 1 -1.596943 -97.626806 65.723763
9126 10 1 -1.570177 -97.871144 66.693084
9127 10 1 -2.466120 -97.557663 67.007753
9128 10 1 -2.897701 -98.424304 66.757412
9129 10 1 -3.342465 -99.264431 67.067848
9130 10 1 -2.930094 -99.882688 66.398738
9131 10 1 -2.092924 -99.420089 66.690542
9132 10 1 -1.366835 -99.895173 67.187623
9133 10 1 -1.846223 -99.065406 67.473407
9134 10 1 -2.485006 -99.638697 67.986530
9135 10 1 -2.958621 -98.758727 67.949896
9136 10 1 -3.481195 -97.988779 68.316088
9137 10 1 -3.751664 -97.308943 67.634422
9138 10 1 -4.195324 -97.513536 66.761892
9139 10 1 -4.039544 -98.259360 67.409565
9140 10 1 -4.429334 -99.156378 67.201181
9141 10 1 -3.902343 -98.583040 66.573834
9142 10 1 -3.350308 -98.844217 65.781973
9143 10 1 -2.650922 -98.320816 65.295237
9144 10 1 -2.973377 -99.158643 64.854703
9145 10 1 -2.940097 -99.383123 63.880793
9146 10 1 -2.154073 -99.808887 64.329002
9147 10 1 -2.074558 -99.257824 65.159669
9148 10 1 -1.975516 -98.517063 64.495242
9149 10 1 -1.441143 -98.779180 63.691662
9150 10 1 -1.913644 -99.558965 63.280959
9151 10 1 -2.600675 -98.841429 63.395546
9152 10 1 -2.143538 -97.952480 63.367337
9153 10 1 -2.403611 -98.382405 62.502741
9154 10 1 -1.435911 -98.395081 62.754528
9155 10 1 -0.700568 -98.965034 62.387889
9156 10 1 -0.152312 -98.509038 63.088947
9157 10 1 0.146629 -99.174720 62.405207
9158 10 1 0.961844 -98.611289 62.539263
9159 10 1 1.294956 -97.837415 63.077923
9160 10 1 0.946419 -96.900319 63.058590
9161 10 1 0.314227 -96.202376 62.722124
9162 10 1 1.058892 -96.430627 62.094926
9163 10 1 1.703829 -96.431858 62.859160
9164 10 1 2.297586 -95.629614 62.797051
9165 10 1 2.354768 -95.039641 63.602446
9166 10 1 3.283651 -95.328026 63.370044
9167 10 1 3.514384 -96.232245 63.010670
9168 10 1 3.930144 -97.024974 62.564885
9169 10 1 3.542416 -97.942306 62.655274
9170 10 1 4.453773 -97.918700 62.244334
9171 10 1 4.422827 -97.974803 61.246389
9172 10 1 5.377448 -98.260561 61.330299
9173 10 1 4.683100 -98.626666 60.710744
9174 10 1 5.463170 -98.099453 60.373792
9175 10 1 5.767916 -99.051868 60.367795
9176 10 1 6.554703 -99.179671 60.971642
9177 10 1 6.760226 -99.869993 60.277945
9178 10 1 7.500320 -99.958723 60.944570
9179 10 1 8.135501 -99.298866 60.543154
9180 10 1 7.718426 -98.539988 61.043307
9181 10 1 8.470568 -99.098210 61.393552
9182 10 1 7.868276 -99.840602 61.686976
9183 10 1 6.871176 -99.885069 61.748751
9184 10 1 6.957793 -99.334569 62.579080
9185 10 1 7.887260 -99.453539 62.928275
9186 10 1 8.816522 -99.661060 62.622647
9187 10 1 9.237399 -99.243719 61.817235
9188 10 1 10.141351 -99.667279 61.758347
9189 10 1 10.727444 -99.807192 62.556419
9190 10 1 9.914239 -99.940696 63.122876
9191 10 1 9.050558 -99.583377 63.478375
9192 10 1 9.787740 -99.600782 64.153846
9193 10 1 10.596610 -99.636076 64.740773
9194 10 1 9.672398 -99.458242 65.078719
9195 10 1 9.442446 -98.703974 65.693701
9196 10 1 9.718910 -98.461126 64.763866
9197 10 1 8.924864 -98.118819 64.261555
9198 10 1 8.165793 -98.174228 63.612909
9199 10 1 8.848638 -98.058724 62.891534
9200 10 1 7.989265 -98.314105 62.448524
9201 10 1 7.546875 -97.602467 62.994292
9202 10 1 7.353603 -96.955794 63.732167
9203 10 1 6.742754 -96.340386 64.230299
9204 10 1 7.156272 -96.124891 65.114926
9205 10 1 7.646299 -96.634591 64.407762
9206 10 1 7.613998 -97.631902 64.341986
9207 10 1 8.046903 -98.300128 64.947020
9208 10 1 8.249814 -99.168660 65.399215
9209 10 1 8.457185 -99.400653 64.448860
9210 10 1 9.081851 -98.877379 63.869226
9211 10 1 9.753487 -98.814533 63.131014
9212 10 1 10.602722 -98.404812 63.464073
9213 10 1 11.451015 -98.029582 63.837706
9214 10 1 11.853553 -97.189203 63.474764
9215 10 1 10.881636 -97.412061 63.399181
9216 10 1 10.518564 -96.703619 62.793963
9217 10 1 10.072354 -96.102193 62.131254
9218 10 1 9.675823 -96.815622 61.553515
9219 10 1 9.928217 -97.248571 60.688152
9220 10 1 10.241198 -98.014911 61.249192
9221 10 1 10.404752 -97.569232 62.129317
9222 10 1 11.033690 -97.354153 61.382204
9223 10 1 10.850129 -98.205344 61.873915
9224 10 1 11.079724 -99.041307 61.375466
9225 10 1 10.205238 -98.804732 60.952019
9226 10 1 10.891927 -99.181687 60.330438
9227 10 1 11.640593 -98.528430 60.443376
9228 10 1 12.048829 -99.198270 61.063583
9229 10 1 12.816013 -99.249845 60.424233
9230 10 1 12.111745 -99.837781 60.026317
9231 10 1 11.157387 -99.947444 60.304121
9232 10 1 11.118403 -99.310011 59.534602
9233 10 1 10.299700 -99.846689 59.738813
9234 10 1 10.325712 -99.603362 60.708409
9235 10 1 9.368843 -99.612530 60.998784
9236 10 1 9.180605 -98.662455 60.749938
9237 10 1 8.678347 -97.881054 61.120273
9238 10 1 8.876110 -96.952580 60.805906
9239 10 1 8.269508 -96.675353 61.551009
9240 10 1 8.180472 -96.562497 60.561395
9241 10 1 7.232997 -96.297452 60.740397
9242 10 1 6.776642 -95.672738 60.106778
9243 10 1 6.182800 -95.677113 59.302208
9244 10 1 5.688494 -96.116520 60.052264
9245 10 1 4.853951 -95.924240 59.535964
9246 10 1 4.246214 -96.624751 59.910050
9247 10 1 4.988489 -96.725088 60.572591
9248 10 1 5.663039 -97.414223 60.837309
9249 10 1 6.584980 -97.799465 60.797153
9250 10 1 7.077085 -98.501251 60.282052
9251 10 1 7.729007 -98.501979 59.523767
9252 10 1 8.644526 -98.398148 59.912413
9253 10 1 9.509979 -98.781168 59.589478
9254 10 1 9.424551 -99.739703 59.317610
9255 10 1 10.117274 -99.080693 59.024624
9256 10 1 10.251531 -98.109938 58.825603
9257 10 1 11.150132 -97.997699 58.401436
9258 10 1 10.855945 -97.539840 59.240375
9259 10 1 11.748440 -97.172441 59.502044
9260 10 1 12.532395 -97.714773 59.804187
9261 10 1 12.810646 -96.971195 60.412191
9262 10 1 13.765496 -96.674980 60.434955
9263 10 1 14.641770 -96.195660 60.385997
9264 10 1 15.229481 -95.661531 59.778294
9265 10 1 16.178768 -95.954835 59.665045
9266 10 1 15.537410 -96.455021 59.083261
9267 10 1 15.712085 -96.627561 58.113870
9268 10 1 15.249876 -95.820577 58.481484
9269 10 1 15.802000 -95.713144 57.654673
9270 10 1 16.081286 -94.777344 57.869794
9271 10 1 17.062268 -94.880717 57.705517
9272 10 1 17.161996 -94.014460 57.215972
9273 10 1 16.251554 -93.637519 57.386296
9274 10 1 16.711512 -92.861206 57.817315
9275 10 1 16.746573 -91.902440 57.535288
9276 10 1 15.932319 -92.427686 57.288088
9277 10 1 15.324286 -91.665267 57.509477
9278 10 1 15.358064 -90.669098 57.590134
9279 10 1 16.068796 -91.052011 57.000017
9280 10 1 16.934713 -90.850826 57.457962
9281 10 1 16.105397 -91.065756 57.973754
9282 10 1 15.229511 -91.237273 58.424758
9283 10 1 14.696862 -92.026417 58.730596
9284 10 1 14.213668 -91.358686 58.164329
9285 10 1 14.274390 -90.360534 58.162226
9286 10 1 13.523162 -89.709610 58.271561
9287 10 1 13.332143 -89.909269 59.232627
9288 10 1 14.032730 -89.471595 59.796204
9289 10 1 14.592122 -90.146457 60.277495
9290 10 1 15.293153 -89.569287 59.858650
9291 10 1 16.000049 -89.437674 60.553615
9292 10 1 16.487046 -90.310585 60.582956
9293 10 1 16.495236 -91.245163 60.938619
9294 10 1 17.395482 -91.572697 61.225460
9295 10 1 18.328693 -91.818779 61.487304
9296 10 1 17.510119 -92.390568 61.432584
9297 10 1 16.773671 -92.916271 61.006812
9298 10 1 15.976507 -92.377852 60.733619
9299 10 1 16.547650 -91.876758 60.083465
9300 10 1 17.258677 -91.177774 60.006895
9301 10 1 17.695615 -91.695413 59.271277
9302 10 1 17.372826 -91.553940 58.335439
9303 10 1 16.606725 -91.984739 58.812409
9304 10 1 17.390403 -92.462973 58.415998
9305 10 1 17.907690 -92.029423 57.678131
9306 10 1 18.304119 -92.666742 58.338941
9307 10 1 19.152697 -92.411223 58.802217
9308 10 1 19.141439 -93.177778 59.444297
9309 10 1 18.634251 -93.427691 58.619491
9310 10 1 17.824033 -93.625005 58.067572
9311 10 1 17.431975 -94.475592 58.417989
9312 10 1 17.965135 -94.994672 57.749935
9313 10 1 18.780464 -95.492642 57.454530
9314 10 1 19.005594 -94.552370 57.199174
9315 10 1 19.297676 -94.072605 56.371821
9316 10 1 18.774191 -94.754223 55.860589
9317 10 1 19.741192 -95.000465 55.925969
9318 10 1 19.475885 -95.541519 55.127926
9319 10 1 20.267323 -95.943775 54.667693
9320 10 1 20.222523 -95.103932 54.126714
9321 10 1 19.557297 -95.667587 53.637052
9322 10 1 19.290803 -96.460774 53.089480
9323 10 1 19.579026 -96.859280 52.218779
9324 10 1 19.328224 -97.781448 51.924322
9325 10 1 19.555674 -98.408210 52.669598
9326 10 1 18.941916 -98.134451 53.410110
9327 10 1 18.635889 -98.996349 53.005784
9328 10 1 18.400020 -98.961355 52.034629
9329 10 1 18.437130 -98.116820 52.568842
9330 10 1 17.520489 -97.718618 52.534138
9331 10 1 17.682513 -97.213697 51.686315
9332 10 1 17.834905 -98.182435 51.490550
9333 10 1 17.060207 -98.784049 51.295862
9334 10 1 16.500161 -99.019127 52.090272
9335 10 1 15.707541 -99.228366 52.662961
9336 10 1 14.814917 -99.679048 52.673304
9337 10 1 14.996882 -99.963791 53.614479
9338 10 1 15.156331 -99.160336 54.188096
9339 10 1 15.834057 -99.610901 53.606995
9340 10 1 16.156370 -98.664286 53.601191
9341 10 1 15.296854 -98.154820 53.642139
9342 10 1 15.563774 -97.426144 53.011437
9343 10 1 14.972903 -98.219913 52.867206
9344 10 1 14.456956 -98.208161 52.010666
9345 10 1 14.101318 -99.005099 52.498940
9346 10 1 13.593746 -98.146452 52.570328
9347 10 1 12.886158 -97.613680 52.106138
9348 10 1 12.687548 -98.227786 52.869962
9349 10 1 12.604154 -99.160392 53.221091
9350 10 1 13.094747 -99.537739 54.006539
9351 10 1 12.515724 -98.770887 54.283433
9352 10 1 13.421170 -98.668220 54.695290
9353 10 1 12.997803 -99.412438 55.211914
9354 10 1 12.296100 -99.871538 54.667084
9355 10 1 11.512957 -99.912935 54.046622
9356 10 1 11.489110 -99.103579 54.633456
9357 10 1 11.794824 -99.639359 55.420526
9358 10 1 12.459281 -99.395178 56.126835
9359 10 1 12.325677 -98.824982 55.316263
9360 10 1 12.486323 -97.841842 55.228924
9361 10 1 12.840441 -98.128588 56.119079
9362 10 1 13.576067 -98.214214 55.447125
9363 10 1 14.208579 -98.398790 56.199362
9364 10 1 14.943311 -98.529141 55.533645
9365 10 1 15.812532 -98.804204 55.944493
9366 10 1 16.531957 -98.219470 55.569641
9367 10 1 16.148432 -97.364316 55.220901
9368 10 1 15.710594 -98.238359 55.010315
9369 10 1 16.382220 -98.172978 54.272316
9370 10 1 16.216482 -97.188318 54.217759
9371 10 1 15.931766 -96.240958 54.071315
9372 10 1 15.999460 -95.252444 54.206438
9373 10 1 16.664279 -94.506803 54.161311
9374 10 1 17.363181 -93.895157 53.790604
9375 10 1 17.321314 -93.772887 54.782217
9376 10 1 16.842353 -92.946619 54.485776
9377 10 1 17.642655 -92.788848 53.907309
9378 10 1 18.171052 -93.125307 54.686791
9379 10 1 17.451593 -92.570194 55.104198
9380 10 1 16.754193 -91.926012 55.418306
9381 10 1 16.692212 -90.990852 55.767067
9382 10 1 17.617595 -91.250090 55.490549
9383 10 1 18.379924 -91.171747 56.132978
9384 10 1 19.016367 -90.402530 56.189958
9385 10 1 19.098947 -91.203640 56.782751
9386 10 1 19.707022 -90.410904 56.740148
9387 10 1 20.212885 -91.234001 56.998243
9388 10 1 20.234899 -91.196980 55.999171
9389 10 1 19.665210 -91.858210 56.487258
9390 10 1 20.460067 -92.434804 56.676313
9391 10 1 20.729734 -92.015566 55.809412
9392 10 1 21.530535 -91.449243 56.004337
9393 10 1 20.859967 -90.818499 55.613824
9394 10 1 20.927581 -89.835557 55.442786
9395 10 1 21.911252 -89.931471 55.595072
9396 10 1 22.174778 -89.122795 55.069146
9397 10 1 23.096621 -88.994980 54.703265
9398 10 1 24.049752 -88.984904 55.005653
9399 10 1 23.681322 -88.073257 54.823559
9400 10 1 22.826946 -87.760181 54.408800
9401 10 1 22.354441 -86.882043 54.483725
9402 10 1 21.841047 -86.874698 53.625604
9403 10 1 21.292292 -86.062491 53.427647
9404 10 1 21.400548 -86.902099 52.895350
9405 10 1 20.648309 -87.491219 53.190433
9406 10 1 19.701426 -87.812583 53.178673
9407 10 1 19.655853 -88.348327 52.335524
9408 10 1 20.043978 -88.550839 53.234605
9409 10 1 20.019088 -89.149415 54.035285
9410 10 1 19.757486 -89.336653 54.982125
9411 10 1 19.620710 -90.208729 55.451993
9412 10 1 19.175439 -91.092932 55.310861
9413 10 1 19.930724 -91.412199 54.738486
9414 10 1 19.590131 -92.231973 55.198885
9415 10 1 19.070878 -92.576270 55.981084
9416 10 1 18.987310 -92.754314 55.000616
9417 10 1 19.310239 -93.387594 54.297285
9418 10 1 19.121721 -94.188590 53.729073
9419 10 1 18.855304 -93.362863 53.231883
9420 10 1 19.179112 -92.971231 52.370620
9421 10 1 19.865555 -93.692580 52.462554
9422 10 1 20.200377 -93.072967 51.752643
9423 10 1 20.602974 -93.803402 51.200936
9424 10 1 21.088838 -94.046240 52.040558
9425 10 1 21.805747 -94.019457 52.737211
9426 10 1 22.121170 -94.544501 53.527678
9427 10 1 23.012281 -94.820346 53.167358
9428 10 1 22.920408 -95.380826 52.344302
9429 10 1 23.795203 -95.595967 52.778408
9430 10 1 24.338530 -95.862329 53.574553
9431 10 1 24.442736 -95.876135 54.569013
9432 10 1 23.855593 -96.507291 55.075873
9433 10 1 24.773725 -96.783350 54.791575
9434 10 1 25.200081 -96.530125 55.659963
9435 10 1 24.835132 -95.773717 56.202787
9436 10 1 25.111859 -95.434852 55.303569
9437 10 1 26.042115 -95.073859 55.369209
9438 10 1 26.269033 -94.272288 54.816044
9439 10 1 25.812287 -93.383588 54.855990
9440 10 1 25.169474 -93.930485 55.392362
9441 10 1 24.760325 -93.069202 55.693674
9442 10 1 24.846979 -92.078953 55.584596
9443 10 1 25.065186 -91.347570 56.230711
9444 10 1 25.114467 -90.567610 56.854597
9445 10 1 24.385838 -91.222592 56.654353
9446 10 1 23.971190 -90.569755 56.020420
9447 10 1 23.993658 -89.577770 56.144764
9448 10 1 24.297907 -89.126223 56.983535
9449 10 1 25.015966 -88.430492 56.964836
9450 10 1 25.080043 -88.131544 56.012720
9451 10 1 25.638663 -87.818022 56.780605
9452 10 1 25.875115 -87.762882 55.810528
9453 10 1 25.788376 -88.229753 54.930466
9454 10 1 26.713110 -88.536113 54.704610
9455 10 1 26.640301 -87.539218 54.674621
9456 10 1 26.621073 -87.020495 53.819894
9457 10 1 26.049313 -87.303349 53.049775
9458 10 1 25.555881 -86.514949 53.417130
9459 10 1 25.697206 -85.887430 54.182797
9460 10 1 26.077419 -85.165109 53.605138
9461 10 1 25.793258 -85.003351 54.550171
9462 10 1 26.621148 -85.536470 54.375867
9463 10 1 27.437285 -86.020456 54.060149
9464 10 1 27.990411 -85.938689 53.231073
9465 10 1 27.831217 -85.517948 52.337970
9466 10 1 28.583156 -85.112089 51.818483
9467 10 1 28.645040 -86.038010 51.445871
9468 10 1 29.101897 -86.761316 51.963665
9469 10 1 28.130421 -86.539840 51.878912
9470 10 1 27.232447 -86.126783 52.030660
9471 10 1 27.373937 -86.874369 52.679579
9472 10 1 27.290898 -87.523394 53.435800
9473 10 1 27.213669 -88.135528 52.648827
9474 10 1 26.400915 -87.811046 52.164944
9475 10 1 27.008284 -87.924088 51.378607
9476 10 1 27.036831 -86.928222 51.464843
9477 10 1 26.560559 -86.083074 51.222172
9478 10 1 25.780504 -85.469587 51.345252
9479 10 1 26.020133 -84.726624 51.970219
9480 10 1 26.980106 -84.897634 52.192045
9481 10 1 27.506036 -84.971662 53.039345
9482 10 1 27.792533 -84.387429 52.280009
9483 10 1 28.269090 -84.096730 51.450318
9484 10 1 27.378956 -83.690209 51.656235
9485 10 1 26.995393 -82.878332 52.096391
9486 10 1 27.819617 -82.568038 51.622710
9487 10 1 28.678727 -82.085518 51.452113
9488 10 1 28.980810 -81.385823 52.099549
9489 10 1 29.444864 -81.071867 52.927851
9490 10 1 29.610494 -80.268271 53.499515
9491 10 1 29.264176 -79.793339 54.308529
9492 10 1 29.709549 -80.224244 55.093363
9493 10 1 30.121066 -81.056670 55.464471
9494 10 1 29.523181 -81.585305 56.067032
9495 10 1 28.646881 -81.999983 55.821799
9496 10 1 27.958200 -82.063487 55.099521
9497 10 1 27.477606 -81.257842 55.445880
9498 10 1 27.260660 -80.480100 56.035839
9499 10 1 27.945921 -81.053600 56.484743
9500 10 1 28.324208 -80.293900 57.013662
9501 10 1 27.665320 -80.354380 57.763468
9502 10 1 27.241073 -81.000597 58.397832
9503 10 1 27.953973 -81.439270 58.944950
9504 10 1 27.287661 -82.149027 58.716318
9505 10 1 27.108693 -82.949224 59.288730
9506 10 1 27.081920 -83.932651 59.109415
9507 10 1 27.677217 -83.601747 58.377210
9508 10 1 27.876958 -84.147568 57.563464
9509 10 1 28.591463 -83.514722 57.265155
9510 10 1 28.845331 -84.308150 56.711962
9511 10 1 28.238195 -83.792444 56.107452
9512 10 1 28.309962 -82.874657 56.497986
9513 10 1 27.450154 -82.696398 56.019496
9514 10 1 26.465805 -82.659806 55.847103
9515 10 1 25.820614 -83.222012 56.364454
9516 10 1 25.898293 -82.494515 57.046154
9517 10 1 25.009237 -82.429258 56.593031
9518 10 1 25.264518 -82.826787 57.474395
9519 10 1 24.378095 -82.567822 57.090739
9520 10 1 23.803685 -82.244150 57.842597
9521 10 1 23.890994 -82.270046 58.838441
9522 10 1 23.190821 -82.319146 59.550725
9523 10 1 24.102088 -82.730772 59.563280
9524 10 1 23.581369 -83.201662 58.851161
9525 10 1 23.315286 -83.806005 59.602140
9526 10 1 22.493334 -83.309053 59.880408
9527 10 1 21.519992 -83.531904 59.934649
9528 10 1 20.599947 -83.140150 59.941483
9529 10 1 20.485610 -83.622718 59.073119
9530 10 1 20.353247 -82.869750 58.428511
9531 10 1 19.865401 -83.660153 58.058012
9532 10 1 19.894957 -84.269414 58.850431
9533 10 1 20.087969 -84.801151 59.675053
9534 10 1 20.943671 -84.687324 59.170260
9535 10 1 21.618356 -84.606829 59.903963
9536 10 1 22.237419 -84.048716 60.456477
9537 10 1 22.417941 -85.027385 60.358403
9538 10 1 22.684576 -85.564786 59.558337
9539 10 1 22.849417 -86.376835 60.118163
9540 10 1 23.256048 -86.196388 61.013758
9541 10 1 23.339909 -85.311885 60.554823
9542 10 1 23.378881 -85.078355 59.583255
9543 10 1 23.556268 -85.290332 58.622214
9544 10 1 24.326846 -84.684914 58.423016
9545 10 1 24.380399 -84.208478 57.545439
9546 10 1 23.670459 -83.805546 56.967831
9547 10 1 23.721810 -83.078916 57.652938
9548 10 1 23.209535 -83.794273 58.128163
9549 10 1 23.401441 -84.599906 57.567692
9550 10 1 23.814006 -85.475497 57.818951
9551 10 1 24.743759 -85.378582 58.174153
9552 10 1 25.308589 -84.870616 58.824489
9553 10 1 25.144038 -84.254164 59.594496
9554 10 1 24.492762 -84.971659 59.841561
9555 10 1 25.027968 -85.568536 59.243822
9556 10 1 25.498465 -85.265154 60.072431
9557 10 1 26.220606 -85.772238 59.601924
9558 10 1 26.575915 -85.932485 60.522835
9559 10 1 26.273395 -86.100774 61.461003
9560 10 1 27.215889 -86.434938 61.467281
9561 10 1 27.896948 -86.816229 62.092401
9562 10 1 27.925618 -87.750875 62.446826
9563 10 1 28.047716 -88.734484 62.314143
9564 10 1 28.917424 -88.368365 62.645149
9565 10 1 29.385779 -87.747786 62.016242
9566 10 1 28.892214 -87.087372 62.582145
9567 10 1 29.791067 -86.857347 62.209115
9568 10 1 30.721425 -86.575333 62.443430
9569 10 1 31.504820 -86.389305 63.036460
9570 10 1 32.088097 -87.159040 62.777045
9571 10 1 32.746960 -86.941629 62.056884
9572 10 1 31.800701 -86.664918 61.889477
9573 10 1 32.252993 -85.942663 62.412716
9574 10 1 31.807651 -85.680544 61.556583
9575 10 1 32.626789 -85.345491 62.022150
9576 10 1 33.316753 -86.069221 62.034997
9577 10 1 33.272046 -85.475630 62.838522
9578 10 1 33.016381 -86.054639 63.612721
9579 10 1 32.040434 -85.912458 63.447457
9580 10 1 31.484591 -85.360445 62.825910
9581 10 1 31.104751 -84.662988 62.218230
9582 10 1 30.699864 -84.221440 63.018918
9583 10 1 30.609370 -84.231290 64.014766
9584 10 1 29.775919 -84.101709 63.477582
9585 10 1 29.272842 -84.711991 64.089521
9586 10 1 28.837336 -85.183021 63.322406
9587 10 1 28.934733 -84.188182 63.293934
9588 10 1 29.243187 -83.689637 64.104063
9589 10 1 30.015597 -83.953557 64.681755
9590 10 1 29.961758 -84.544007 65.487031
9591 10 1 30.072148 -84.221643 66.427188
9592 10 1 30.832647 -83.940956 65.841649
9593 10 1 31.218210 -83.405122 65.090501
9594 10 1 31.661641 -83.317206 65.982487
9595 10 1 31.392623 -82.355691 65.926645
9596 10 1 30.878098 -82.324772 65.069728
9597 10 1 30.972524 -81.413334 64.669272
9598 10 1 30.797307 -81.081868 63.742218
9599 10 1 30.442318 -80.178055 63.503249
9600 10 1 29.953032 -81.045820 63.590328
9601 10 1 30.307046 -81.395088 62.722752
9602 10 1 29.606010 -80.684174 62.778887
9603 10 1 28.674353 -81.014482 62.627517
9604 10 1 28.180458 -80.742390 61.801664
9605 10 1 28.764397 -81.140331 61.094092
9606 10 1 27.807781 -81.390199 61.243932
9607 10 1 27.318305 -80.905831 61.969054
9608 10 1 26.625267 -80.366295 61.490933
9609 10 1 26.702293 -79.381071 61.337960
9610 10 1 26.911537 -78.609733 61.939004
9611 10 1 27.239703 -79.108037 62.741500
9612 10 1 27.847484 -79.567566 63.389138
9613 10 1 28.594804 -78.964817 63.109484
9614 10 1 29.592261 -78.965902 63.180750
9615 10 1 30.312941 -78.446413 63.639826
9616 10 1 30.277215 -78.109633 64.580732
9617 10 1 29.889602 -77.281586 64.985817
9618 10 1 29.077252 -77.187646 64.410264
9619 10 1 29.305742 -76.218825 64.314462
9620 10 1 30.292067 -76.315695 64.447803
9621 10 1 30.704720 -77.115414 64.883884
9622 10 1 31.135775 -77.653019 65.608572
9623 10 1 31.073780 -76.748442 66.030350
9624 10 1 31.979929 -76.790334 65.609470
9625 10 1 32.256422 -76.885297 66.565782
9626 10 1 31.403883 -76.694719 67.052463
9627 10 1 30.411000 -76.773071 66.962775
9628 10 1 30.715716 -75.851488 67.203258
9629 10 1 30.076436 -75.304058 67.743297
9630 10 1 30.496501 -74.842671 68.524749
9631 10 1 29.876281 -75.526857 68.908437
9632 10 1 30.222075 -76.464951 68.888261
9633 10 1 29.507638 -77.104055 69.173088
9634 10 1 29.550985 -76.734954 68.244710
9635 10 1 29.385089 -77.680465 68.524865
9636 10 1 29.785293 -78.389675 67.944469
9637 10 1 30.035998 -77.832034 67.153152
9638 10 1 30.986193 -77.551445 67.288799
9639 10 1 31.254658 -77.426486 68.243950
9640 10 1 32.166537 -77.028630 68.143023
9641 10 1 31.894596 -76.103274 67.878893
9642 10 1 31.669063 -75.538476 67.085081
9643 10 1 31.659862 -75.508324 66.085578
9644 10 1 30.722520 -75.678581 66.389557
9645 10 1 29.862686 -76.137625 66.613084
9646 10 1 29.774648 -76.647035 67.469093
9647 10 1 30.710635 -76.709996 67.815452
9648 10 1 30.126359 -77.502605 67.989787
9649 10 1 30.181682 -78.105678 68.785552
9650 10 1 29.750815 -78.235544 69.678575
9651 10 1 30.732336 -78.061469 69.758043
9652 10 1 30.105854 -77.283835 69.811016
9653 10 1 30.928961 -77.369540 70.372398
9654 10 1 31.261045 -77.794756 71.214367
9655 10 1 30.562424 -78.413179 70.854529
9656 10 1 30.022855 -77.809481 71.441398
9657 10 1 29.699327 -77.657348 72.375306
9658 10 1 30.546928 -78.186931 72.341909
9659 10 1 30.953811 -77.354094 71.966638
9660 10 1 31.062598 -77.439062 72.957065
9661 10 1 31.373155 -76.657857 73.498612
9662 10 1 31.063594 -77.520141 73.899409
9663 10 1 30.836108 -77.388927 74.864309
9664 10 1 30.495883 -76.835937 75.624867
9665 10 1 29.672156 -76.315101 75.400804
9666 10 1 30.472408 -76.172629 74.818311
9667 10 1 30.219699 -76.869489 74.147100
9668 10 1 29.985288 -76.030960 73.655246
9669 10 1 29.572790 -76.874103 73.310346
9670 10 1 28.662038 -77.193457 73.048540
9671 10 1 28.234940 -77.582194 72.232162
9672 10 1 28.348955 -76.919645 71.491872
9673 10 1 29.211855 -77.327871 71.789791
9674 10 1 28.991918 -76.643006 71.095106
9675 10 1 28.136720 -76.128363 71.033640
9676 10 1 27.688088 -75.236045 71.083638
9677 10 1 26.748296 -75.213865 71.424663
9678 10 1 27.136694 -74.321433 71.195073
9679 10 1 26.400629 -73.925325 71.743987
9680 10 1 26.520764 -73.689444 70.779660
9681 10 1 26.111754 -73.217160 69.998853
9682 10 1 26.292617 -73.971705 69.368020
9683 10 1 26.234764 -74.679354 70.072211
9684 10 1 26.310877 -74.748635 69.077522
9685 10 1 26.062854 -75.647505 68.716250
9686 10 1 25.448725 -75.435702 69.476503
9687 10 1 25.034025 -74.705039 70.018863
9688 10 1 24.810871 -73.847757 70.482835
9689 10 1 23.926131 -73.391566 70.387307
9690 10 1 24.214807 -74.090484 71.041663
9691 10 1 25.028111 -74.475683 71.477734
9692 10 1 25.188110 -74.611238 72.455500
9693 10 1 26.108719 -74.709896 72.833316
9694 10 1 26.059316 -75.485041 72.203467
9695 10 1 26.964553 -75.511643 72.627539
9696 10 1 27.825854 -75.213932 72.215799
9697 10 1 27.303035 -74.799895 72.960939
9698 10 1 28.217740 -74.601188 73.312833
9699 10 1 28.147504 -75.505011 72.890732
9700 10 1 27.831483 -76.447113 72.778588
9701 10 1 27.334838 -77.180009 73.243568
9702 10 1 26.364678 -77.206840 73.484546
9703 10 1 26.580505 -76.251124 73.284481
9704 10 1 27.136631 -76.047037 74.090131
9705 10 1 28.106080 -76.269561 73.986925
9706 10 1 28.512437 -75.356240 73.960089
9707 10 1 28.086232 -75.720361 74.788199
9708 10 1 27.707487 -75.684109 75.712989
9709 10 1 28.075652 -75.622216 76.640688
9710 10 1 28.554451 -76.129593 77.357151
9711 10 1 29.316945 -76.684736 77.024858
9712 10 1 29.996646 -77.093280 77.634037
9713 10 1 30.490451 -76.231493 77.750137
9714 10 1 30.991690 -75.562659 77.201119
9715 10 1 30.153205 -75.179478 76.813672
9716 10 1 29.904168 -74.212857 76.753467
9717 10 1 30.298450 -74.505697 75.882384
9718 10 1 30.390847 -74.339260 74.900670
9719 10 1 29.497597 -74.175278 75.319255
9720 10 1 29.017944 -74.479921 74.496378
9721 10 1 29.871192 -73.965048 74.413470
9722 10 1 30.314015 -73.170463 74.828852
9723 10 1 30.762348 -73.293806 75.714168
9724 10 1 29.821592 -73.622024 75.799323
9725 10 1 29.428115 -73.112591 76.564604
9726 10 1 29.494169 -72.748913 75.635423
9727 10 1 28.584947 -72.979013 75.982365
9728 10 1 28.883568 -72.033053 76.108793
9729 10 1 29.801348 -71.959481 75.718579
9730 10 1 30.498934 -71.429658 76.200929
9731 10 1 29.880714 -71.359464 76.983793
9732 10 1 29.865522 -70.858899 76.118227
9733 10 1 29.804508 -70.382489 75.241124
9734 10 1 30.584869 -70.957753 75.486297
9735 10 1 30.749110 -71.892953 75.172572
9736 10 1 31.518935 -72.498139 75.375354
9737 10 1 31.637422 -73.448743 75.088453
9738 10 1 32.453044 -73.967784 75.344103
9739 10 1 32.661389 -74.614372 74.610267
9740 10 1 32.202712 -73.817752 74.216551
9741 10 1 31.232056 -73.671615 74.407523
9742 10 1 31.435002 -74.569941 74.017877
9743 10 1 31.412868 -74.105344 73.132631
9744 10 1 31.296214 -73.141306 72.893839
9745 10 1 30.975591 -72.928563 71.970832
9746 10 1 31.029116 -72.091046 72.514615
9747 10 1 30.493079 -71.465789 71.947413
9748 10 1 29.702286 -71.491172 71.335856
9749 10 1 29.789866 -71.134285 72.265889
9750 10 1 29.049376 -71.570143 72.777458
9751 10 1 28.595621 -70.804184 73.232885
9752 10 1 27.796866 -71.404728 73.269466
9753 10 1 27.188164 -71.720974 72.541819
9754 10 1 26.848249 -70.828157 72.837346
9755 10 1 26.553204 -71.098903 71.921024
9756 10 1 26.092815 -70.354455 72.404593
9757 10 1 25.398091 -69.687215 72.135988
9758 10 1 24.655564 -69.086047 71.840607
9759 10 1 23.963700 -69.797582 71.717962
9760 10 1 24.650851 -70.077212 72.388507
9761 10 1 25.241982 -70.882033 72.335339
9762 10 1 24.703031 -71.393369 71.665960
9763 10 1 24.427779 -71.511067 72.620100
9764 10 1 24.031283 -72.397805 72.382429
9765 10 1 23.114072 -72.486071 71.993930
9766 10 1 23.175730 -71.488824 71.952741
9767 10 1 22.587310 -71.118756 71.233845
9768 10 1 22.428034 -71.211072 70.250936
9769 10 1 23.423761 -71.241583 70.338094
9770 10 1 23.323760 -70.294785 70.643989
9771 10 1 22.859683 -69.939288 71.455318
9772 10 1 21.980359 -69.900091 71.929927
9773 10 1 22.876012 -70.165041 72.287148
9774 10 1 22.125919 -70.716639 72.651976
9775 10 1 22.515466 -69.837744 72.927287
9776 10 1 22.640820 -70.712480 73.395392
9777 10 1 22.989655 -71.627649 73.193452
9778 10 1 23.015933 -71.706210 74.190014
9779 10 1 22.537470 -72.426714 74.691958
9780 10 1 22.759321 -72.492069 75.664846
9781 10 1 22.451852 -73.387444 75.342720
9782 10 1 21.644278 -73.024170 75.807323
9783 10 1 21.604612 -73.997099 75.579648
9784 10 1 20.903435 -73.856942 76.278724
9785 10 1 21.057548 -74.139081 77.225639
9786 10 1 20.886958 -74.051995 78.207125
9787 10 1 20.744201 -74.233669 79.180066
9788 10 1 20.948262 -73.292887 79.450783
9789 10 1 20.030923 -72.957995 79.666044
9790 10 1 19.451296 -72.385163 79.086478
9791 10 1 19.450849 -72.196790 80.068575
9792 10 1 20.198523 -72.569476 80.618201
9793 10 1 21.161994 -72.454243 80.859956
9794 10 1 21.166593 -72.108295 81.798199
9795 10 1 21.857963 -72.828771 81.744156
9796 10 1 21.857170 -72.088239 82.416176
9797 10 1 21.566273 -71.308057 81.862375
9798 10 1 21.058531 -70.502310 82.167287
9799 10 1 20.745153 -71.450927 82.211101
9800 10 1 20.501056 -71.814277 83.110208
9801 10 1 19.725437 -72.302279 82.709872
9802 10 1 19.352284 -72.720918 83.537820
9803 10 1 20.150031 -72.859899 84.124577
9804 10 1 20.942702 -72.636073 84.691652
9805 10 1 20.460812 -73.485605 84.906304
9806 10 1 20.796986 -74.139415 85.584183
9807 10 1 21.582193 -73.554264 85.381577
9808 10 1 22.200643 -74.334381 85.287035
9809 10 1 22.652173 -74.669253 86.114066
9810 10 1 21.819864 -75.214956 86.211378
9811 10 1 21.039355 -75.255290 86.835221
9812 10 1 20.191868 -75.459925 86.345437
9813 10 1 19.245015 -75.780867 86.323844
9814 10 1 19.632441 -75.205343 87.044033
9815 10 1 19.126431 -74.558516 86.473447
9816 10 1 18.821541 -73.803512 85.892920
9817 10 1 19.771912 -73.927839 86.178116
9818 10 1 19.751089 -74.049969 87.170412
9819 10 1 19.055759 -73.682527 87.788070
9820 10 1 18.069829 -73.846098 87.822518
9821 10 1 18.504598 -72.953391 87.703988
9822 10 1 18.793543 -71.999124 87.627276
9823 10 1 18.450634 -72.242298 88.534624
9824 10 1 18.118363 -73.034765 89.046083
9825 10 1 18.219743 -73.977494 88.728303
9826 10 1 18.280028 -74.972619 88.650257
9827 10 1 18.630861 -75.805045 88.221324
9828 10 1 17.770442 -76.124428 88.618406
9829 10 1 18.254727 -76.957204 88.350169
9830 10 1 17.802590 -77.091946 89.231881
9831 10 1 17.212362 -77.166108 90.035704
9832 10 1 16.491112 -77.797275 90.321055
9833 10 1 15.879398 -77.091853 89.963024
9834 10 1 15.262452 -76.939352 89.190935
9835 10 1 15.215084 -77.653061 89.889774
9836 10 1 14.555794 -78.403324 89.840354
9837 10 1 14.708885 -78.631793 90.801793
9838 10 1 13.934543 -79.054048 91.273062
9839 10 1 13.829305 -78.326750 91.951268
9840 10 1 13.067664 -78.664980 92.503992
9841 10 1 12.797341 -78.343408 91.596514
9842 10 1 12.225355 -79.163533 91.581447
9843 10 1 11.703582 -78.335267 91.785722
9844 10 1 10.818731 -77.963126 92.065990
9845 10 1 10.665628 -78.387318 91.173454
9846 10 1 10.939674 -77.437759 91.021018
9847 10 1 10.961511 -77.783454 90.082926
9848 10 1 10.749912 -78.755859 89.984668
9849 10 1 10.533238 -78.222402 89.167065
9850 10 1 11.014331 -77.827825 88.384212
9851 10 1 10.207878 -77.425990 88.817989
9852 10 1 10.780491 -76.705216 88.427348
9853 10 1 11.453308 -77.015579 89.098907
9854 10 1 10.712740 -76.388333 89.339991
9855 10 1 10.726206 -75.482618 89.763663
9856 10 1 10.733845 -75.320537 90.750411
9857 10 1 11.333961 -75.991192 90.314426
9858 10 1 12.322058 -75.844168 90.269167
9859 10 1 12.750674 -75.451207 89.455613
9860 10 1 13.197435 -75.876901 90.242499
9861 10 1 13.255599 -75.986109 91.234815
9862 10 1 12.385035 -75.494639 91.258805
9863 10 1 12.888054 -74.977821 90.566078
9864 10 1 12.543407 -74.189530 91.075799
9865 10 1 12.617104 -73.580433 90.286135
9866 10 1 12.084306 -72.734316 90.300709
9867 10 1 12.667385 -72.835916 91.106746
9868 10 1 12.525021 -72.949893 92.089977
9869 10 1 11.695725 -72.624596 91.635608
9870 10 1 11.741379 -71.866917 90.984580
9871 10 1 10.900639 -72.009106 90.462144
9872 10 1 9.919488 -71.999044 90.269164
9873 10 1 9.635068 -72.024562 89.310804
9874 10 1 10.104874 -72.905605 89.366002
9875 10 1 10.047897 -73.774518 88.874328
9876 10 1 9.823846 -74.335223 88.077202
9877 10 1 8.934516 -73.900826 87.934404
9878 10 1 8.495396 -73.115279 87.498410
9879 10 1 8.042365 -72.368681 87.985600
9880 10 1 7.767046 -73.309187 88.184717
9881 10 1 6.999870 -73.126956 88.799723
9882 10 1 7.550012 -73.564030 89.511278
9883 10 1 6.726271 -72.999597 89.564825
9884 10 1 7.082365 -72.461280 90.328638
9885 10 1 8.078973 -72.459147 90.246361
9886 10 1 7.571441 -72.022416 90.989112
9887 10 1 7.723913 -72.872758 91.492769
9888 10 1 7.014068 -72.308120 91.913845
9889 10 1 6.188183 -72.825865 91.690567
9890 10 1 5.474212 -72.723045 92.383152
9891 10 1 6.121947 -71.966406 92.472233
9892 10 1 5.764701 -71.400477 91.729199
9893 10 1 5.534353 -70.926615 92.579136
9894 10 1 4.750454 -70.661500 92.017695
9895 10 1 4.904351 -71.131581 91.148592
9896 10 1 4.815911 -71.497701 92.074947
9897 10 1 3.946904 -71.876912 91.757102
9898 10 1 3.212795 -72.007770 92.423406
9899 10 1 2.498380 -71.744071 91.775275
9900 10 1 2.613291 -72.735488 91.837635
9901 10 1 1.860380 -72.182888 91.480201
9902 10 1 0.991437 -71.859633 91.854959
9903 10 1 1.264139 -72.790040 91.610058
9904 10 1 1.208733 -73.787853 91.646116
9905 10 1 0.237629 -74.026393 91.638749
9906 10 1 -0.497715 -74.524770 92.097976
9907 10 1 0.101144 -75.164981 92.579119
9908 10 1 -0.876321 -75.303064 92.738792
9909 10 1 -1.815443 -75.100189 92.461498
9910 10 1 -1.952109 -75.984427 92.908091
9911 10 1 -2.389175 -76.224498 93.774889
9912 10 1 -1.607385 -75.902124 94.308632
9913 10 1 -0.903904 -75.421926 93.784682
9914 10 1 -0.420192 -76.199957 93.383820
9915 10 1 -0.009103 -76.916211 92.819917
9916 10 1 0.950219 -76.720428 93.023315
9917 10 1 0.490040 -76.466179 92.172672
9918 10 1 -0.497781 -76.403708 92.315178
9919 10 1 -1.438887 -76.590081 92.033072
9920 10 1 -1.856401 -75.743850 91.702051
9921 10 1 -2.773695 -75.363011 91.818384
9922 10 1 -2.909452 -74.533030 92.359403
9923 10 1 -2.620912 -74.224667 93.265856
9924 10 1 -3.133794 -74.195518 94.123820
9925 10 1 -3.738374 -74.711218 93.516748
9926 10 1 -3.455673 -75.296959 94.276345
9927 10 1 -4.387503 -75.527602 94.556518
9928 10 1 -5.075936 -75.744265 95.248701
9929 10 1 -5.406147 -75.510897 96.163304
9930 10 1 -6.251272 -75.968741 96.439246
9931 10 1 -5.485757 -75.821148 97.065507
9932 10 1 -4.748882 -76.411989 97.394024
9933 10 1 -5.574228 -76.854461 97.043278
9934 10 1 -5.919241 -77.302562 97.868003
9935 10 1 -6.103239 -77.230820 98.848308
9936 10 1 -6.986760 -77.288385 99.313149
9937 10 1 -7.236260 -77.196453 98.349148
9938 10 1 -7.908935 -77.936380 98.345063
9939 10 1 -8.207975 -77.220583 98.976102
9940 10 1 -8.464706 -76.285059 99.218762
9941 10 1 -9.098933 -76.209451 99.988203
9942 10 1 -8.552559 -75.373589 99.935205
9943 10 1 -8.639495 -75.161538 98.961821
9944 10 1 -8.553667 -75.027708 97.974540
9945 10 1 -8.003534 -75.720341 97.508050
9946 10 1 -7.830651 -74.739129 97.593690
9947 10 1 -8.217246 -73.842863 97.376320
9948 10 1 -7.930091 -72.953421 97.731898
9949 10 1 -8.267206 -72.633285 96.846535
9950 10 1 -8.581781 -73.388225 96.271115
9951 10 1 -9.383028 -73.553504 95.696061
9952 10 1 -8.828707 -74.376028 95.823273
9953 10 1 -8.885228 -75.193944 96.395828
9954 10 1 -9.584930 -75.761084 96.830304
9955 10 1 -10.289426 -75.717081 97.538647
9956 10 1 -10.769505 -76.037458 98.355276
9957 10 1 -9.789485 -75.839865 98.332497
9958 10 1 -10.535856 -75.219111 98.572488
9959 10 1 -11.220110 -75.130317 97.848670
9960 10 1 -11.397325 -76.091759 97.638375
9961 10 1 -11.666025 -75.772147 96.729723
9962 10 1 -12.346594 -75.504438 96.047698
9963 10 1 -12.974372 -76.124313 96.518495
9964 10 1 -12.870670 -76.954909 97.065629
9965 10 1 -13.702360 -76.969311 97.620683
9966 10 1 -13.262883 -77.867166 97.647468
9967 10 1 -13.529898 -78.271962 96.772915
9968 10 1 -14.117693 -78.244956 97.581474
9969 10 1 -14.426652 -77.563068 96.918471
9970 10 1 -15.184822 -78.128150 96.593110
9971 10 1 -14.323321 -78.287629 96.111049
9972 10 1 -14.371922 -79.264163 95.901238
9973 10 1 -14.837100 -78.476231 95.497786
9974 10 1 -14.013107 -77.943653 95.304402
9975 10 1 -14.359054 -77.950653 94.366174
9976 10 1 -15.137082 -78.550786 94.180395
9977 10 1 -15.917450 -78.174185 93.681200
9978 10 1 -15.755602 -77.780016 94.585874
9979 10 1 -16.694537 -77.991226 94.314228
9980 10 1 -16.984559 -78.894687 94.629895
9981 10 1 -16.044736 -79.212344 94.504094
9982 10 1 -16.045248 -80.192908 94.307892
9983 10 1 -16.206206 -81.172084 94.184169
9984 10 1 -15.524734 -81.863331 94.424531
9985 10 1 -15.383943 -80.907691 94.165821
9986 10 1 -14.576575 -80.951992 94.754204
9987 10 1 -14.538911 -81.162261 93.777286
9988 10 1 -13.829233 -81.858921 93.882273
9989 10 1 -12.880621 -81.566127 94.002302
9990 10 1 -12.606262 -81.806804 93.071280
9991 10 1 -13.185340 -82.229471 92.374128
9992 10 1 -13.726078 -82.238119 91.532981
9993 10 1 -14.248160 -81.508387 91.974480
9994 10 1 -14.610420 -82.222693 92.573257
9995 10 1 -13.826115 -82.805487 92.360615
9996 10 1 -14.786278 -82.851713 92.085024
9997 10 1 -15.377651 -83.652850 91.993052
9998 10 1 -14.431288 -83.750901 91.685183
9999 10 1 -13.715517 -84.249600 92.174029
10000 10 1 -13.717352 -84.097141 93.162337
10001 11 1 37.088067 -82.829595 -30.446275
10002 11 1 37.608167 -83.670821 -30.594039
10003 11 1 38.530456 -83.961665 -30.339495
10004 11 1 38.445222 -83.112290 -29.818633
10005 11 1 38.272480 -83.644097 -28.989573
10006 11 1 38.327325 -82.669413 -28.772818
10007 11 1 38.278463 -82.227190 -27.877244
10008 11 1 38.353487 -81.476808 -27.220512
10009 11 1 38.102192 -80.697770 -26.646098
10010 11 1 37.625943 -79.892360 -26.293250
10011 11 1 37.336786 -78.995792 -26.628738
10012 11 1 36.809944 -79.392760 -25.877171
10013 11 1 37.438483 -79.685420 -25.156554
10014 11 1 38.259358 -80.250466 -25.239542
10015 11 1 37.713422 -80.938523 -25.717591
10016 11 1 36.791497 -80.563011 -25.622485
10017 11 1 36.789411 -80.647500 -24.626063
10018 11 1 36.045256 -81.291069 -24.805097
10019 11 1 35.160890 -81.731910 -24.958574
10020 11 1 34.641195 -82.058091 -24.168939
10021 11 1 34.178989 -81.360722 -23.621177
10022 11 1 35.032166 -80.839714 -23.646480
10023 11 1 34.368372 -80.565022 -22.950835
10024 11 1 34.337390 -80.460620 -23.944887
10025 11 1 33.851303 -79.720278 -24.409229
10026 11 1 33.398098 -80.401608 -24.984030
10027 11 1 33.693322 -80.744503 -25.875806
10028 11 1 32.973035 -80.325536 -26.428666
10029 11 1 33.047346 -79.967450 -27.359392
10030 11 1 32.436911 -80.075937 -28.143994
10031 11 1 31.878818 -79.427363 -28.661568
10032 11 1 31.993618 -80.406284 -28.830491
10033 11 1 32.188345 -81.372147 -29.001341
10034 11 1 32.960346 -81.516977 -28.382440
10035 11 1 32.153834 -81.339573 -27.818466
10036 11 1 32.836123 -82.070655 -27.817654
10037 11 1 32.211679 -82.480387 -27.152680
10038 11 1 32.072013 -83.463654 -27.269633
10039 11 1 31.391354 -84.194202 -27.324439
10040 11 1 30.400698 -84.330400 -27.331551
10041 11 1 30.036444 -83.927773 -28.171319
10042 11 1 30.479924 -84.644729 -28.709185
10043 11 1 30.921275 -85.098329 -27.934939
10044 11 1 31.588962 -84.372593 -28.100771
10045 11 1 31.341123 -83.901892 -28.947539
10046 11 1 31.083588 -83.438970 -28.099377
10047 11 1 30.954845 -83.142113 -29.045580
10048 11 1 29.988838 -83.240176 -29.284776
10049 11 1 29.613648 -83.300419 -30.209765
10050 11 1 28.809372 -83.371912 -30.799703
10051 11 1 29.564596 -82.716543 -30.811010
10052 11 1 29.982334 -83.117952 -31.626097
10053 11 1 29.719115 -83.242486 -32.582762
10054 11 1 29.675004 -82.808264 -33.482487
10055 11 1 30.157103 -83.683739 -33.516034
10056 11 1 30.874519 -84.211597 -33.970653
10057 11 1 30.069987 -84.700598 -34.307707
10058 11 1 30.065050 -85.665274 -34.571097
10059 11 1 29.997648 -86.108518 -33.677234
10060 11 1 29.453044 -85.531639 -33.068451
10061 11 1 29.913831 -84.776772 -32.601705
10062 11 1 29.187475 -84.167552 -32.919914
10063 11 1 28.765874 -84.031030 -32.023468
10064 11 1 28.482812 -84.659091 -31.298612
10065 11 1 28.283922 -84.671140 -32.278560
10066 11 1 27.765510 -83.822378 -32.174388
10067 11 1 27.508929 -84.686488 -31.741399
10068 11 1 27.332241 -84.025095 -31.012469
10069 11 1 26.453471 -83.895348 -31.471739
10070 11 1 25.606104 -83.597301 -31.032264
10071 11 1 24.683236 -83.841211 -30.734233
10072 11 1 24.231111 -84.188168 -29.912525
10073 11 1 23.761873 -84.829894 -30.519159
10074 11 1 22.790922 -85.055106 -30.599983
10075 11 1 22.734156 -85.932238 -31.076865
10076 11 1 23.718953 -85.760215 -31.101027
10077 11 1 24.350722 -86.133353 -30.421589
10078 11 1 25.241434 -85.821705 -30.090669
10079 11 1 25.711285 -85.865048 -29.208989
10080 11 1 24.967231 -85.706338 -28.559994
10081 11 1 25.462534 -86.073528 -27.772691
10082 11 1 25.599692 -86.497887 -28.667737
10083 11 1 26.462745 -86.146383 -28.304991
10084 11 1 26.267646 -86.562434 -29.193157
10085 11 1 26.116293 -87.000455 -30.079289
10086 11 1 26.417024 -86.046906 -30.096766
10087 11 1 26.483085 -85.194136 -29.578674
10088 11 1 27.430090 -84.935577 -29.388077
10089 11 1 27.420044 -84.610079 -28.442588
10090 11 1 26.516508 -84.206327 -28.586141
10091 11 1 27.365074 -83.677308 -28.577477
10092 11 1 27.569185 -83.289567 -29.476362
10093 11 1 28.126934 -82.459968 -29.502474
10094 11 1 27.464944 -81.936921 -28.965639
10095 11 1 26.786050 -82.544378 -28.553209
10096 11 1 25.927542 -82.826239 -28.124819
10097 11 1 25.451749 -82.382659 -28.884331
10098 11 1 26.202738 -81.729718 -28.982731
10099 11 1 26.651821 -81.043211 -28.410861
10100 11 1 27.208183 -80.478306 -29.020241
10101 11 1 26.389698 -80.741814 -29.530776
10102 11 1 27.103669 -81.250822 -30.011563
10103 11 1 26.221345 -81.712970 -29.922551
10104 11 1 26.656401 -81.745849 -30.822354
10105 11 1 26.791281 -82.557629 -30.254181
10106 11 1 26.992773 -83.216033 -30.979375
10107 11 1 27.861327 -83.357403 -30.504371
10108 11 1 28.324851 -83.593960 -29.650447
10109 11 1 28.662012 -83.627686 -28.709604
10110 11 1 28.929983 -84.378980 -28.106488
10111 11 1 28.322880 -83.604993 -27.926571
10112 11 1 28.474697 -82.653418 -28.193887
10113 11 1 28.778063 -82.579305 -27.243899
10114 11 1 29.750891 -82.566514 -27.012722
10115 11 1 29.433185 -82.003057 -26.250108
10116 11 1 28.483705 -82.030502 -25.937483
10117 11 1 28.037317 -81.753563 -26.788390
10118 11 1 28.490706 -81.108345 -27.403315
10119 11 1 27.497726 -81.080194 -27.288433
10120 11 1 27.245983 -80.175474 -27.632100
10121 11 1 27.085896 -80.285046 -26.651097
10122 11 1 27.983515 -79.906644 -26.877134
10123 11 1 27.196020 -79.294835 -26.951572
10124 11 1 26.501074 -78.843939 -26.391445
10125 11 1 26.227716 -78.235505 -27.136484
10126 11 1 26.841322 -77.686418 -26.569042
10127 11 1 27.761310 -77.942927 -26.865397
10128 11 1 27.878183 -78.566806 -27.638129
10129 11 1 28.484591 -79.321899 -27.388919
10130 11 1 28.598155 -79.359636 -26.396106
10131 11 1 28.091965 -78.632285 -25.932713
10132 11 1 28.651037 -77.848115 -25.663426
10133 11 1 29.177388 -78.633365 -25.989521
10134 11 1 28.551393 -79.189009 -25.442355
10135 11 1 27.977992 -78.682924 -24.798081
10136 11 1 27.125616 -78.266355 -24.481972
10137 11 1 26.904998 -78.462311 -23.526499
10138 11 1 27.517584 -78.766942 -22.797159
10139 11 1 27.865278 -78.592275 -21.875964
10140 11 1 28.255142 -77.680611 -21.746056
10141 11 1 28.913029 -76.939257 -21.878640
10142 11 1 29.553543 -77.301311 -21.201396
10143 11 1 29.070794 -78.172276 -21.292901
10144 11 1 29.116341 -78.878670 -20.586549
10145 11 1 29.605349 -79.611405 -20.113294
10146 11 1 29.750531 -78.622352 -20.086915
10147 11 1 29.005229 -77.966061 -20.204420
10148 11 1 28.283636 -78.609250 -20.460570
10149 11 1 27.284673 -78.576696 -20.492376
10150 11 1 27.667488 -77.792634 -20.980945
10151 11 1 28.194127 -77.046788 -20.573066
10152 11 1 28.050556 -76.218348 -21.114430
10153 11 1 28.036425 -75.239990 -21.320868
10154 11 1 28.650755 -75.497351 -20.574971
10155 11 1 29.540870 -75.378247 -21.014869
10156 11 1 29.541575 -74.486540 -20.562257
10157 11 1 29.891558 -75.269671 -20.048235
10158 11 1 29.419082 -75.764258 -19.318749
10159 11 1 30.129218 -76.289377 -18.849753
10160 11 1 30.615395 -75.757529 -19.543129
10161 11 1 30.177417 -76.656320 -19.561846
10162 11 1 30.095524 -77.391353 -18.888778
10163 11 1 30.859515 -78.018310 -19.041236
10164 11 1 31.747788 -77.789806 -19.439680
10165 11 1 31.222401 -78.293848 -20.125180
10166 11 1 31.698447 -78.219619 -21.001461
10167 11 1 32.212637 -78.805823 -20.375384
10168 11 1 33.164565 -78.520371 -20.486510
10169 11 1 33.562066 -78.513974 -21.404090
10170 11 1 33.968517 -79.150306 -22.059741
10171 11 1 34.499304 -79.578644 -21.328446
10172 11 1 34.777261 -79.636188 -20.369577
10173 11 1 34.995079 -78.690141 -20.129681
10174 11 1 35.127702 -77.758562 -20.468165
10175 11 1 35.356230 -77.263749 -21.306577
10176 11 1 35.896470 -78.087396 -21.479051
10177 11 1 35.068007 -78.471789 -21.886347
10178 11 1 35.093388 -78.120276 -22.822185
10179 11 1 35.569594 -77.532126 -23.475874
10180 11 1 36.110547 -78.237360 -23.934146
10181 11 1 36.566602 -77.818568 -23.148890
10182 11 1 37.559260 -77.937318 -23.125911
10183 11 1 37.193217 -78.845562 -22.923167
10184 11 1 37.525827 -78.766630 -23.862922
10185 11 1 37.796541 -79.496366 -23.235069
10186 11 1 38.710397 -79.206227 -23.519124
10187 11 1 38.331248 -79.980051 -24.026513
10188 11 1 39.235603 -80.397256 -23.936618
10189 11 1 38.780909 -80.289909 -23.052463
10190 11 1 39.019122 -80.595282 -22.130508
10191 11 1 38.060646 -80.853774 -22.010067
10192 11 1 37.440549 -80.099215 -21.795311
10193 11 1 38.080970 -80.274345 -21.047521
10194 11 1 37.114970 -80.163538 -20.813928
10195 11 1 37.438353 -80.882369 -21.429319
10196 11 1 36.612993 -81.136782 -21.933359
10197 11 1 37.141184 -81.796506 -22.467941
10198 11 1 37.198196 -81.023967 -23.100345
10199 11 1 37.230414 -81.522862 -23.966408
10200 11 1 38.196047 -81.325538 -23.797247
10201 11 1 38.291653 -80.644827 -24.523534
10202 11 1 39.021206 -81.209822 -24.138133
10203 11 1 38.802353 -81.516491 -23.211819
10204 11 1 38.343648 -82.185253 -22.626714
10205 11 1 39.308279 -82.446390 -22.590735
10206 11 1 39.614445 -81.760224 -21.930857
10207 11 1 40.017294 -81.801799 -21.016535
10208 11 1 40.720467 -82.005413 -20.335295
10209 11 1 40.269817 -82.879347 -20.517377
10210 11 1 41.077669 -83.435639 -20.712095
10211 11 1 41.982030 -83.684375 -21.058881
10212 11 1 42.346111 -84.374030 -20.432924
10213 11 1 42.877837 -83.585792 -20.742681
10214 11 1 42.879089 -82.602591 -20.560157
10215 11 1 43.616212 -83.233004 -20.316786
10216 11 1 44.562490 -83.031049 -20.569319
10217 11 1 45.548149 -82.882133 -20.489937
10218 11 1 45.671710 -82.850717 -19.498098
10219 11 1 45.264423 -81.990857 -19.805928
10220 11 1 44.273603 -82.008096 -19.940013
10221 11 1 43.459103 -81.760717 -19.415235
10222 11 1 43.577361 -82.443570 -18.694315
10223 11 1 42.665877 -82.842387 -18.593601
10224 11 1 43.153199 -82.522884 -17.780929
10225 11 1 43.502416 -82.063947 -16.963969
10226 11 1 44.460721 -82.319561 -17.091685
10227 11 1 44.063311 -81.466453 -16.753644
10228 11 1 44.191270 -81.082428 -17.668057
10229 11 1 45.158361 -81.267339 -17.842824
10230 11 1 45.948199 -81.046385 -17.270691
10231 11 1 46.422551 -81.598961 -16.585381
10232 11 1 46.151437 -81.431934 -15.637436
10233 11 1 46.977079 -81.687910 -15.134653
10234 11 1 47.691812 -82.269046 -14.745502
10235 11 1 48.691543 -82.255324 -14.726837
10236 11 1 48.060901 -82.979171 -15.006723
10237 11 1 48.680228 -82.908131 -14.224811
10238 11 1 49.270837 -82.125204 -14.029345
10239 11 1 49.604203 -82.988351 -13.650075
10240 11 1 49.439013 -82.248803 -12.997556
10241 11 1 50.436700 -82.316775 -12.997036
10242 11 1 51.288226 -81.792535 -13.005713
10243 11 1 51.889530 -81.086607 -12.631415
10244 11 1 51.086513 -81.005905 -13.221882
10245 11 1 51.013496 -80.123065 -12.757919
10246 11 1 51.893118 -80.324649 -13.188766
10247 11 1 52.297181 -80.618485 -14.055018
10248 11 1 53.125374 -80.943450 -14.511630
10249 11 1 52.651783 -81.599711 -13.924235
10250 11 1 52.438501 -82.491014 -14.324347
10251 11 1 52.574989 -83.107374 -15.099893
10252 11 1 53.009001 -82.214517 -14.979725
10253 11 1 52.885765 -81.395292 -15.539800
10254 11 1 53.567304 -80.670397 -15.439648
10255 11 1 53.317127 -80.532412 -16.397966
10256 11 1 52.826148 -81.401071 -16.464086
10257 11 1 53.822344 -81.370211 -16.545578
10258 11 1 54.190664 -82.177847 -16.085075
10259 11 1 54.820019 -82.733369 -16.628496
10260 11 1 54.638588 -81.749989 -16.635273
10261 11 1 55.160095 -81.159597 -17.251283
10262 11 1 56.028762 -81.221158 -16.759725
10263 11 1 56.500915 -81.809484 -16.103262
10264 11 1 56.561760 -81.008443 -15.507754
10265 11 1 57.418037 -81.399027 -15.845739
10266 11 1 58.113882 -81.438113 -16.562866
10267 11 1 58.576455 -80.703775 -17.059629
10268 11 1 59.050284 -81.326510 -17.682275
10269 11 1 59.648975 -82.122120 -17.774875
10270 11 1 60.310448 -82.285889 -18.506745
10271 11 1 60.161312 -81.339361 -18.792826
10272 11 1 60.841361 -82.008591 -19.092266
10273 11 1 59.874725 -82.075832 -19.339441
10274 11 1 59.689908 -81.549915 -20.169654
10275 11 1 60.236132 -80.890760 -19.652785
10276 11 1 61.096166 -80.967812 -19.148400
10277 11 1 61.467748 -80.095162 -19.465275
10278 11 1 60.544296 -79.934585 -19.813775
10279 11 1 59.898706 -79.217313 -19.551604
10280 11 1 58.919890 -79.174705 -19.351343
10281 11 1 59.080912 -80.139040 -19.561412
10282 11 1 59.667753 -80.503370 -20.284518
10283 11 1 60.523980 -80.971737 -20.502476
10284 11 1 61.019492 -80.444547 -21.192794
10285 11 1 61.391590 -80.338281 -22.114885
10286 11 1 61.793432 -79.957902 -21.281917
10287 11 1 62.501828 -80.411775 -20.741385
10288 11 1 63.137192 -80.479598 -19.972157
10289 11 1 63.832492 -80.597445 -19.263165
10290 11 1 64.748072 -80.995026 -19.202813
10291 11 1 64.819819 -80.283285 -19.901581
10292 11 1 65.465748 -80.880409 -20.377205
10293 11 1 64.667902 -81.206591 -20.884204
10294 11 1 63.697816 -81.062477 -21.079557
10295 11 1 63.725164 -82.059112 -21.156830
10296 11 1 63.336435 -81.417552 -21.818110
10297 11 1 63.727934 -81.187303 -22.709015
10298 11 1 64.434588 -80.713731 -22.183305
10299 11 1 65.168382 -81.363846 -22.380529
10300 11 1 65.566292 -80.615814 -21.849383
10301 11 1 65.054595 -80.022939 -22.471208
10302 11 1 65.401890 -79.119913 -22.724051
10303 11 1 66.291119 -79.182193 -22.270850
10304 11 1 66.649632 -78.977945 -23.181757
10305 11 1 67.114680 -78.868719 -24.060278
10306 11 1 66.221843 -78.699377 -24.477609
10307 11 1 65.592208 -79.461498 -24.628377
10308 11 1 65.258642 -79.942592 -23.817648
10309 11 1 64.718379 -80.662927 -24.252658
10310 11 1 65.316446 -80.173351 -24.887191
10311 11 1 64.415216 -80.356889 -25.279745
10312 11 1 64.297214 -81.334719 -25.452732
10313 11 1 64.334484 -81.173010 -26.438866
10314 11 1 63.720166 -80.787248 -25.750534
10315 11 1 63.435858 -80.558631 -26.681611
10316 11 1 63.318876 -80.087143 -25.807531
10317 11 1 63.735733 -79.814841 -24.940305
10318 11 1 63.617904 -80.786482 -24.735294
10319 11 1 62.846509 -80.785991 -25.371649
10320 11 1 62.547946 -80.884747 -26.320916
10321 11 1 61.665037 -80.727121 -26.763211
10322 11 1 62.412526 -80.767459 -27.426259
10323 11 1 62.618659 -81.169068 -28.318570
10324 11 1 62.768387 -80.218513 -28.590649
10325 11 1 61.971707 -80.469500 -29.140471
10326 11 1 62.330266 -81.385519 -29.320318
10327 11 1 62.187877 -82.351934 -29.106381
10328 11 1 61.478417 -82.695312 -28.490948
10329 11 1 60.525321 -82.661448 -28.190181
10330 11 1 60.746842 -83.382847 -27.534046
10331 11 1 60.213510 -82.546516 -27.407134
10332 11 1 61.144215 -82.308576 -27.129336
10333 11 1 61.368475 -81.595823 -27.793935
10334 11 1 62.275985 -81.866926 -28.114760
10335 11 1 63.160372 -81.965524 -27.658538
10336 11 1 63.223361 -82.943658 -27.856747
10337 11 1 63.608332 -83.335563 -28.692336
10338 11 1 63.680115 -83.834654 -27.828765
10339 11 1 63.924656 -84.030703 -26.879152
10340 11 1 62.966400 -84.206663 -27.104503
10341 11 1 62.750944 -83.809012 -27.996384
10342 11 1 62.202108 -84.420153 -28.566722
10343 11 1 63.193213 -84.287216 -28.560490
10344 11 1 62.863858 -85.090739 -28.064631
10345 11 1 62.211898 -84.714573 -27.406264
10346 11 1 61.760196 -84.422262 -26.563341
10347 11 1 60.857031 -84.374423 -26.989960
10348 11 1 60.086918 -84.753759 -26.477095
10349 11 1 59.362646 -84.258137 -25.997731
10350 11 1 58.562569 -84.844312 -25.870151
10351 11 1 57.608437 -85.093356 -25.703992
10352 11 1 57.130983 -85.777198 -25.152269
10353 11 1 57.890252 -85.595533 -24.527362
10354 11 1 58.660175 -85.017893 -24.798564
10355 11 1 59.447063 -85.628504 -24.887787
10356 11 1 60.381623 -85.822886 -25.185803
10357 11 1 60.069578 -86.518352 -25.833070
10358 11 1 60.004033 -85.581374 -26.176255
10359 11 1 59.073835 -85.931129 -26.287623
10360 11 1 58.318433 -85.729433 -25.664176
10361 11 1 58.521026 -86.708515 -25.645355
10362 11 1 58.551660 -86.741842 -26.644330
10363 11 1 57.662457 -86.574177 -27.070014
10364 11 1 57.122163 -85.912673 -26.549923
10365 11 1 56.413879 -86.111960 -25.872709
10366 11 1 56.342748 -85.114493 -25.872041
10367 11 1 56.384576 -85.167848 -26.869740
10368 11 1 55.570998 -85.040487 -26.302404
10369 11 1 55.965195 -84.209631 -26.695197
10370 11 1 55.942040 -83.210586 -26.732262
10371 11 1 56.608032 -82.940303 -27.427532
10372 11 1 56.161292 -83.381529 -28.205828
10373 11 1 55.627942 -82.649669 -27.781658
10374 11 1 55.246416 -82.897550 -28.672159
10375 11 1 54.698313 -83.314409 -27.947029
10376 11 1 54.359606 -82.379341 -28.051550
10377 11 1 54.654640 -82.127348 -28.973209
10378 11 1 54.194871 -82.587464 -29.732752
10379 11 1 54.437936 -83.283135 -29.056763
10380 11 1 53.615195 -83.106141 -28.516604
10381 11 1 52.896626 -82.541838 -28.923077
10382 11 1 52.829506 -82.119393 -28.019178
10383 11 1 53.258549 -81.297560 -27.644327
10384 11 1 54.002084 -80.637323 -27.750360
10385 11 1 53.216471 -80.061200 -27.524764
10386 11 1 53.592312 -79.445789 -28.217595
10387 11 1 53.313824 -78.511582 -27.994659
10388 11 1 52.652940 -78.050382 -28.586712
10389 11 1 52.503621 -77.148007 -28.182456
10390 11 1 52.868855 -77.322767 -27.268091
10391 11 1 52.298852 -77.385312 -26.448833
10392 11 1 51.325423 -77.169610 -26.525703
10393 11 1 51.406429 -76.954116 -25.552564
10394 11 1 51.523097 -76.014490 -25.874266
10395 11 1 51.249333 -75.893314 -26.828399
10396 11 1 50.509023 -75.608151 -26.219611
10397 11 1 49.926095 -76.398449 -26.408351
10398 11 1 49.298533 -75.620018 -26.422890
10399 11 1 48.350180 -75.735606 -26.127479
10400 11 1 48.508101 -76.718385 -26.223423
10401 11 1 49.224389 -77.305080 -25.845638
10402 11 1 48.550260 -77.077181 -25.143062
10403 11 1 49.400392 -76.631749 -24.862233
10404 11 1 49.573009 -77.435876 -24.293390
10405 11 1 50.354673 -77.043799 -24.778443
10406 11 1 50.523829 -76.094935 -25.044980
10407 11 1 49.590208 -75.830447 -24.803323
10408 11 1 49.919631 -76.498958 -24.136559
10409 11 1 50.394311 -75.970517 -23.432692
10410 11 1 49.793761 -75.174167 -23.360813
10411 11 1 49.758730 -74.432335 -24.030483
10412 11 1 50.465502 -75.119993 -23.864353
10413 11 1 51.031936 -75.496163 -23.131108
10414 11 1 51.301520 -76.458936 -23.111304
10415 11 1 52.166943 -76.388417 -23.607359
10416 11 1 51.327989 -76.139128 -24.091106
10417 11 1 52.038617 -76.770518 -24.401515
10418 11 1 52.876415 -76.228403 -24.336656
10419 11 1 52.039518 -75.876169 -24.755625
10420 11 1 51.898590 -74.907468 -24.551276
10421 11 1 52.414264 -74.870055 -23.695309
10422 11 1 53.278568 -75.210250 -24.065776
10423 11 1 53.004370 -74.681360 -24.868951
10424 11 1 52.755377 -73.910543 -25.455333
10425 11 1 52.761530 -73.368145 -26.295432
10426 11 1 52.866327 -72.459987 -26.700730
10427 11 1 53.262100 -72.166507 -27.570921
10428 11 1 53.485140 -73.141184 -27.554854
10429 11 1 53.310904 -74.072668 -27.874196
10430 11 1 52.509167 -74.522446 -27.480600
10431 11 1 53.307633 -74.900111 -27.011750
10432 11 1 54.226130 -75.013584 -27.390546
10433 11 1 54.573590 -74.622355 -28.242726
10434 11 1 54.632748 -75.571738 -28.551224
10435 11 1 54.147632 -76.013572 -29.305841
10436 11 1 53.803666 -75.106088 -29.547005
10437 11 1 53.510547 -74.400493 -28.901857
10438 11 1 52.556735 -74.697464 -28.947153
10439 11 1 52.382207 -74.793532 -29.927107
10440 11 1 51.625872 -74.486973 -30.505015
10441 11 1 52.346171 -73.836414 -30.264302
10442 11 1 51.969231 -73.069539 -29.744862
10443 11 1 51.698076 -72.330222 -29.128513
10444 11 1 51.527608 -71.364597 -28.932278
10445 11 1 51.145033 -70.874524 -29.715518
10446 11 1 51.246236 -71.485876 -30.500379
10447 11 1 51.749438 -70.738125 -30.933572
10448 11 1 51.459745 -69.789790 -31.062948
10449 11 1 51.866477 -68.876556 -31.039002
10450 11 1 52.524517 -68.785768 -31.786492
10451 11 1 52.304077 -67.835978 -31.564443
10452 11 1 52.656955 -67.246522 -30.837794
10453 11 1 51.840402 -66.795042 -31.197524
10454 11 1 51.915735 -65.798942 -31.151594
10455 11 1 51.977743 -65.946075 -30.164423
10456 11 1 52.411225 -66.823975 -29.960988
10457 11 1 51.444994 -66.567496 -29.985824
10458 11 1 50.446883 -66.506667 -29.994501
10459 11 1 50.095196 -66.555350 -30.929352
10460 11 1 50.599367 -67.413953 -30.836549
10461 11 1 50.584140 -68.032936 -30.051292
10462 11 1 50.533732 -68.569810 -30.893447
10463 11 1 49.547707 -68.464781 -30.764131
10464 11 1 48.649298 -68.057559 -30.928547
10465 11 1 48.134199 -68.013755 -31.784557
10466 11 1 47.288593 -68.062134 -32.316167
10467 11 1 48.191800 -67.682543 -32.516485
10468 11 1 48.948266 -67.061071 -32.312689
10469 11 1 48.743777 -67.633605 -33.106660
10470 11 1 48.401967 -68.558559 -32.940447
10471 11 1 48.748906 -69.469969 -33.161728
10472 11 1 48.504572 -70.438016 -33.105286
10473 11 1 48.837740 -71.230251 -32.594049
10474 11 1 49.694196 -70.719452 -32.519424
10475 11 1 50.622297 -70.410852 -32.311109
10476 11 1 50.920800 -70.582134 -31.372196
10477 11 1 50.370866 -69.794990 -31.092954
10478 11 1 50.829193 -69.566688 -31.951915
10479 11 1 51.108261 -69.837696 -32.873151
10480 11 1 50.821263 -68.919168 -33.145068
10481 11 1 50.065275 -69.559467 -33.281081
10482 11 1 49.732542 -68.651046 -33.534184
10483 11 1 48.935357 -68.517921 -34.123060
10484 11 1 48.090129 -68.201844 -33.692148
10485 11 1 47.170097 -68.506402 -33.938694
10486 11 1 47.248882 -69.275122 -34.573408
10487 11 1 48.063638 -69.819917 -34.374984
10488 11 1 48.019453 -69.117236 -35.085116
10489 11 1 47.978951 -70.061718 -35.411173
10490 11 1 48.140330 -70.159126 -36.393246
10491 11 1 49.024878 -70.610816 -36.509655
10492 11 1 49.171933 -69.649639 -36.276174
10493 11 1 49.632106 -68.763468 -36.330414
10494 11 1 48.776768 -68.345702 -36.024034
10495 11 1 48.610709 -67.406263 -36.323831
10496 11 1 48.425475 -67.327407 -35.344305
10497 11 1 47.601611 -66.931483 -35.749883
10498 11 1 48.350298 -66.446537 -35.297894
10499 11 1 48.216559 -66.154421 -34.350908
10500 11 1 49.134969 -65.813739 -34.552051
10501 11 1 48.972407 -65.072895 -33.900342
10502 11 1 48.529191 -64.710044 -34.720037
10503 11 1 48.184202 -63.777577 -34.612855
10504 11 1 48.727246 -62.939362 -34.562864
10505 11 1 48.830073 -62.491895 -33.674495
10506 11 1 48.641104 -62.265889 -32.718873
10507 11 1 49.564836 -61.922918 -32.889430
10508 11 1 49.078836 -61.051333 -32.953799
10509 11 1 49.288520 -61.284043 -32.004126
10510 11 1 49.900664 -60.524114 -31.785520
10511 11 1 48.905626 -60.430274 -31.818578
10512 11 1 48.454067 -59.904370 -31.097801
10513 11 1 48.736152 -58.986504 -30.818605
10514 11 1 48.533547 -58.588266 -31.713232
10515 11 1 48.886188 -57.829798 -32.261292
10516 11 1 48.555630 -57.692560 -33.195046
10517 11 1 47.764920 -57.295870 -32.728769
10518 11 1 47.058816 -57.372383 -33.432731
10519 11 1 46.331633 -56.930243 -33.957818
10520 11 1 46.283959 -56.736366 -32.977951
10521 11 1 46.656046 -56.635308 -32.055271
10522 11 1 46.780220 -55.838774 -31.463566
10523 11 1 46.240792 -56.668914 -31.322552
10524 11 1 46.515216 -56.430664 -30.390925
10525 11 1 46.089467 -55.617567 -30.787926
10526 11 1 45.507355 -55.680406 -31.598603
10527 11 1 44.748352 -55.714578 -30.948413
10528 11 1 45.014718 -55.035691 -31.632636
10529 11 1 45.033772 -54.831374 -30.653917
10530 11 1 45.410695 -53.994938 -30.256042
10531 11 1 44.713588 -53.620995 -30.867767
10532 11 1 43.718376 -53.639173 -30.963807
10533 11 1 43.010570 -53.522749 -31.660553
10534 11 1 42.604793 -54.036588 -32.416406
10535 11 1 43.383272 -53.618775 -32.884809
10536 11 1 43.720081 -53.053201 -32.132024
10537 11 1 43.356134 -52.521104 -32.896494
10538 11 1 42.403778 -52.434568 -33.188951
10539 11 1 42.343994 -51.557876 -32.711627
10540 11 1 43.043282 -51.093870 -33.255405
10541 11 1 43.962401 -51.368970 -32.973374
10542 11 1 44.157530 -51.603659 -33.925659
10543 11 1 44.931832 -50.972781 -33.876183
10544 11 1 44.987528 -50.338431 -34.647221
10545 11 1 44.555313 -49.436665 -34.644645
10546 11 1 43.612068 -49.765621 -34.599063
10547 11 1 43.180783 -50.174932 -35.403089
10548 11 1 43.091971 -49.179867 -35.358836
10549 11 1 42.207905 -49.539724 -35.657048
10550 11 1 41.717600 -49.157321 -34.873870
10551 11 1 41.433334 -48.270475 -35.238145
10552 11 1 41.149816 -48.687279 -34.374495
10553 11 1 41.854515 -49.213658 -33.898758
10554 11 1 42.216348 -50.023675 -34.360222
10555 11 1 41.361944 -50.383604 -34.734981
10556 11 1 40.383352 -50.215853 -34.854220
10557 11 1 40.764646 -49.856975 -35.706171
10558 11 1 40.955484 -49.506142 -34.789385
10559 11 1 40.156353 -49.142298 -35.267931
10560 11 1 39.202475 -48.842141 -35.263281
10561 11 1 39.037171 -47.933013 -35.645591
10562 11 1 38.728538 -47.922086 -36.596709
10563 11 1 37.935318 -47.453897 -36.986071
10564 11 1 37.795066 -47.451772 -35.995957
10565 11 1 37.096291 -48.031054 -36.415656
10566 11 1 36.921415 -47.196476 -35.893259
10567 11 1 36.220414 -46.490561 -35.994657
10568 11 1 36.259254 -46.961317 -35.113249
10569 11 1 35.584684 -46.254283 -35.325518
10570 11 1 34.873529 -46.572092 -34.698417
10571 11 1 34.072587 -46.569305 -34.099682
10572 11 1 34.352131 -47.352095 -33.543720
10573 11 1 35.020152 -46.689691 -33.204651
10574 11 1 34.986947 -47.483520 -32.597417
10575 11 1 35.106127 -48.203631 -33.280964
10576 11 1 35.330692 -49.049991 -32.798009
10577 11 1 36.037553 -48.957883 -32.096679
10578 11 1 35.162649 -49.021378 -31.616563
10579 11 1 35.457818 -48.731940 -30.706013
10580 11 1 35.420819 -48.066491 -29.960488
10581 11 1 34.659150 -48.621612 -29.626271
10582 11 1 35.606792 -48.651932 -29.308377
10583 11 1 35.970752 -49.422102 -29.832182
10584 11 1 36.362272 -50.340950 -29.881470
10585 11 1 36.726944 -50.927995 -30.604238
10586 11 1 35.858707 -51.317563 -30.911486
10587 11 1 36.516799 -51.390461 -31.660886
10588 11 1 36.930550 -50.744162 -32.302063
10589 11 1 37.486072 -51.536268 -32.049149
10590 11 1 36.737521 -51.659515 -32.700671
10591 11 1 37.695655 -51.926804 -32.803309
10592 11 1 37.259796 -52.696916 -32.337525
10593 11 1 37.198513 -52.426696 -31.376679
10594 11 1 36.401730 -52.985308 -31.607089
10595 11 1 35.788445 -52.956536 -32.396427
10596 11 1 35.259733 -52.347538 -31.805170
10597 11 1 34.657837 -53.011406 -32.249016
10598 11 1 34.993841 -53.699172 -32.892506
10599 11 1 35.370369 -53.917718 -33.792764
10600 11 1 35.936344 -53.801817 -34.608999
10601 11 1 36.101046 -52.875897 -34.948918
10602 11 1 36.496663 -52.057219 -35.365156
10603 11 1 36.462136 -52.439920 -36.288383
10604 11 1 37.175923 -52.884999 -36.829134
10605 11 1 37.342716 -53.213878 -37.758661
10606 11 1 37.022196 -52.391663 -38.229011
10607 11 1 37.369130 -53.244518 -38.619233
10608 11 1 36.639604 -53.349800 -39.295035
10609 11 1 36.615319 -53.734916 -40.217584
10610 11 1 36.409568 -52.757227 -40.175274
10611 11 1 35.897095 -51.927353 -40.395914
10612 11 1 35.234387 -51.190762 -40.531011
10613 11 1 35.607126 -50.696298 -39.745791
10614 11 1 36.182315 -50.838964 -38.940307
10615 11 1 36.360012 -51.055791 -39.900208
10616 11 1 37.106180 -51.558062 -39.463221
10617 11 1 37.213539 -50.627025 -39.811999
10618 11 1 36.964654 -49.697460 -39.540034
10619 11 1 37.686586 -49.964310 -38.901595
10620 11 1 38.073170 -50.886399 -38.919091
10621 11 1 37.807874 -50.434672 -38.067292
10622 11 1 37.782633 -51.411066 -37.852774
10623 11 1 38.508276 -51.601517 -38.513963
10624 11 1 38.488444 -52.279396 -37.779057
10625 11 1 38.580170 -51.579885 -37.070346
10626 11 1 39.242474 -50.973399 -36.630428
10627 11 1 39.886727 -51.217260 -37.355321
10628 11 1 40.587962 -51.034451 -36.666227
10629 11 1 40.730823 -52.023472 -36.628441
10630 11 1 40.033811 -52.646102 -36.984117
10631 11 1 39.554937 -53.451550 -37.333306
10632 11 1 40.096996 -54.289544 -37.270554
10633 11 1 41.063580 -54.399717 -37.502019
10634 11 1 40.938933 -55.150904 -36.853807
10635 11 1 41.293943 -56.051284 -37.105370
10636 11 1 41.621567 -55.570993 -36.291747
10637 11 1 42.032439 -55.230366 -35.446077
10638 11 1 41.788047 -55.876148 -34.722725
10639 11 1 41.545862 -56.307423 -35.591833
10640 11 1 42.306760 -56.954749 -35.547072
10641 11 1 42.518437 -56.370454 -34.763623
10642 11 1 42.851354 -57.292898 -34.959233
10643 11 1 43.805092 -57.224964 -34.666369
10644 11 1 44.745805 -57.350648 -34.351310
10645 11 1 44.421259 -56.645471 -33.720918
10646 11 1 43.775885 -56.962945 -33.026150
10647 11 1 44.172992 -56.219979 -32.487347
10648 11 1 43.309761 -55.715519 -32.506113
10649 11 1 43.542614 -56.397619 -31.812918
10650 11 1 44.451201 -56.784733 -31.656032
10651 11 1 45.139366 -56.899443 -30.939603
10652 11 1 45.194364 -56.924266 -29.941425
10653 11 1 46.011454 -57.499151 -29.898169
10654 11 1 45.322644 -58.135848 -29.551531
10655 11 1 45.061747 -58.919668 -28.988008
10656 11 1 44.677633 -58.207662 -28.400213
10657 11 1 45.474695 -57.647071 -28.175648
10658 11 1 46.127662 -56.978764 -28.532019
10659 11 1 46.010778 -56.667517 -27.588906
10660 11 1 45.783066 -57.533002 -27.142720
10661 11 1 45.412539 -58.289231 -27.682004
10662 11 1 46.023265 -58.701770 -27.006116
10663 11 1 46.792486 -59.297598 -26.775272
10664 11 1 46.994841 -58.453456 -26.278807
10665 11 1 47.646124 -59.009916 -25.762879
10666 11 1 47.820030 -59.993888 -25.723435
10667 11 1 47.565812 -59.850350 -24.766999
10668 11 1 47.575596 -60.479402 -23.989698
10669 11 1 47.560371 -59.494294 -23.818437
10670 11 1 48.154583 -60.174167 -23.388688
10671 11 1 47.404886 -59.975152 -22.757540
10672 11 1 47.105492 -60.878128 -22.449324
10673 11 1 47.366947 -60.105648 -21.870604
10674 11 1 47.302166 -59.115519 -21.994890
10675 11 1 48.032325 -58.926817 -22.651594
10676 11 1 48.687915 -59.681550 -22.627508
10677 11 1 48.483838 -60.512170 -22.109413
10678 11 1 49.127417 -61.031939 -21.547589
10679 11 1 48.940096 -61.331090 -20.611950
10680 11 1 48.159185 -61.903041 -20.863047
10681 11 1 48.169381 -62.727034 -20.296539
10682 11 1 48.226490 -61.943043 -19.678400
10683 11 1 47.446370 -61.571805 -20.181983
10684 11 1 47.597560 -60.870490 -19.485350
10685 11 1 46.962680 -61.232241 -18.802661
10686 11 1 46.274797 -61.785283 -18.332597
10687 11 1 46.170574 -60.826446 -18.596734
10688 11 1 46.551924 -60.761552 -19.518885
10689 11 1 46.069093 -61.520454 -19.955855
10690 11 1 45.339018 -61.888668 -20.531536
10691 11 1 44.491941 -62.303046 -20.864331
10692 11 1 44.073510 -61.838303 -21.644670
10693 11 1 44.246120 -61.169878 -20.921197
10694 11 1 43.251547 -61.218207 -21.013333
10695 11 1 43.906274 -61.760050 -20.486323
10696 11 1 43.160904 -62.371952 -20.221749
10697 11 1 42.319909 -62.199998 -19.708759
10698 11 1 41.992603 -62.918138 -19.094637
10699 11 1 42.087667 -62.899221 -20.089929
10700 11 1 42.206446 -63.888262 -20.002242
10701 11 1 41.255276 -64.195736 -19.975100
10702 11 1 40.564221 -63.755187 -19.402074
10703 11 1 41.351991 -63.307079 -19.824707
10704 11 1 40.509620 -62.872041 -20.142752
10705 11 1 39.619974 -62.575647 -20.490144
10706 11 1 38.699229 -62.791397 -20.815229
10707 11 1 38.461834 -62.434448 -21.718684
10708 11 1 38.821088 -61.599410 -22.135395
10709 11 1 38.070873 -60.953378 -22.276180
10710 11 1 37.491918 -60.428788 -21.651987
10711 11 1 36.903801 -60.408846 -20.843457
10712 11 1 37.559857 -61.160364 -20.912827
10713 11 1 37.774475 -61.123525 -19.936824
10714 11 1 37.228298 -60.300529 -19.780721
10715 11 1 36.898700 -59.696925 -19.054755
10716 11 1 37.434006 -59.320952 -18.298387
10717 11 1 38.267186 -59.696029 -17.892027
10718 11 1 38.080977 -59.111229 -17.102512
10719 11 1 38.812998 -58.681154 -17.630888
10720 11 1 39.044512 -58.516889 -18.589750
10721 11 1 38.108460 -58.199496 -18.741633
10722 11 1 37.807370 -57.285370 -19.013145
10723 11 1 37.059483 -57.862834 -19.340560
10724 11 1 37.018892 -57.925042 -20.337797
10725 11 1 36.405629 -58.070080 -21.114246
10726 11 1 36.584685 -57.099354 -21.274338
10727 11 1 35.925815 -56.817389 -20.576924
10728 11 1 36.676149 -56.440724 -20.033672
10729 11 1 37.439323 -56.130125 -20.600324
10730 11 1 37.590203 -55.253232 -21.056716
10731 11 1 38.534721 -55.485085 -21.289375
10732 11 1 39.270183 -54.841023 -21.078944
10733 11 1 38.694373 -54.031531 -21.193680
10734 11 1 38.329839 -53.102154 -21.251766
10735 11 1 37.615461 -52.526920 -20.853305
10736 11 1 37.116420 -52.990755 -20.121311
10737 11 1 36.248877 -52.497090 -20.060781
10738 11 1 35.716180 -52.239135 -19.254745
10739 11 1 36.560428 -52.771512 -19.192939
10740 11 1 35.846399 -53.086673 -18.567770
10741 11 1 35.772533 -53.708771 -17.788323
10742 11 1 36.598453 -54.230699 -18.001507
10743 11 1 36.294570 -54.798327 -17.236358
10744 11 1 35.405177 -55.130386 -17.550551
10745 11 1 35.811390 -55.542911 -16.735190
10746 11 1 36.597001 -55.910575 -16.237558
10747 11 1 37.463432 -56.168632 -16.664997
10748 11 1 38.076256 -55.534853 -16.193011
10749 11 1 37.978962 -56.371416 -15.653849
10750 11 1 38.977754 -56.389708 -15.608233
10751 11 1 39.332521 -56.133871 -14.708963
10752 11 1 39.076708 -56.979102 -14.239768
10753 11 1 39.089939 -56.817727 -13.252964
10754 11 1 39.149177 -56.151139 -12.509894
10755 11 1 38.541529 -55.863653 -11.769545
10756 11 1 37.842211 -56.478157 -11.404389
10757 11 1 37.524666 -57.419028 -11.286378
10758 11 1 36.905524 -56.922603 -11.894840
10759 11 1 36.320931 -56.706369 -11.112859
10760 11 1 35.622288 -56.078065 -10.770612
10761 11 1 35.811483 -55.156724 -11.110223
10762 11 1 36.367827 -55.088853 -11.938399
10763 11 1 36.712112 -54.164713 -11.772769
10764 11 1 36.564453 -54.743118 -10.970494
10765 11 1 37.484725 -54.725962 -10.579590
10766 11 1 37.054983 -54.158738 -9.877039
10767 11 1 36.976545 -54.799282 -9.113134
10768 11 1 36.809557 -55.335095 -9.940792
10769 11 1 36.418646 -56.148617 -9.510245
10770 11 1 36.877498 -56.192526 -10.397673
10771 11 1 36.923506 -57.073060 -9.925929
10772 11 1 36.615876 -57.244664 -8.990025
10773 11 1 36.360714 -58.186856 -8.772844
10774 11 1 37.007846 -58.948241 -8.733958
10775 11 1 37.221889 -59.556872 -9.497996
10776 11 1 37.366052 -60.495313 -9.184076
10777 11 1 36.768318 -60.349454 -9.972390
10778 11 1 36.481915 -61.108627 -10.556882
10779 11 1 36.998560 -61.721226 -11.155046
10780 11 1 37.099562 -60.726496 -11.172699
10781 11 1 36.158767 -60.405126 -11.064870
10782 11 1 36.831805 -59.692739 -10.866061
10783 11 1 36.944121 -59.811461 -11.852616
10784 11 1 36.428122 -58.960903 -11.954093
10785 11 1 35.764933 -59.268688 -12.636331
10786 11 1 34.843850 -59.640510 -12.751895
10787 11 1 33.966522 -59.899825 -13.155689
10788 11 1 33.739259 -60.806300 -12.799804
10789 11 1 34.000303 -61.532738 -13.435527
10790 11 1 34.941610 -61.491465 -13.100507
10791 11 1 34.905261 -62.184027 -12.380065
10792 11 1 33.959860 -61.858451 -12.394808
10793 11 1 33.188978 -61.224358 -12.334262
10794 11 1 33.175589 -62.224139 -12.318182
10795 11 1 32.196021 -62.115742 -12.148783
10796 11 1 31.861041 -62.284979 -11.221881
10797 11 1 31.238236 -61.685445 -10.719215
10798 11 1 31.292349 -60.884739 -11.315824
10799 11 1 31.133236 -60.073135 -11.877947
10800 11 1 31.694101 -59.299941 -11.581972
10801 11 1 32.690196 -59.370693 -11.529176
10802 11 1 33.250921 -59.316783 -12.355422
10803 11 1 34.139065 -58.923136 -12.592577
10804 11 1 33.986885 -58.456067 -13.463604
10805 11 1 34.209394 -58.822055 -14.367231
10806 11 1 35.117279 -58.435633 -14.529784
10807 11 1 34.246338 -57.976218 -14.355431
10808 11 1 33.671634 -57.827547 -15.160175
10809 11 1 33.513965 -57.538203 -16.104326
10810 11 1 33.124951 -56.736466 -16.558072
10811 11 1 33.276753 -55.974028 -17.187076
10812 11 1 33.764404 -56.554745 -17.838968
10813 11 1 33.853888 -57.509637 -17.555815
10814 11 1 34.556760 -57.406244 -18.259577
10815 11 1 33.911699 -58.016392 -18.719595
10816 11 1 34.157323 -57.259274 -19.324938
10817 11 1 33.261366 -56.825366 -19.419725
10818 11 1 32.885429 -57.662645 -19.816756
10819 11 1 31.911296 -57.801676 -19.638609
10820 11 1 31.651530 -58.293115 -18.807340
10821 11 1 32.320762 -58.980904 -18.526136
10822 11 1 33.173704 -58.967200 -18.004310
10823 11 1 33.356541 -59.406109 -17.124577
10824 11 1 33.412311 -58.437171 -16.883642
10825 11 1 32.590344 -57.935688 -17.153613
10826 11 1 32.194627 -58.573987 -16.493324
10827 11 1 31.294986 -58.326730 -16.133449
10828 11 1 30.602288 -57.616338 -16.008898
10829 11 1 31.080666 -57.027185 -16.660091
10830 11 1 31.964592 -56.936446 -17.118830
10831 11 1 31.908147 -57.424512 -16.247850
10832 11 1 31.926951 -57.624712 -15.268276
10833 11 1 32.062335 -58.156802 -14.432482
10834 11 1 31.462167 -58.142564 -13.632734
10835 11 1 30.808835 -57.534757 -13.181372
10836 11 1 30.229300 -57.325838 -13.969086
10837 11 1 29.374550 -57.827843 -14.100966
10838 11 1 28.989675 -57.868889 -15.023022
10839 11 1 29.874249 -57.685127 -15.451693
10840 11 1 30.782914 -57.949696 -15.128690
10841 11 1 30.962595 -57.145639 -14.561938
10842 11 1 31.468849 -56.450701 -14.051285
10843 11 1 31.591489 -57.440695 -14.121070
10844 11 1 32.021798 -56.884569 -13.410044
10845 11 1 32.094932 -57.745661 -12.906882
10846 11 1 32.226117 -58.317859 -12.097326
10847 11 1 32.870795 -57.577994 -12.289652
10848 11 1 33.447860 -58.364019 -12.511375
10849 11 1 33.518680 -58.724080 -11.581138
10850 11 1 33.414732 -58.280497 -10.690953
10851 11 1 34.366232 -58.588147 -10.691754
10852 11 1 35.331966 -58.778801 -10.515661
10853 11 1 35.980346 -58.986604 -11.248068
10854 11 1 35.288357 -59.212836 -11.933611
10855 11 1 34.391963 -58.795667 -11.783785
10856 11 1 33.977461 -59.691582 -11.624019
10857 11 1 34.882939 -59.494628 -11.248094
10858 11 1 34.780296 -60.487926 -11.301225
10859 11 1 34.023135 -61.136874 -11.375884
10860 11 1 34.648707 -61.388949 -10.637563
10861 11 1 34.052326 -62.113608 -10.292312
10862 11 1 33.326024 -61.919820 -9.632819
10863 11 1 33.149322 -60.947502 -9.785704
10864 11 1 32.553290 -60.337554 -10.307919
10865 11 1 32.240996 -60.421629 -9.361661
10866 11 1 31.713709 -59.572330 -9.335966
10867 11 1 32.063040 -59.452564 -8.406652
10868 11 1 32.686352 -58.682785 -8.269094
10869 11 1 32.872459 -57.707062 -8.153646
10870 11 1 33.304465 -56.915253 -8.585398
10871 11 1 33.969076 -56.546976 -7.935272
10872 11 1 33.427969 -55.768116 -8.252417
10873 11 1 33.355733 -56.178307 -9.161552
10874 11 1 34.218080 -56.457461 -9.583963
10875 11 1 33.335264 -56.927025 -9.571864
10876 11 1 33.884991 -57.708300 -9.276213
10877 11 1 33.392030 -58.577562 -9.313257
10878 11 1 33.162947 -59.129638 -10.114964
10879 11 1 33.749801 -59.726704 -10.661878
10880 11 1 32.884815 -60.055233 -11.041177
10881 11 1 32.350261 -60.806658 -11.427976
10882 11 1 33.190764 -60.462398 -11.846352
10883 11 1 32.336391 -60.629968 -12.338253
10884 11 1 31.666771 -59.959610 -12.657985
10885 11 1 32.227081 -59.305640 -13.166293
10886 11 1 32.347221 -59.725169 -12.266537
10887 11 1 33.019624 -59.909562 -12.983386
10888 11 1 32.204608 -60.465732 -13.145939
10889 11 1 31.945241 -60.937785 -13.988492
10890 11 1 31.188183 -61.485742 -13.632674
10891 11 1 31.447729 -60.780139 -12.973309
10892 11 1 30.776336 -60.042489 -12.901870
10893 11 1 30.029114 -59.562607 -12.442119
10894 11 1 29.693934 -60.144009 -11.700751
10895 11 1 28.808126 -59.790740 -11.399843
10896 11 1 27.910640 -59.836991 -10.961233
10897 11 1 28.324092 -58.967081 -11.230144
10898 11 1 27.807042 -58.184486 -10.883437
10899 11 1 27.514722 -57.577949 -10.144071
10900 11 1 27.681273 -58.524917 -9.869273
10901 11 1 28.558292 -58.429190 -10.340096
10902 11 1 29.484011 -58.555928 -9.983750
10903 11 1 29.306873 -57.820152 -9.330102
10904 11 1 30.192254 -57.495680 -9.662996
10905 11 1 30.246528 -57.111483 -10.584651
10906 11 1 30.686488 -57.952045 -10.900707
10907 11 1 31.415821 -58.620929 -11.044470
10908 11 1 31.867339 -59.076082 -10.277029
10909 11 1 32.530431 -58.404875 -9.945683
10910 11 1 32.431168 -57.972410 -10.841854
10911 11 1 32.578765 -57.028034 -11.135739
10912 11 1 33.400235 -57.499358 -11.456738
10913 11 1 33.530121 -56.674538 -12.007012
10914 11 1 34.143022 -56.761851 -11.221691
10915 11 1 34.859704 -57.044507 -10.584139
10916 11 1 35.845868 -56.946198 -10.450662
10917 11 1 35.594998 -56.529952 -9.576704
10918 11 1 35.369583 -57.314208 -8.998665
10919 11 1 35.719953 -57.021961 -8.108815
10920 11 1 35.163170 -56.483597 -7.476236
10921 11 1 34.707500 -56.212671 -8.324153
10922 11 1 35.572446 -55.717450 -8.405550
10923 11 1 35.999767 -55.353035 -9.232954
10924 11 1 35.299410 -55.002122 -9.854532
10925 11 1 34.334609 -55.090092 -9.606701
10926 11 1 33.951371 -54.824121 -10.491228
10927 11 1 34.148787 -55.720909 -10.887205
10928 11 1 33.605333 -56.518613 -10.625813
10929 11 1 33.603610 -55.575931 -10.292125
10930 11 1 32.729980 -56.060491 -10.336540
10931 11 1 32.734649 -55.068044 -10.213954
10932 11 1 32.152326 -54.260198 -10.122932
10933 11 1 31.327366 -53.709178 -9.997162
10934 11 1 31.694899 -53.942923 -9.097005
10935 11 1 32.635739 -54.034044 -8.770633
10936 11 1 32.740567 -54.822105 -9.377239
10937 11 1 32.302130 -55.433671 -8.718635
10938 11 1 31.448051 -55.059035 -8.357806
10939 11 1 30.540386 -54.719454 -8.111171
10940 11 1 30.962456 -54.084941 -7.463675
10941 11 1 31.482278 -53.243339 -7.610275
10942 11 1 31.240211 -52.437943 -8.151329
10943 11 1 30.776971 -52.268532 -9.021219
10944 11 1 29.850967 -52.199304 -9.392334
10945 11 1 29.907992 -52.529064 -10.334675
10946 11 1 29.888861 -51.721230 -10.923774
10947 11 1 29.512963 -51.733449 -11.850355
10948 11 1 28.749905 -51.096809 -11.738859
10949 11 1 29.060903 -50.394893 -11.098083
10950 11 1 29.875775 -50.857656 -11.447129
10951 11 1 30.675399 -50.725620 -12.032935
10952 11 1 30.432459 -50.220359 -11.204870
10953 11 1 30.977753 -50.446206 -10.397623
10954 11 1 30.584417 -51.363471 -10.335069
10955 11 1 30.671709 -51.996280 -11.104440
10956 11 1 29.975449 -52.700811 -11.241766
10957 11 1 29.045613 -52.888976 -10.925540
10958 11 1 28.923140 -51.911315 -10.754721
10959 11 1 29.321930 -51.285823 -10.084106
10960 11 1 29.705537 -51.317377 -9.161149
10961 11 1 30.004233 -50.589220 -9.778050
10962 11 1 29.249149 -50.125341 -9.314732
10963 11 1 28.987093 -50.750494 -8.579538
10964 11 1 29.959755 -50.615333 -8.768379
10965 11 1 30.124960 -51.182583 -7.961574
10966 11 1 29.575874 -52.015254 -8.033438
10967 11 1 29.155322 -52.169333 -7.139348
10968 11 1 28.935623 -51.195274 -7.193592
10969 11 1 29.280069 -50.260577 -7.281331
10970 11 1 29.648992 -49.377364 -6.991795
10971 11 1 29.116667 -48.934589 -7.713308
10972 11 1 28.395483 -49.528751 -8.069490
10973 11 1 27.861196 -49.780912 -8.876306
10974 11 1 27.916288 -50.754743 -9.096799
10975 11 1 28.659851 -51.423180 -9.079294
10976 11 1 27.985041 -51.422282 -8.341303
10977 11 1 27.046805 -51.696037 -8.552895
10978 11 1 27.139538 -51.329590 -7.627089
10979 11 1 27.689396 -52.138022 -7.417106
10980 11 1 27.907040 -52.458201 -6.495088
10981 11 1 27.630343 -53.159121 -5.837706
10982 11 1 28.319252 -53.833396 -5.571703
10983 11 1 28.877099 -54.662537 -5.535225
10984 11 1 28.306855 -55.010455 -4.791065
10985 11 1 28.688499 -55.764975 -4.257166
10986 11 1 28.550624 -56.627792 -4.743517
10987 11 1 27.883504 -57.207583 -5.211271
10988 11 1 27.170588 -56.531524 -5.025007
10989 11 1 26.805448 -57.430907 -5.265388
10990 11 1 26.204594 -56.707219 -4.925903
10991 11 1 26.215350 -57.215115 -4.064552
10992 11 1 27.188449 -57.399605 -4.202542
10993 11 1 26.815186 -56.477528 -4.100323
10994 11 1 27.242312 -56.332799 -3.207789
10995 11 1 27.109545 -55.687691 -3.960258
10996 11 1 26.293453 -55.161980 -3.720211
10997 11 1 25.789031 -54.774286 -4.491736
10998 11 1 25.773166 -54.456353 -5.439717
10999 11 1 25.243792 -54.305552 -6.274596
11000 11 1 25.785950 -55.139626 -6.376511
11001 12 1 -27.119092 3.034291 20.115868
11002 12 1 -26.708657 2.221102 20.528502
11003 12 1 -26.708303 2.489124 21.491915
11004 12 1 -26.744570 1.542838 21.170624
11005 12 1 -25.918625 2.094876 21.056310
11006 12 1 -25.329647 1.951650 20.260953
11007 12 1 -24.420481 2.350146 20.381862
11008 12 1 -24.357956 1.659655 21.102496
11009 12 1 -23.619695 1.756177 20.434921
11010 12 1 -22.987433 1.085791 20.823285
11011 12 1 -23.744964 0.434902 20.773370
11012 12 1 -23.505076 0.565928 19.811452
11013 12 1 -23.362347 0.093264 18.941844
11014 12 1 -24.147396 -0.144309 18.369780
11015 12 1 -23.959651 -1.101245 18.591197
11016 12 1 -23.947119 -0.804481 17.636328
11017 12 1 -23.852321 -1.306359 16.776600
11018 12 1 -24.645835 -0.985554 16.259474
11019 12 1 -24.250065 -1.075189 15.345510
11020 12 1 -23.473663 -0.881862 15.945364
11021 12 1 -23.076629 -0.412279 16.733942
11022 12 1 -23.402846 0.043017 17.562368
11023 12 1 -23.280475 1.003616 17.312818
11024 12 1 -23.162617 0.511893 18.175557
11025 12 1 -22.421619 -0.151799 18.073401
11026 12 1 -22.164793 -0.129279 19.039597
11027 12 1 -22.141943 0.747888 19.519239
11028 12 1 -21.479285 0.068882 19.835208
11029 12 1 -22.451270 -0.164941 19.859122
11030 12 1 -22.077176 0.608717 20.370499
11031 12 1 -22.359488 1.561394 20.257781
11032 12 1 -22.787925 2.449110 20.089249
11033 12 1 -23.113159 3.388535 19.981073
11034 12 1 -23.143210 4.379183 19.847980
11035 12 1 -22.236747 4.440334 19.430146
11036 12 1 -22.449994 4.752654 18.504413
11037 12 1 -23.029423 4.946416 17.712757
11038 12 1 -23.221252 5.906440 17.916609
11039 12 1 -23.284237 6.353833 17.024493
11040 12 1 -24.173741 6.778960 17.191974
11041 12 1 -24.583750 6.881424 16.285666
11042 12 1 -24.585251 6.035669 15.752097
11043 12 1 -24.616210 6.148257 14.758938
11044 12 1 -23.854951 5.941692 15.373605
11045 12 1 -22.871769 5.815880 15.241228
11046 12 1 -21.921052 5.527163 15.354281
11047 12 1 -21.189803 5.761853 15.994746
11048 12 1 -21.747972 4.935920 15.915482
11049 12 1 -20.832961 4.997014 16.314257
11050 12 1 -21.090285 4.031745 16.269096
11051 12 1 -20.665229 3.365748 16.882101
11052 12 1 -20.034579 3.850908 16.276379
11053 12 1 -19.906941 3.216418 15.514059
11054 12 1 -20.847033 2.878765 15.561151
11055 12 1 -20.685781 2.321669 16.375792
11056 12 1 -19.818407 2.380414 15.881615
11057 12 1 -19.367117 1.674459 15.335753
11058 12 1 -18.441717 1.435336 15.629788
11059 12 1 -19.004126 1.422023 16.456540
11060 12 1 -18.440966 2.150231 16.847134
11061 12 1 -18.702541 2.437979 17.768426
11062 12 1 -17.736732 2.663008 17.897166
11063 12 1 -17.821690 3.234335 17.080853
11064 12 1 -18.805819 3.096476 17.192594
11065 12 1 -18.865323 3.481407 16.271569
11066 12 1 -19.028316 3.174677 15.333832
11067 12 1 -18.451990 3.855289 14.881488
11068 12 1 -17.682308 4.250219 14.379871
11069 12 1 -18.087907 5.159411 14.473990
11070 12 1 -18.700317 5.178470 13.683680
11071 12 1 -19.148017 4.420201 13.209769
11072 12 1 -19.735421 4.955305 13.816910
11073 12 1 -19.792206 4.033967 14.201504
11074 12 1 -20.688080 3.631346 14.389401
11075 12 1 -20.451970 2.775075 14.848804
11076 12 1 -20.406916 1.804056 15.083521
11077 12 1 -20.295133 1.491973 14.140065
11078 12 1 -19.408475 1.937764 14.262981
11079 12 1 -19.124583 2.325324 13.385939
11080 12 1 -19.694530 1.754660 12.794753
11081 12 1 -20.079334 2.025763 11.912466
11082 12 1 -19.595904 1.176094 12.123079
11083 12 1 -19.324295 0.415577 11.533298
11084 12 1 -18.448488 0.177633 11.113364
11085 12 1 -18.149534 -0.596747 10.555725
11086 12 1 -17.902826 -0.228914 9.659157
11087 12 1 -17.047269 0.201679 9.946581
11088 12 1 -17.022129 -0.131430 9.004028
11089 12 1 -16.081748 -0.145628 8.664203
11090 12 1 -16.015913 -1.120373 8.450807
11091 12 1 -15.546768 -1.953385 8.744056
11092 12 1 -16.089621 -1.406896 9.381756
11093 12 1 -16.786100 -2.036871 9.038176
11094 12 1 -16.809648 -1.586626 9.930770
11095 12 1 -16.732679 -0.682993 9.509436
11096 12 1 -16.177135 -0.624342 10.338852
11097 12 1 -16.168633 -1.616289 10.465225
11098 12 1 -16.727471 -1.070914 11.089938
11099 12 1 -16.816252 -1.855143 11.704024
11100 12 1 -17.252004 -2.587456 12.227320
11101 12 1 -16.462085 -3.123940 11.930315
11102 12 1 -16.805314 -3.904791 11.408333
11103 12 1 -16.235829 -4.155317 10.625438
11104 12 1 -15.540939 -3.480868 10.375945
11105 12 1 -14.561838 -3.660887 10.281315
11106 12 1 -14.842656 -2.730399 10.516546
11107 12 1 -15.818226 -2.641815 10.315509
11108 12 1 -15.771136 -2.649380 11.314371
11109 12 1 -15.853602 -3.639537 11.201283
11110 12 1 -15.442985 -4.054036 12.013431
11111 12 1 -15.936069 -3.554119 12.725436
11112 12 1 -15.499916 -2.662889 12.849855
11113 12 1 -15.521448 -1.693370 12.605787
11114 12 1 -16.462800 -1.634899 12.938107
11115 12 1 -15.947523 -1.791237 13.780751
11116 12 1 -16.256199 -1.200654 14.526359
11117 12 1 -16.488767 -2.173072 14.544133
11118 12 1 -17.129142 -2.900385 14.297284
11119 12 1 -17.038740 -2.483449 13.392855
11120 12 1 -17.240922 -1.884881 14.167993
11121 12 1 -17.378378 -1.749206 13.186821
11122 12 1 -17.176837 -0.823860 12.865704
11123 12 1 -18.124255 -0.549792 12.700517
11124 12 1 -18.416392 0.072394 13.426837
11125 12 1 -18.912272 0.496937 14.184376
11126 12 1 -18.578315 0.602641 15.121019
11127 12 1 -19.050059 0.186127 15.898176
11128 12 1 -18.722257 0.365683 16.825703
11129 12 1 -19.224067 0.279411 17.686368
11130 12 1 -18.882219 1.194171 17.471067
11131 12 1 -18.020966 1.201187 17.979194
11132 12 1 -18.185789 0.951093 17.025105
11133 12 1 -17.579319 1.004943 16.231824
11134 12 1 -17.284967 1.576618 16.997686
11135 12 1 -16.875495 2.294080 17.561230
11136 12 1 -16.843820 2.931952 16.791740
11137 12 1 -17.119037 3.891642 16.848758
11138 12 1 -17.767993 3.925104 16.088668
11139 12 1 -18.217898 4.811372 16.198736
11140 12 1 -18.511714 5.605542 16.730682
11141 12 1 -18.515033 5.910723 17.682971
11142 12 1 -19.340590 5.363486 17.545172
11143 12 1 -20.334562 5.368291 17.654699
11144 12 1 -21.013046 5.963297 17.223857
11145 12 1 -20.647050 6.724410 16.688362
11146 12 1 -20.162650 5.915661 17.021950
11147 12 1 -20.183387 6.245652 17.965706
11148 12 1 -19.517636 6.235919 18.711817
11149 12 1 -18.800268 6.892894 18.479941
11150 12 1 -18.801294 6.464667 19.383612
11151 12 1 -19.217767 7.347554 19.166677
11152 12 1 -18.470034 8.011452 19.155039
11153 12 1 -17.995332 8.304509 19.984964
11154 12 1 -18.482371 7.943085 20.780052
11155 12 1 -17.767274 8.317431 21.370393
11156 12 1 -17.650911 7.363654 21.647466
11157 12 1 -18.474643 6.812405 21.780088
11158 12 1 -18.680350 6.009261 22.339235
11159 12 1 -18.078343 6.502720 22.966997
11160 12 1 -18.381865 6.609839 23.913781
11161 12 1 -19.222278 6.641940 24.454774
11162 12 1 -19.316165 7.619253 24.644631
11163 12 1 -20.128532 7.270191 24.177494
11164 12 1 -20.785077 7.277582 24.931745
11165 12 1 -21.216721 6.494278 25.379091
11166 12 1 -20.986587 5.924701 26.168153
11167 12 1 -21.677217 5.485238 26.742526
11168 12 1 -22.404767 4.958942 26.302431
11169 12 1 -21.649047 4.508619 25.826934
11170 12 1 -21.852495 5.081801 25.033164
11171 12 1 -21.200839 4.326938 24.958825
11172 12 1 -21.910575 4.573647 24.298969
11173 12 1 -21.177218 4.136060 23.778674
11174 12 1 -21.089680 3.512719 23.001639
11175 12 1 -20.299056 3.671981 23.592865
11176 12 1 -20.084943 2.943443 22.942182
11177 12 1 -19.197512 2.497434 22.825810
11178 12 1 -18.295646 2.533579 23.256311
11179 12 1 -19.074778 2.210402 23.793443
11180 12 1 -19.731971 1.543124 24.143925
11181 12 1 -20.406508 1.841368 23.468609
11182 12 1 -20.272013 2.466550 24.237413
11183 12 1 -21.245527 2.270034 24.120570
11184 12 1 -21.969385 2.257684 24.810408
11185 12 1 -22.191445 1.992255 25.748618
11186 12 1 -21.212233 2.156615 25.629751
11187 12 1 -21.471982 1.207998 25.449036
11188 12 1 -20.627882 0.892569 25.882626
11189 12 1 -19.971074 1.009309 25.137659
11190 12 1 -19.193518 1.344973 25.669389
11191 12 1 -18.669705 2.077360 26.104393
11192 12 1 -19.613354 2.368350 25.946746
11193 12 1 -18.964863 2.589846 26.675031
11194 12 1 -18.491197 3.008229 27.450012
11195 12 1 -17.611728 2.985340 27.925417
11196 12 1 -17.939916 3.848143 28.309946
11197 12 1 -17.608230 4.325641 29.123568
11198 12 1 -18.276447 4.603032 28.433249
11199 12 1 -19.107800 5.152530 28.350155
11200 12 1 -18.977423 4.904131 27.390311
11201 12 1 -19.486047 4.112282 27.052262
11202 12 1 -19.752532 3.223272 27.424616
11203 12 1 -20.086033 2.304292 27.214255
11204 12 1 -19.952321 1.428475 26.750502
11205 12 1 -20.812887 1.927813 26.650066
11206 12 1 -20.733388 0.931519 26.682895
11207 12 1 -21.352898 0.704975 27.434484
11208 12 1 -21.330715 -0.294762 27.428768
11209 12 1 -20.798117 -0.254844 28.274194
11210 12 1 -20.686629 0.656567 28.670300
11211 12 1 -21.090909 0.175987 29.448504
11212 12 1 -20.851345 0.748859 30.232358
11213 12 1 -21.201670 0.917166 31.153740
11214 12 1 -21.306919 0.818975 32.143326
11215 12 1 -22.088267 1.280548 31.723272
11216 12 1 -22.420181 1.951771 31.060481
11217 12 1 -22.655682 0.980836 31.103181
11218 12 1 -22.437171 1.576781 30.330457
11219 12 1 -23.347829 1.449209 30.723431
11220 12 1 -23.644617 1.536338 31.674392
11221 12 1 -23.784947 0.755223 32.282805
11222 12 1 -24.570597 0.993244 32.853856
11223 12 1 -23.980124 1.719289 33.206277
11224 12 1 -23.548514 2.617722 33.125464
11225 12 1 -24.471857 2.390577 32.815881
11226 12 1 -23.992897 2.745754 32.013106
11227 12 1 -23.236367 3.389411 31.897488
11228 12 1 -22.366698 3.859338 32.048628
11229 12 1 -22.186714 4.612296 31.415650
11230 12 1 -22.179245 5.199876 30.606519
11231 12 1 -22.074845 6.028176 31.156993
11232 12 1 -22.739946 6.649922 31.570602
11233 12 1 -23.352081 7.440159 31.599166
11234 12 1 -24.309259 7.177661 31.477074
11235 12 1 -23.570173 6.519662 31.621257
11236 12 1 -24.399656 5.961710 31.646700
11237 12 1 -25.008842 6.528064 32.201800
11238 12 1 -25.226503 5.557004 32.103483
11239 12 1 -26.049158 5.754194 32.636732
11240 12 1 -26.799016 5.100047 32.735754
11241 12 1 -27.223074 4.402629 32.158015
11242 12 1 -27.427229 3.508006 31.760561
11243 12 1 -26.789523 3.131908 31.088339
11244 12 1 -26.395362 2.214563 31.144149
11245 12 1 -25.697781 1.524386 30.951704
11246 12 1 -25.478866 1.609024 31.923770
11247 12 1 -25.391124 1.494766 32.913339
11248 12 1 -26.204997 1.011879 33.236496
11249 12 1 -26.193098 1.957910 32.912638
11250 12 1 -26.304932 2.648608 33.627082
11251 12 1 -25.406750 2.389253 33.982053
11252 12 1 -25.447170 2.162714 34.955216
11253 12 1 -24.905598 3.003216 34.939201
11254 12 1 -24.656875 2.142618 34.494782
11255 12 1 -23.691438 2.051268 34.738887
11256 12 1 -23.569482 1.076730 34.550734
11257 12 1 -22.961081 0.612539 35.194455
11258 12 1 -22.559898 1.456563 34.838539
11259 12 1 -22.460643 0.868800 34.035617
11260 12 1 -21.899406 0.234260 33.504230
11261 12 1 -21.014520 0.617645 33.768791
11262 12 1 -21.061852 0.374843 34.737711
11263 12 1 -21.920928 0.750770 35.085085
11264 12 1 -21.434832 1.051838 35.905493
11265 12 1 -21.286530 0.215386 36.433085
11266 12 1 -22.165042 -0.134930 36.108283
11267 12 1 -23.111485 0.059875 35.850802
11268 12 1 -23.153159 -0.625140 35.123466
11269 12 1 -23.146467 -0.788821 36.109957
11270 12 1 -23.624676 -0.307220 36.844380
11271 12 1 -23.508568 -1.102171 37.439838
11272 12 1 -24.469394 -0.921676 37.229520
11273 12 1 -24.669863 -1.501699 38.019068
11274 12 1 -25.377165 -2.128945 37.693052
11275 12 1 -26.359386 -2.095358 37.877751
11276 12 1 -26.592537 -1.685033 36.996120
11277 12 1 -26.890243 -2.469281 36.451760
11278 12 1 -27.100870 -3.344292 36.887641
11279 12 1 -26.371063 -3.907628 37.274983
11280 12 1 -25.710977 -4.259791 36.611457
11281 12 1 -26.048435 -3.715803 35.843212
11282 12 1 -26.361276 -3.223778 35.030783
11283 12 1 -27.333476 -3.004284 35.112332
11284 12 1 -27.096758 -3.834010 34.606842
11285 12 1 -26.125234 -3.709896 34.405010
11286 12 1 -25.832314 -2.801396 34.106972
11287 12 1 -25.898847 -2.012024 34.717271
11288 12 1 -25.150020 -2.367657 34.158000
11289 12 1 -25.005277 -2.304430 35.145447
11290 12 1 -25.046788 -1.308007 35.219054
11291 12 1 -24.477749 -1.109359 36.017010
11292 12 1 -23.876975 -1.111846 35.217595
11293 12 1 -24.250890 -1.464625 34.359846
11294 12 1 -24.309624 -0.540518 34.737440
11295 12 1 -23.717354 0.256691 34.854373
11296 12 1 -24.617709 0.656357 34.682247
11297 12 1 -25.162885 -0.008215 35.193253
11298 12 1 -25.348351 0.830318 35.705566
11299 12 1 -25.492964 0.116260 36.390554
11300 12 1 -25.446381 -0.702314 35.818045
11301 12 1 -26.081582 -1.384788 36.179636
11302 12 1 -25.313070 -1.950960 36.477693
11303 12 1 -25.766922 -2.710879 36.012351
11304 12 1 -25.640401 -3.237127 36.853217
11305 12 1 -24.759030 -2.914397 37.198226
11306 12 1 -24.557172 -1.937958 37.274514
11307 12 1 -23.618475 -2.196696 37.046694
11308 12 1 -23.301669 -2.672079 36.225936
11309 12 1 -22.697010 -3.046723 35.523063
11310 12 1 -22.499133 -2.102408 35.260171
11311 12 1 -22.468825 -2.203230 36.254614
11312 12 1 -21.604826 -2.637984 36.000658
11313 12 1 -21.115788 -3.217638 36.652458
11314 12 1 -20.583650 -4.035202 36.432418
11315 12 1 -20.174853 -4.930445 36.609690
11316 12 1 -20.126729 -5.596181 37.354325
11317 12 1 -21.093873 -5.412109 37.178966
11318 12 1 -20.573727 -6.131298 36.718298
11319 12 1 -21.122944 -6.241715 35.889945
11320 12 1 -20.213271 -5.839415 35.993143
11321 12 1 -19.659208 -6.197742 35.241734
11322 12 1 -20.145189 -5.551111 34.653780
11323 12 1 -20.318309 -4.799415 35.290162
11324 12 1 -20.815597 -4.006509 35.642304
11325 12 1 -19.853622 -4.276416 35.684194
11326 12 1 -19.757289 -4.136302 34.698756
11327 12 1 -18.966555 -3.966999 34.110473
11328 12 1 -18.131402 -3.590062 33.709927
11329 12 1 -18.544495 -2.750634 34.063077
11330 12 1 -18.839795 -1.884631 33.659547
11331 12 1 -19.281048 -1.144041 34.166324
11332 12 1 -18.754241 -0.901408 33.351705
11333 12 1 -19.563919 -0.838764 32.768184
11334 12 1 -18.809267 -1.485440 32.657235
11335 12 1 -19.603335 -1.539850 32.051845
11336 12 1 -20.455666 -1.777312 31.585860
11337 12 1 -20.697652 -2.010571 30.644036
11338 12 1 -20.868888 -2.869826 31.126072
11339 12 1 -19.889932 -2.719787 31.264394
11340 12 1 -19.262721 -3.491815 31.367246
11341 12 1 -20.261671 -3.446111 31.370581
11342 12 1 -20.952725 -3.544500 30.654506
11343 12 1 -21.573279 -3.450781 31.433049
11344 12 1 -22.242482 -3.094258 32.085015
11345 12 1 -22.953114 -2.730212 31.482958
11346 12 1 -23.888293 -2.487171 31.225333
11347 12 1 -23.675776 -3.032804 32.035963
11348 12 1 -23.304493 -3.837851 31.573308
11349 12 1 -24.221153 -4.163344 31.805231
11350 12 1 -25.043362 -3.653293 31.552605
11351 12 1 -24.597730 -3.923773 30.699228
11352 12 1 -24.287286 -3.432290 29.885552
11353 12 1 -24.585679 -3.062657 29.005590
11354 12 1 -24.221474 -2.133417 28.943386
11355 12 1 -25.188636 -1.949091 28.768392
11356 12 1 -25.834568 -2.149821 29.504924
11357 12 1 -26.571485 -1.474066 29.487365
11358 12 1 -25.965511 -1.488674 30.282715
11359 12 1 -26.687467 -2.047429 30.690848
11360 12 1 -26.307528 -2.557878 31.462268
11361 12 1 -26.396804 -3.056927 30.600305
11362 12 1 -27.015667 -3.695773 30.143266
11363 12 1 -26.643127 -3.930640 29.245463
11364 12 1 -26.749906 -4.908261 29.426721
11365 12 1 -27.061742 -5.107505 30.355731
11366 12 1 -27.516974 -5.616200 29.624982
11367 12 1 -26.966769 -6.127157 30.285434
11368 12 1 -27.774139 -6.593701 30.646670
11369 12 1 -26.848960 -6.644174 31.022829
11370 12 1 -25.852053 -6.603653 31.090170
11371 12 1 -26.505939 -5.847197 31.104545
11372 12 1 -26.179912 -5.651385 30.179685
11373 12 1 -26.119407 -6.609952 29.901318
11374 12 1 -25.845891 -7.306907 29.238412
11375 12 1 -26.725436 -7.510678 29.668387
11376 12 1 -27.067873 -7.113074 28.817124
11377 12 1 -27.974975 -6.919876 28.443171
11378 12 1 -27.307039 -6.206078 28.653775
11379 12 1 -27.384531 -6.285409 27.659943
11380 12 1 -28.364349 -6.283715 27.859827
11381 12 1 -28.613360 -5.324234 27.991691
11382 12 1 -29.046329 -5.846797 28.726174
11383 12 1 -28.747299 -6.756029 29.015794
11384 12 1 -28.618527 -5.934239 29.570843
11385 12 1 -28.294008 -6.132397 28.645953
11386 12 1 -28.028475 -5.175643 28.527152
11387 12 1 -28.596413 -4.380651 28.740304
11388 12 1 -28.515365 -4.885029 29.599975
11389 12 1 -29.482178 -5.063253 29.416921
11390 12 1 -29.429392 -4.470515 28.613258
11391 12 1 -29.726859 -3.987541 29.436817
11392 12 1 -28.823456 -3.570641 29.537108
11393 12 1 -29.206007 -3.518712 28.614634
11394 12 1 -29.548769 -2.890121 29.312766
11395 12 1 -29.063435 -2.352719 30.002440
11396 12 1 -29.389878 -1.989484 30.875077
11397 12 1 -28.841321 -1.233259 30.518414
11398 12 1 -29.580739 -1.255810 29.845545
11399 12 1 -29.993736 -1.374171 30.748554
11400 12 1 -30.835642 -1.840237 31.020540
11401 12 1 -31.094577 -0.893360 30.829812
11402 12 1 -31.271684 -0.456592 31.711779
11403 12 1 -31.813988 0.295590 31.337442
11404 12 1 -31.471169 -0.144889 30.507711
11405 12 1 -30.610516 0.248981 30.184999
11406 12 1 -30.679024 -0.117402 31.112937
11407 12 1 -29.720534 -0.094616 30.828720
11408 12 1 -29.021196 0.530153 31.175979
11409 12 1 -28.279244 1.197059 31.244854
11410 12 1 -27.549400 1.796721 30.916626
11411 12 1 -26.950527 2.419572 30.413230
11412 12 1 -26.927163 2.333015 29.417257
11413 12 1 -26.216535 1.635923 29.322014
11414 12 1 -27.029625 1.588925 28.741776
11415 12 1 -27.483137 1.770342 27.869185
11416 12 1 -27.434097 0.951156 28.440612
11417 12 1 -27.547389 -0.033217 28.305800
11418 12 1 -28.351930 -0.624921 28.356796
11419 12 1 -27.636591 -1.270181 28.088597
11420 12 1 -27.484940 -1.127010 27.110587
11421 12 1 -26.669431 -1.400816 27.620465
11422 12 1 -26.892407 -2.312863 27.964634
11423 12 1 -27.326463 -3.166181 27.675768
11424 12 1 -26.374434 -3.386947 27.463865
11425 12 1 -26.733365 -3.627133 26.561934
11426 12 1 -27.551416 -3.166524 26.217503
11427 12 1 -26.833803 -2.989707 25.543881
11428 12 1 -27.670452 -3.024045 24.997218
11429 12 1 -27.352125 -2.281301 24.408151
11430 12 1 -27.104934 -3.165763 24.012394
11431 12 1 -27.081572 -4.037643 24.501556
11432 12 1 -27.167662 -3.850204 25.480053
11433 12 1 -27.530507 -4.779158 25.553454
11434 12 1 -27.911844 -4.277907 24.776711
11435 12 1 -28.824723 -4.685909 24.790334
11436 12 1 -29.145064 -3.991875 25.435081
11437 12 1 -28.703955 -4.123788 26.322787
11438 12 1 -29.394024 -4.510596 26.934493
11439 12 1 -29.889576 -5.034710 26.241865
11440 12 1 -29.442378 -4.962599 25.350341
11441 12 1 -29.273345 -5.570728 24.574708
11442 12 1 -28.632353 -5.804758 23.843709
11443 12 1 -29.173456 -4.967745 23.925055
11444 12 1 -29.964856 -5.031907 23.317134
11445 12 1 -30.813311 -4.513521 23.210356
11446 12 1 -31.449019 -5.181629 23.597018
11447 12 1 -32.211550 -5.033778 24.226848
11448 12 1 -31.572017 -4.382015 23.819171
11449 12 1 -31.135381 -4.471084 24.714389
11450 12 1 -31.403349 -4.996773 25.521758
11451 12 1 -31.102370 -5.947340 25.598140
11452 12 1 -31.182267 -6.526441 24.786809
11453 12 1 -31.394390 -7.503652 24.794748
11454 12 1 -31.074838 -7.086896 23.943747
11455 12 1 -31.820029 -6.617141 23.470440
11456 12 1 -32.172100 -7.380629 22.929023
11457 12 1 -32.536923 -6.558365 22.492232
11458 12 1 -31.876396 -7.162890 22.046974
11459 12 1 -32.264420 -6.343342 21.625336
11460 12 1 -32.822334 -7.132044 21.883562
11461 12 1 -33.598433 -6.520373 21.730174
11462 12 1 -34.061616 -7.152861 21.109352
11463 12 1 -33.318488 -7.806234 20.964908
11464 12 1 -34.088113 -8.399711 20.729407
11465 12 1 -34.144281 -8.195660 19.752059
11466 12 1 -33.471433 -8.932726 19.688743
11467 12 1 -32.619403 -9.449557 19.605499
11468 12 1 -32.696283 -9.218649 20.575432
11469 12 1 -32.610100 -10.178491 20.308460
11470 12 1 -32.683911 -11.149802 20.534529
11471 12 1 -32.771266 -10.518351 21.305009
11472 12 1 -33.650482 -10.276488 20.894545
11473 12 1 -33.741960 -9.413398 20.397848
11474 12 1 -34.598703 -9.563286 19.904366
11475 12 1 -33.914632 -10.281726 20.030428
11476 12 1 -34.506567 -10.942448 19.568845
11477 12 1 -34.008622 -10.173381 19.168112
11478 12 1 -33.408516 -9.671438 18.545276
11479 12 1 -32.424724 -9.822853 18.449218
11480 12 1 -32.949481 -10.581868 18.834608
11481 12 1 -33.211561 -10.648051 19.797382
11482 12 1 -32.833909 -11.561536 19.645981
11483 12 1 -32.164843 -10.820790 19.585594
11484 12 1 -31.463444 -10.233217 19.989075
11485 12 1 -30.765930 -10.162728 19.275979
11486 12 1 -31.418597 -9.428834 19.464197
11487 12 1 -30.429165 -9.284699 19.448408
11488 12 1 -29.618182 -8.723341 19.283531
11489 12 1 -29.656033 -9.687642 19.021442
11490 12 1 -29.182324 -9.706846 19.901914
11491 12 1 -29.889350 -9.029240 20.104312
11492 12 1 -30.541622 -9.212924 20.839705
11493 12 1 -31.411538 -8.737890 20.972330
11494 12 1 -30.928530 -9.151143 21.744292
11495 12 1 -29.942792 -8.989957 21.792669
11496 12 1 -29.791147 -8.200538 22.387497
11497 12 1 -29.075471 -8.768950 21.981647
11498 12 1 -28.533846 -9.410941 21.438978
11499 12 1 -27.940617 -8.998838 20.747421
11500 12 1 -27.060479 -9.451645 20.889984
11501 12 1 -26.919474 -10.425551 21.067814
11502 12 1 -27.634799 -10.600723 21.744295
11503 12 1 -27.806924 -10.388929 22.706332
11504 12 1 -28.145195 -11.329045 22.748220
11505 12 1 -28.739879 -11.709079 22.039754
11506 12 1 -29.176860 -11.672250 21.141037
11507 12 1 -29.248898 -11.519799 20.155355
11508 12 1 -29.207105 -10.588914 20.518269
11509 12 1 -29.970074 -9.951867 20.628032
11510 12 1 -29.279173 -9.347592 21.024905
11511 12 1 -29.284607 -9.980592 21.799038
11512 12 1 -29.340453 -10.921153 21.464035
11513 12 1 -29.437195 -11.104961 22.442225
11514 12 1 -29.579833 -12.094560 22.460866
11515 12 1 -29.198540 -12.599779 21.686676
11516 12 1 -30.028156 -12.952882 22.119175
11517 12 1 -29.965956 -12.554691 21.203984
11518 12 1 -29.899256 -11.620986 21.555758
11519 12 1 -30.728013 -11.999922 21.967545
11520 12 1 -31.115800 -11.097092 22.153337
11521 12 1 -30.377873 -10.594290 22.603508
11522 12 1 -30.342833 -10.222940 23.531339
11523 12 1 -31.173886 -9.759511 23.838886
11524 12 1 -31.324943 -10.113763 22.916017
11525 12 1 -32.214308 -9.965796 22.483425
11526 12 1 -32.918186 -9.860752 23.185936
11527 12 1 -33.435258 -9.180815 23.705861
11528 12 1 -32.762103 -8.583411 24.141717
11529 12 1 -32.570329 -9.134761 23.329783
11530 12 1 -32.039616 -9.933983 23.611896
11531 12 1 -32.117436 -9.428552 24.471246
11532 12 1 -31.770636 -10.351448 24.303940
11533 12 1 -32.533476 -10.978895 24.460098
11534 12 1 -33.475829 -10.722126 24.245524
11535 12 1 -33.102683 -11.618537 24.006338
11536 12 1 -32.809823 -12.497959 24.381637
11537 12 1 -32.861075 -12.449806 25.379161
11538 12 1 -32.409126 -13.202995 24.901198
11539 12 1 -31.685224 -13.514499 24.285624
11540 12 1 -32.263287 -14.061831 24.890826
11541 12 1 -33.061023 -13.945426 24.299161
11542 12 1 -32.939357 -14.084346 23.316359
11543 12 1 -32.990348 -14.990154 22.895751
11544 12 1 -32.865256 -14.228868 22.259516
11545 12 1 -33.069253 -13.439472 22.838515
11546 12 1 -33.239041 -12.924645 23.678827
11547 12 1 -33.394565 -12.242870 22.963987
11548 12 1 -34.219800 -12.780246 23.137808
11549 12 1 -35.145985 -13.015841 22.843398
11550 12 1 -34.397714 -13.199505 22.205935
11551 12 1 -34.214490 -14.182565 22.210647
11552 12 1 -35.149484 -14.220182 22.563312
11553 12 1 -36.011107 -14.226827 22.055807
11554 12 1 -35.826591 -14.817180 21.270036
11555 12 1 -35.984193 -15.206129 20.362357
11556 12 1 -35.269129 -15.783096 20.757063
11557 12 1 -35.156144 -16.759143 20.942981
11558 12 1 -35.178122 -16.340212 20.035229
11559 12 1 -35.992167 -16.413256 19.459039
11560 12 1 -36.399527 -17.311032 19.291539
11561 12 1 -35.818420 -17.712407 18.583576
11562 12 1 -34.895985 -17.523846 18.920562
11563 12 1 -35.166786 -18.455702 18.679082
11564 12 1 -34.783962 -19.167177 18.089804
11565 12 1 -35.025274 -19.883907 17.435536
11566 12 1 -35.284247 -20.672359 16.877615
11567 12 1 -34.538825 -20.304236 16.321889
11568 12 1 -34.482763 -19.370634 16.675788
11569 12 1 -34.280480 -18.393022 16.733722
11570 12 1 -33.566634 -17.783677 16.388579
11571 12 1 -33.838675 -17.881817 17.345847
11572 12 1 -33.306085 -17.059712 17.144626
11573 12 1 -33.000607 -16.224757 16.686877
11574 12 1 -32.441916 -15.526056 17.133734
11575 12 1 -32.244097 -14.548244 17.064817
11576 12 1 -31.917462 -14.450612 16.124723
11577 12 1 -31.550459 -13.535118 15.959861
11578 12 1 -31.000288 -13.330353 16.769419
11579 12 1 -31.534460 -13.877061 17.414222
11580 12 1 -32.381521 -13.347532 17.459896
11581 12 1 -33.375720 -13.413693 17.375092
11582 12 1 -33.678550 -13.467688 16.423578
11583 12 1 -34.463078 -13.314014 15.822828
11584 12 1 -35.221635 -12.762040 15.476539
11585 12 1 -35.558769 -12.697681 16.415793
11586 12 1 -36.142975 -12.984763 15.656657
11587 12 1 -36.679354 -12.401019 16.266199
11588 12 1 -36.933445 -11.689998 15.610542
11589 12 1 -37.442580 -10.903773 15.960731
11590 12 1 -36.859070 -10.381526 15.338820
11591 12 1 -37.545168 -9.680994 15.535097
11592 12 1 -38.092716 -8.868199 15.733985
11593 12 1 -38.258820 -9.766917 16.139837
11594 12 1 -39.216689 -9.587124 15.915872
11595 12 1 -39.791182 -9.023070 15.322744
11596 12 1 -40.016504 -9.108879 16.293242
11597 12 1 -40.212849 -8.723496 17.194867
11598 12 1 -40.894526 -8.577099 17.911725
11599 12 1 -39.952983 -8.240253 17.905954
11600 12 1 -39.637173 -9.187629 17.853576
11601 12 1 -38.788201 -8.869194 17.431858
11602 12 1 -38.112758 -9.602643 17.508211
11603 12 1 -37.682115 -8.700227 17.494310
11604 12 1 -36.760191 -8.736293 17.108623
11605 12 1 -37.236854 -7.858197 17.150327
11606 12 1 -37.015360 -7.913252 16.176720
11607 12 1 -36.190428 -7.589096 15.713677
11608 12 1 -35.603583 -7.151469 15.032432
11609 12 1 -34.989267 -7.940353 15.015739
11610 12 1 -35.062601 -8.937100 15.049183
11611 12 1 -36.042525 -8.992356 15.240747
11612 12 1 -36.113772 -8.597090 14.324948
11613 12 1 -35.883893 -8.871970 13.391355
11614 12 1 -35.060874 -8.471176 12.988857
11615 12 1 -35.446434 -9.188187 12.408135
11616 12 1 -35.745001 -8.236537 12.480386
11617 12 1 -35.785485 -7.237493 12.496921
11618 12 1 -36.086155 -7.035941 11.564733
11619 12 1 -37.083693 -7.099809 11.535772
11620 12 1 -37.463414 -7.831674 10.969922
11621 12 1 -37.219135 -8.735443 11.321390
11622 12 1 -37.709698 -8.052031 11.862033
11623 12 1 -36.725246 -8.225587 11.889074
11624 12 1 -36.567743 -8.909860 12.601088
11625 12 1 -36.812956 -8.043473 13.036111
11626 12 1 -36.739037 -7.938418 14.027826
11627 12 1 -37.053569 -6.989182 14.023300
11628 12 1 -36.411314 -6.857393 14.778376
11629 12 1 -35.997415 -6.783596 13.871049
11630 12 1 -35.863189 -6.167558 13.094854
11631 12 1 -35.266933 -5.664757 13.720690
11632 12 1 -34.988644 -5.167337 12.899028
11633 12 1 -34.462370 -5.862378 13.388878
11634 12 1 -34.052152 -6.127327 14.261531
11635 12 1 -34.852720 -6.707486 14.111509
11636 12 1 -34.394013 -7.503659 13.716926
11637 12 1 -35.250284 -7.780914 14.152734
11638 12 1 -35.118548 -8.726830 13.856272
11639 12 1 -35.824947 -9.387235 14.110960
11640 12 1 -35.105482 -10.020418 14.396354
11641 12 1 -34.402133 -9.337568 14.593877
11642 12 1 -33.513360 -9.716658 14.336249
11643 12 1 -32.799949 -10.378660 14.566027
11644 12 1 -32.515426 -9.422719 14.493753
11645 12 1 -32.787509 -9.508625 15.452185
11646 12 1 -31.839537 -9.190302 15.447676
11647 12 1 -31.297543 -9.351883 14.622974
11648 12 1 -31.263222 -9.251564 13.628611
11649 12 1 -31.251220 -8.258476 13.745365
11650 12 1 -30.430759 -8.796262 13.939350
11651 12 1 -29.672443 -9.416883 13.739884
11652 12 1 -30.143401 -10.299028 13.735478
11653 12 1 -29.542160 -10.997036 13.346510
11654 12 1 -29.385728 -11.929850 13.671143
11655 12 1 -28.688461 -11.213671 13.701237
11656 12 1 -29.162579 -10.335380 13.639466
11657 12 1 -29.182525 -9.740944 12.835571
11658 12 1 -28.916828 -9.877216 11.881194
11659 12 1 -28.336754 -10.144420 11.111703
11660 12 1 -29.297978 -10.383362 10.974020
11661 12 1 -29.439997 -11.204342 11.527033
11662 12 1 -30.045561 -11.157773 12.321466
11663 12 1 -30.430150 -10.488568 11.685653
11664 12 1 -31.345107 -10.360649 11.302912
11665 12 1 -30.973020 -11.225224 10.965183
11666 12 1 -30.965745 -11.078419 9.976044
11667 12 1 -30.015318 -10.796716 9.844393
11668 12 1 -30.209477 -9.874148 10.177815
11669 12 1 -29.524842 -9.506013 10.806902
11670 12 1 -29.892741 -9.583510 11.733533
11671 12 1 -30.247447 -8.884105 11.113036
11672 12 1 -30.104101 -8.913526 10.123801
11673 12 1 -29.258087 -8.907166 9.590678
11674 12 1 -29.994763 -8.559302 9.010765
11675 12 1 -30.165301 -7.580163 8.900298
11676 12 1 -30.872369 -8.053690 8.375107
11677 12 1 -31.709322 -7.846163 7.868705
11678 12 1 -32.162118 -8.326069 8.620147
11679 12 1 -32.818792 -9.069799 8.495069
11680 12 1 -33.675317 -8.553737 8.501767
11681 12 1 -33.214445 -7.852642 9.045885
11682 12 1 -33.462441 -7.391801 8.193756
11683 12 1 -33.380611 -6.402694 8.071399
11684 12 1 -33.561168 -5.706900 7.376222
11685 12 1 -34.417941 -5.289953 7.072751
11686 12 1 -34.306011 -4.869546 6.172346
11687 12 1 -34.249747 -4.049301 6.741586
11688 12 1 -35.086087 -3.504388 6.681545
11689 12 1 -35.349888 -2.567505 6.452068
11690 12 1 -36.224636 -3.046470 6.378525
11691 12 1 -36.155004 -3.448485 5.465543
11692 12 1 -35.655565 -4.295708 5.646575
11693 12 1 -36.078451 -5.201844 5.637275
11694 12 1 -36.344294 -5.038792 4.687147
11695 12 1 -35.682842 -5.780447 4.798634
11696 12 1 -35.152352 -5.011189 5.154755
11697 12 1 -35.328520 -5.723301 5.834359
11698 12 1 -34.993303 -5.781905 6.774676
11699 12 1 -35.423733 -6.683117 6.724213
11700 12 1 -34.700669 -7.066783 7.298651
11701 12 1 -34.301473 -7.783177 7.870858
11702 12 1 -33.602281 -7.353773 7.299244
11703 12 1 -33.401458 -6.459669 6.898934
11704 12 1 -32.677459 -5.784907 6.755681
11705 12 1 -32.229939 -6.632869 7.039732
11706 12 1 -31.276293 -6.876644 6.863282
11707 12 1 -30.600063 -6.564223 6.196119
11708 12 1 -30.668788 -7.550583 6.345687
11709 12 1 -30.311807 -7.463479 5.415645
11710 12 1 -30.838091 -8.199339 5.841714
11711 12 1 -30.551576 -8.793533 6.593274
11712 12 1 -29.629873 -8.759222 6.979651
11713 12 1 -28.809309 -8.408851 6.528082
11714 12 1 -28.013520 -8.204637 5.957980
11715 12 1 -27.198952 -7.640099 6.091309
11716 12 1 -27.145364 -7.415483 5.118337
11717 12 1 -26.210910 -7.649366 5.386843
11718 12 1 -25.903786 -8.162963 6.188025
11719 12 1 -25.251491 -8.380948 5.462081
11720 12 1 -24.382370 -8.559844 5.000970
11721 12 1 -24.857723 -9.231769 5.568910
11722 12 1 -24.155368 -9.732672 5.063150
11723 12 1 -24.440441 -10.634737 4.739095
11724 12 1 -24.370131 -10.596622 3.742298
11725 12 1 -23.537432 -10.859143 3.254759
11726 12 1 -24.239412 -11.039107 2.565675
11727 12 1 -25.211777 -10.918700 2.765698
11728 12 1 -24.875871 -10.158287 2.209875
11729 12 1 -24.438633 -9.569405 1.530139
11730 12 1 -24.348518 -10.188402 0.749933
11731 12 1 -23.401369 -10.014619 1.019577
11732 12 1 -23.964699 -9.617014 0.295306
11733 12 1 -24.850149 -9.576510 -0.167662
11734 12 1 -25.032921 -8.770867 -0.731164
11735 12 1 -24.580177 -8.152198 -1.373248
11736 12 1 -24.397828 -7.950163 -0.410995
11737 12 1 -23.661757 -7.545298 -0.953474
11738 12 1 -22.936221 -7.166637 -1.528117
11739 12 1 -22.854140 -7.566096 -2.441186
11740 12 1 -22.777866 -6.774069 -3.046888
11741 12 1 -22.461350 -6.349610 -3.895211
11742 12 1 -22.665326 -7.165756 -4.435859
11743 12 1 -21.876405 -7.739555 -4.215954
11744 12 1 -21.546732 -7.955604 -5.134997
11745 12 1 -21.132085 -8.600656 -5.776850
11746 12 1 -21.575844 -9.191019 -6.451053
11747 12 1 -21.632087 -9.601869 -7.361020
11748 12 1 -20.690018 -9.878466 -7.171284
11749 12 1 -20.778339 -10.874307 -7.193673
11750 12 1 -21.257097 -11.190764 -8.012603
11751 12 1 -21.213511 -12.054753 -8.514224
11752 12 1 -20.793391 -11.224630 -8.880821
11753 12 1 -20.563090 -10.684354 -9.690182
11754 12 1 -21.550788 -10.575427 -9.802369
11755 12 1 -22.131076 -9.762376 -9.755307
11756 12 1 -22.800706 -10.476030 -9.549653
11757 12 1 -23.087646 -9.910664 -10.322975
11758 12 1 -23.839325 -10.373933 -9.853548
11759 12 1 -24.590993 -9.916834 -9.378096
11760 12 1 -23.749041 -9.399626 -9.531763
11761 12 1 -24.434814 -8.790676 -9.930379
11762 12 1 -23.826744 -8.106084 -9.528402
11763 12 1 -24.546178 -8.415153 -8.906395
11764 12 1 -23.890422 -8.772473 -8.241333
11765 12 1 -23.027517 -9.147561 -8.580013
11766 12 1 -23.632208 -9.807970 -8.134806
11767 12 1 -24.555223 -9.960629 -7.781623
11768 12 1 -25.262812 -9.522382 -8.335931
11769 12 1 -25.551000 -8.688683 -8.806988
11770 12 1 -26.446320 -8.443447 -8.435154
11771 12 1 -27.389427 -8.607009 -8.724630
11772 12 1 -27.592507 -9.236082 -9.474980
11773 12 1 -28.187892 -8.610672 -8.970620
11774 12 1 -28.159288 -9.539613 -8.601499
11775 12 1 -27.201616 -9.521690 -8.314198
11776 12 1 -27.318585 -8.958153 -7.496431
11777 12 1 -26.498541 -9.391236 -7.870551
11778 12 1 -26.188831 -8.564497 -7.400891
11779 12 1 -26.099170 -9.237897 -6.667070
11780 12 1 -25.764231 -8.834785 -5.815414
11781 12 1 -24.792599 -9.064619 -5.759667
11782 12 1 -24.837159 -9.699590 -6.530917
11783 12 1 -24.080316 -9.443187 -5.929713
11784 12 1 -24.261977 -8.507847 -6.233254
11785 12 1 -23.817313 -7.987678 -5.504078
11786 12 1 -24.710315 -8.110028 -5.070975
11787 12 1 -24.104351 -8.740063 -4.585318
11788 12 1 -24.114540 -9.467105 -3.898800
11789 12 1 -24.559618 -8.623704 -3.597835
11790 12 1 -24.535920 -8.948943 -2.652500
11791 12 1 -24.099951 -9.509657 -1.948560
11792 12 1 -24.527525 -9.596597 -1.048770
11793 12 1 -24.222609 -10.542534 -0.938181
11794 12 1 -23.574708 -10.302944 -0.215117
11795 12 1 -23.612220 -9.723134 -1.029005
11796 12 1 -23.102521 -10.249256 -1.709741
11797 12 1 -22.129302 -10.141570 -1.912840
11798 12 1 -22.186940 -10.918242 -1.285577
11799 12 1 -21.453558 -11.220264 -1.894621
11800 12 1 -20.528168 -10.875409 -2.051873
11801 12 1 -19.779385 -11.465397 -1.749815
11802 12 1 -18.911745 -11.018285 -1.967282
11803 12 1 -18.064988 -11.482595 -2.226935
11804 12 1 -17.442221 -11.248953 -1.480228
11805 12 1 -16.582217 -10.787946 -1.699010
11806 12 1 -16.646184 -10.344540 -0.804975
11807 12 1 -16.764220 -9.988240 -1.731861
11808 12 1 -17.338140 -10.155792 -2.533448
11809 12 1 -18.278714 -9.858407 -2.697403
11810 12 1 -17.710044 -9.849168 -3.519917
11811 12 1 -17.367945 -10.447518 -4.244448
11812 12 1 -17.466175 -11.026721 -5.053691
11813 12 1 -17.920209 -10.471916 -5.750861
11814 12 1 -17.249798 -10.178417 -6.432336
11815 12 1 -16.331865 -9.787645 -6.500866
11816 12 1 -15.911764 -9.335555 -7.287714
11817 12 1 -15.680850 -9.732531 -8.176020
11818 12 1 -15.930477 -9.541379 -9.125308
11819 12 1 -15.312637 -9.034772 -9.726659
11820 12 1 -14.626152 -8.905623 -9.011076
11821 12 1 -14.574773 -8.000708 -9.433556
11822 12 1 -14.693117 -8.170645 -10.411879
11823 12 1 -14.865653 -7.190792 -10.311280
11824 12 1 -15.649480 -7.639597 -10.740454
11825 12 1 -14.881934 -7.273681 -11.266742
11826 12 1 -14.601168 -7.409901 -12.216802
11827 12 1 -14.398038 -8.385709 -12.297651
11828 12 1 -13.533265 -8.689032 -12.697856
11829 12 1 -13.142557 -8.789507 -11.782842
11830 12 1 -12.894704 -8.041302 -12.398276
11831 12 1 -13.836785 -7.768900 -12.202621
11832 12 1 -14.185572 -7.897024 -13.131024
11833 12 1 -14.446770 -7.091812 -13.663385
11834 12 1 -14.299599 -6.309515 -14.268656
11835 12 1 -13.300956 -6.342297 -14.309127
11836 12 1 -12.702905 -5.564192 -14.501190
11837 12 1 -11.863639 -5.148553 -14.150655
11838 12 1 -10.902022 -4.879356 -14.097489
11839 12 1 -11.206272 -3.961575 -14.352656
11840 12 1 -11.881314 -4.398273 -13.758003
11841 12 1 -12.006196 -5.038608 -13.000128
11842 12 1 -11.770575 -5.856962 -13.524323
11843 12 1 -10.982454 -5.962735 -14.130687
11844 12 1 -10.870518 -6.819612 -13.627465
11845 12 1 -11.312323 -7.510299 -13.054961
11846 12 1 -11.515265 -8.175210 -13.773785
11847 12 1 -11.153165 -7.935559 -14.674590
11848 12 1 -11.079313 -7.275228 -15.421924
11849 12 1 -10.700428 -7.108664 -16.332255
11850 12 1 -10.744520 -6.485330 -15.551543
11851 12 1 -9.909916 -7.013585 -15.395392
11852 12 1 -9.368693 -6.479307 -16.044719
11853 12 1 -8.853883 -5.731825 -15.624907
11854 12 1 -7.970217 -5.595052 -16.072597
11855 12 1 -8.282971 -6.335917 -16.666992
11856 12 1 -8.202581 -5.363353 -16.885299
11857 12 1 -9.148513 -5.332393 -17.208184
11858 12 1 -9.926831 -4.720759 -17.350044
11859 12 1 -9.355713 -4.151912 -17.941853
11860 12 1 -9.253954 -3.157110 -17.938013
11861 12 1 -10.179141 -3.535929 -17.915113
11862 12 1 -10.391646 -2.907317 -17.166989
11863 12 1 -10.705846 -3.488263 -16.416137
11864 12 1 -10.272805 -3.874515 -15.601714
11865 12 1 -9.795775 -3.217592 -16.185575
11866 12 1 -8.991037 -2.626350 -16.238770
11867 12 1 -9.456377 -2.103124 -16.952699
11868 12 1 -9.149134 -1.194092 -17.234235
11869 12 1 -8.798531 -1.850248 -16.566001
11870 12 1 -8.707229 -0.873439 -16.372328
11871 12 1 -7.761099 -0.948568 -16.057378
11872 12 1 -7.922324 -0.856322 -17.039975
11873 12 1 -7.747414 0.127119 -17.087430
11874 12 1 -8.190004 0.739100 -17.742864
11875 12 1 -8.576146 0.531104 -16.844180
11876 12 1 -8.468740 -0.317804 -17.361694
11877 12 1 -7.965214 -0.926289 -17.975050
11878 12 1 -8.303229 -0.698687 -18.888255
11879 12 1 -8.876595 -1.150513 -18.204804
11880 12 1 -8.035655 -1.599799 -18.506403
11881 12 1 -7.084664 -1.516756 -18.208544
11882 12 1 -6.540822 -1.917095 -17.471004
11883 12 1 -6.747016 -2.882825 -17.313366
11884 12 1 -6.285539 -3.627509 -16.831199
11885 12 1 -7.211278 -3.545244 -17.200306
11886 12 1 -7.019102 -4.051069 -18.041263
11887 12 1 -6.427343 -3.990876 -18.845128
11888 12 1 -6.767916 -3.365951 -19.547608
11889 12 1 -6.139149 -3.230390 -18.781922
11890 12 1 -5.231091 -3.045838 -19.157916
11891 12 1 -5.229064 -3.984172 -19.503638
11892 12 1 -5.224924 -4.983804 -19.530440
11893 12 1 -4.834033 -5.333588 -20.381825
11894 12 1 -5.649541 -4.799154 -20.603923
11895 12 1 -5.771225 -5.686396 -21.048889
11896 12 1 -6.655587 -6.088220 -21.286465
11897 12 1 -7.266160 -6.736168 -21.741836
11898 12 1 -6.696070 -7.318429 -21.162208
11899 12 1 -6.163334 -6.630092 -21.654534
11900 12 1 -6.063561 -7.573013 -21.972255
11901 12 1 -5.511308 -8.403705 -21.901781
11902 12 1 -5.119316 -8.096953 -22.769102
11903 12 1 -4.239448 -8.326515 -23.185195
11904 12 1 -4.085665 -7.810135 -24.027634
11905 12 1 -3.908158 -8.621379 -24.584747
11906 12 1 -4.888514 -8.815406 -24.549297
11907 12 1 -4.792224 -7.820053 -24.548793
11908 12 1 -4.662428 -7.271506 -25.374777
11909 12 1 -5.553262 -7.704589 -25.512087
11910 12 1 -5.428634 -7.366439 -26.444891
11911 12 1 -6.136662 -7.580688 -27.117791
11912 12 1 -6.832119 -7.507508 -26.402960
11913 12 1 -7.066099 -7.398737 -27.369098
11914 12 1 -6.542147 -6.762560 -26.802747
11915 12 1 -6.855258 -5.814909 -26.740141
11916 12 1 -7.164066 -6.328188 -27.540880
11917 12 1 -7.707481 -6.073600 -28.340808
11918 12 1 -7.315993 -5.161574 -28.463064
11919 12 1 -7.495229 -4.206016 -28.229008
11920 12 1 -7.753040 -5.023604 -27.714145
11921 12 1 -6.803654 -4.738668 -27.581943
11922 12 1 -7.304790 -4.765554 -26.716992
11923 12 1 -8.057164 -4.131040 -26.893981
11924 12 1 -8.802727 -3.854541 -27.500350
11925 12 1 -8.183629 -3.396600 -28.138321
11926 12 1 -7.585131 -3.595617 -28.914332
11927 12 1 -7.323394 -3.010565 -29.681931
11928 12 1 -8.135301 -2.803375 -29.136148
11929 12 1 -7.270143 -2.384939 -28.859718
11930 12 1 -7.565064 -1.964860 -29.717946
11931 12 1 -7.979875 -2.210321 -30.594120
11932 12 1 -8.559845 -2.183852 -31.408328
11933 12 1 -9.164728 -1.524980 -30.961110
11934 12 1 -9.609326 -1.711618 -30.085040
11935 12 1 -9.624214 -2.625280 -29.678837
11936 12 1 -10.142320 -3.397831 -29.311780
11937 12 1 -10.372588 -2.445426 -29.112030
11938 12 1 -9.879004 -2.726509 -28.289007
11939 12 1 -10.577847 -3.416757 -28.101453
11940 12 1 -9.739624 -3.706017 -28.563742
11941 12 1 -9.239826 -3.593591 -29.422557
11942 12 1 -9.493383 -4.552596 -29.549121
11943 12 1 -9.987151 -5.186212 -28.953535
11944 12 1 -9.231246 -4.663014 -28.559997
11945 12 1 -8.443194 -5.274898 -28.492373
11946 12 1 -9.050336 -5.852389 -29.038160
11947 12 1 -8.981889 -6.729866 -29.512869
11948 12 1 -8.968100 -7.060128 -28.569081
11949 12 1 -9.727113 -7.230124 -27.940590
11950 12 1 -9.148189 -7.297845 -27.128025
11951 12 1 -9.713497 -6.859778 -26.429080
11952 12 1 -9.758495 -6.439781 -27.335489
11953 12 1 -10.643210 -6.759614 -27.674587
11954 12 1 -10.180273 -7.521660 -27.221846
11955 12 1 -9.939263 -8.481802 -27.363414
11956 12 1 -10.902964 -8.725770 -27.254976
11957 12 1 -11.357235 -8.474873 -26.400173
11958 12 1 -10.392617 -8.732691 -26.455323
11959 12 1 -11.188376 -9.325885 -26.577343
11960 12 1 -11.090223 -10.103991 -27.197760
11961 12 1 -11.986215 -10.515385 -27.030566
11962 12 1 -12.664046 -9.949143 -26.561615
11963 12 1 -13.339006 -10.397565 -27.147573
11964 12 1 -13.230988 -10.820720 -26.247978
11965 12 1 -12.558380 -10.861233 -25.509088
11966 12 1 -12.973896 -9.967619 -25.339379
11967 12 1 -12.839804 -8.977853 -25.290568
11968 12 1 -13.303215 -8.442901 -24.584114
11969 12 1 -13.137084 -8.217581 -25.544131
11970 12 1 -13.635165 -7.389131 -25.800229
11971 12 1 -14.133406 -7.459549 -24.936055
11972 12 1 -14.403214 -7.962266 -25.757321
11973 12 1 -13.838280 -8.785345 -25.815556
11974 12 1 -14.032427 -8.519479 -26.759813
11975 12 1 -13.438269 -7.724318 -26.638590
11976 12 1 -12.463678 -7.810361 -26.431785
11977 12 1 -12.597164 -6.819472 -26.449704
11978 12 1 -13.384615 -6.461631 -25.947838
11979 12 1 -13.417233 -6.763408 -24.995018
11980 12 1 -12.601873 -6.422263 -25.462787
11981 12 1 -11.621337 -6.618575 -25.466064
11982 12 1 -11.256081 -5.687668 -25.464714
11983 12 1 -11.243008 -6.172643 -26.339145
11984 12 1 -10.741203 -5.324114 -26.507044
11985 12 1 -11.181739 -4.432558 -26.401895
11986 12 1 -10.597540 -3.843822 -25.843235
11987 12 1 -9.944455 -4.533093 -25.529572
11988 12 1 -9.495395 -3.992102 -26.240679
11989 12 1 -9.162685 -4.760209 -26.787777
11990 12 1 -9.204776 -5.575819 -27.364846
11991 12 1 -8.312786 -5.423304 -26.939295
11992 12 1 -7.971189 -6.227183 -26.452375
11993 12 1 -7.155975 -6.343306 -25.884976
11994 12 1 -7.921406 -5.704781 -25.804967
11995 12 1 -7.857205 -6.339528 -25.034918
11996 12 1 -8.036599 -7.214678 -24.585552
11997 12 1 -8.287084 -8.169625 -24.426387
11998 12 1 -8.093394 -8.838794 -25.143811
11999 12 1 -8.671216 -9.591269 -25.459886
12000 12 1 -8.827205 -9.705622 -24.478768
12001 13 1 34.831626 10.408438 58.394526
12002 13 1 34.087915 10.887614 58.860664
12003 13 1 33.469471 11.670959 58.798232
12004 13 1 34.273863 12.219430 59.026557
12005 13 1 35.226797 12.228094 59.329611
12006 13 1 35.305689 11.828602 60.242947
12007 13 1 35.536393 10.867697 60.089852
12008 13 1 35.676173 10.483660 61.002527
12009 13 1 35.046912 11.259959 60.965235
12010 13 1 34.368768 11.131601 61.688868
12011 13 1 33.439768 10.915806 61.989522
12012 13 1 33.710217 9.953905 62.029575
12013 13 1 34.382081 9.340587 61.614317
12014 13 1 34.464659 10.254823 62.010994
12015 13 1 35.303272 9.756527 61.790927
12016 13 1 34.573808 10.002884 61.152813
12017 13 1 33.644277 10.300335 60.934877
12018 13 1 33.076315 9.925124 60.202323
12019 13 1 33.789073 10.626529 60.199607
12020 13 1 33.253866 11.471243 60.202863
12021 13 1 34.126962 11.932333 60.044433
12022 13 1 33.694879 12.788574 60.327548
12023 13 1 33.725063 12.808858 61.326886
12024 13 1 33.719958 11.814009 61.428120
12025 13 1 33.659056 12.033518 62.401828
12026 13 1 33.973730 12.464122 63.247736
12027 13 1 33.320971 12.378849 64.000486
12028 13 1 32.936797 12.694852 63.132988
12029 13 1 32.954076 13.469786 62.501183
12030 13 1 33.613538 14.118699 62.880686
12031 13 1 33.975382 14.501433 63.730735
12032 13 1 33.384942 15.121164 64.247759
12033 13 1 32.949531 15.983427 64.506449
12034 13 1 32.421608 15.447722 65.165477
12035 13 1 31.645734 16.037673 65.389035
12036 13 1 30.824060 15.668284 65.823091
12037 13 1 31.165091 15.307037 64.955221
12038 13 1 31.380983 14.334503 64.868225
12039 13 1 31.426759 13.475059 64.359049
12040 13 1 32.387026 13.483052 64.080078
12041 13 1 32.458673 14.444319 64.346220
12042 13 1 31.860258 14.466269 63.545334
12043 13 1 32.664159 15.016277 63.771684
12044 13 1 32.148039 15.176794 62.930343
12045 13 1 32.817501 14.831085 62.272844
12046 13 1 33.807548 14.971747 62.268413
12047 13 1 33.146153 15.254244 61.573609
12048 13 1 33.448642 16.049525 61.048224
12049 13 1 33.433411 16.621593 60.228159
12050 13 1 33.752744 16.898168 61.134543
12051 13 1 33.959175 17.541829 60.397600
12052 13 1 34.404780 16.795960 59.902508
12053 13 1 35.350447 16.607789 59.637357
12054 13 1 34.922429 16.867034 58.771568
12055 13 1 34.461048 17.713564 59.037115
12056 13 1 35.205581 18.259117 59.421878
12057 13 1 35.901151 17.936719 60.063939
12058 13 1 36.625511 17.528227 59.508567
12059 13 1 37.480744 17.886963 59.134556
12060 13 1 38.397121 17.709465 59.493371
12061 13 1 37.704427 17.684085 60.214156
12062 13 1 37.221247 18.230537 60.898209
12063 13 1 37.892269 18.971929 60.906488
12064 13 1 37.569204 18.961660 59.960167
12065 13 1 36.629577 18.758988 59.684442
12066 13 1 36.603005 19.758308 59.658878
12067 13 1 36.154182 20.565585 60.042105
12068 13 1 37.086854 20.572394 59.681442
12069 13 1 37.190288 21.029545 60.564796
12070 13 1 37.598045 21.537673 61.323439
12071 13 1 36.704544 21.825011 60.978342
12072 13 1 37.137018 22.720012 61.087605
12073 13 1 36.200130 22.653593 61.430870
12074 13 1 36.471255 23.173601 62.240859
12075 13 1 37.166676 23.744014 62.677917
12076 13 1 38.131572 23.735688 62.415419
12077 13 1 38.270708 24.518767 63.021578
12078 13 1 37.592604 24.753224 63.718145
12079 13 1 37.032222 23.926271 63.672102
12080 13 1 36.654589 23.655925 64.557713
12081 13 1 37.288751 23.150188 65.142580
12082 13 1 37.760916 23.929479 64.730554
12083 13 1 38.171850 23.364085 64.015387
12084 13 1 38.879876 23.296380 63.312455
12085 13 1 39.476730 23.677325 62.606306
12086 13 1 40.166510 23.973414 61.945598
12087 13 1 40.401378 23.696909 61.013728
12088 13 1 40.960089 23.234736 60.325078
12089 13 1 41.251249 22.706863 61.122936
12090 13 1 42.119060 22.815501 61.607809
12091 13 1 41.669528 23.690952 61.785308
12092 13 1 40.915715 24.273061 62.090128
12093 13 1 40.205775 24.415018 62.779935
12094 13 1 39.556908 24.232347 63.518584
12095 13 1 40.358595 23.652531 63.373288
12096 13 1 41.079195 24.072553 63.924938
12097 13 1 41.170220 23.089861 63.763595
12098 13 1 40.498424 22.554454 63.251708
12099 13 1 41.212944 22.913716 62.651381
12100 13 1 40.660511 22.271783 62.119648
12101 13 1 40.256948 21.469286 61.680178
12102 13 1 39.565203 22.184512 61.580481
12103 13 1 38.853720 22.277869 62.276956
12104 13 1 38.959282 21.669923 63.063886
12105 13 1 38.056532 21.524689 62.658979
12106 13 1 37.074508 21.621444 62.496904
12107 13 1 37.447828 21.264850 63.353334
12108 13 1 37.371074 20.497653 63.990137
12109 13 1 38.266296 20.797572 63.660553
12110 13 1 39.216771 21.094222 63.753274
12111 13 1 40.044345 21.599033 63.507741
12112 13 1 40.877827 21.192551 63.133469
12113 13 1 41.386010 20.846041 62.345001
12114 13 1 41.501862 19.873826 62.548408
12115 13 1 42.279726 19.795064 63.171886
12116 13 1 41.686254 20.182624 63.877285
12117 13 1 40.996205 19.462467 63.805132
12118 13 1 41.956357 19.203964 63.698904
12119 13 1 41.463411 18.347622 63.852791
12120 13 1 42.070264 17.574840 63.666949
12121 13 1 41.987371 16.587090 63.534736
12122 13 1 42.841560 16.105726 63.338141
12123 13 1 42.960003 17.024136 63.715625
12124 13 1 43.045579 16.537371 64.584956
12125 13 1 42.688842 15.650213 64.877684
12126 13 1 42.319894 15.987275 65.743863
12127 13 1 42.042162 16.945811 65.680041
12128 13 1 41.608570 16.113174 65.335493
12129 13 1 41.185479 16.236983 66.233082
12130 13 1 41.700639 15.463308 66.601912
12131 13 1 41.521259 16.239809 67.205955
12132 13 1 41.376372 15.303185 67.524926
12133 13 1 40.748488 14.749850 68.072267
12134 13 1 40.098286 13.990316 68.053688
12135 13 1 39.654274 13.668245 68.889824
12136 13 1 40.631772 13.630700 68.682248
12137 13 1 40.179091 13.800614 69.557582
12138 13 1 39.198813 13.987636 69.493729
12139 13 1 38.515006 13.593049 68.879963
12140 13 1 38.984556 14.447394 68.657212
12141 13 1 38.260207 15.063104 68.347020
12142 13 1 39.074630 15.630364 68.469213
12143 13 1 39.608631 15.124900 69.146966
12144 13 1 40.504900 15.553934 69.259356
12145 13 1 40.673089 15.452914 70.239921
12146 13 1 40.987701 16.146214 70.888269
12147 13 1 41.486203 16.963858 71.176286
12148 13 1 41.486970 16.342651 71.959932
12149 13 1 40.725966 16.074976 72.550884
12150 13 1 39.856611 16.166129 72.065175
12151 13 1 40.179594 17.008169 72.497206
12152 13 1 40.034281 17.478317 71.626663
12153 13 1 39.976455 17.177110 70.674859
12154 13 1 39.106586 17.399354 71.115240
12155 13 1 39.052470 18.114103 70.417956
12156 13 1 39.993875 18.180151 70.087208
12157 13 1 40.966417 17.962585 70.004583
12158 13 1 40.395914 17.667378 69.238175
12159 13 1 39.820038 17.925486 68.462452
12160 13 1 40.654517 18.382755 68.769942
12161 13 1 40.184690 18.947004 68.091056
12162 13 1 39.476833 19.439105 68.597787
12163 13 1 39.278327 18.474320 68.770375
12164 13 1 38.774319 18.106835 69.551995
12165 13 1 38.552873 17.571655 68.736800
12166 13 1 38.019836 17.281981 67.941840
12167 13 1 38.409786 17.019370 67.059245
12168 13 1 38.696459 16.721694 67.969854
12169 13 1 38.134408 16.863278 68.784748
12170 13 1 38.854157 16.971454 69.470503
12171 13 1 38.005066 16.578797 69.823865
12172 13 1 37.365099 16.637787 70.590000
12173 13 1 37.124773 17.267301 71.328888
12174 13 1 37.859975 17.381616 70.660749
12175 13 1 37.760402 16.627516 71.309918
12176 13 1 38.553928 16.339256 70.773986
12177 13 1 39.088543 16.322140 71.618908
12178 13 1 38.228207 16.546304 72.076698
12179 13 1 37.703770 17.209198 72.611055
12180 13 1 37.163596 16.417505 72.896421
12181 13 1 36.624162 15.601044 72.690501
12182 13 1 35.765860 16.098843 72.815056
12183 13 1 35.847824 15.869590 71.845146
12184 13 1 36.304053 14.996631 71.672527
12185 13 1 35.470933 14.452422 71.771261
12186 13 1 34.972660 14.151064 70.958300
12187 13 1 34.596697 14.760259 71.656536
12188 13 1 35.134911 15.158608 70.913809
12189 13 1 35.543813 15.806462 70.271093
12190 13 1 36.159925 16.244403 69.616407
12191 13 1 36.731040 16.461825 68.824854
12192 13 1 36.827176 17.262827 69.415746
12193 13 1 37.735648 17.524285 69.741810
12194 13 1 37.016592 18.030979 70.217434
12195 13 1 36.877301 18.929483 69.801155
12196 13 1 36.703802 18.657969 68.854488
12197 13 1 37.166169 19.107673 68.090301
12198 13 1 38.149109 19.260756 68.192260
12199 13 1 38.429050 19.311305 69.150946
12200 13 1 38.839028 20.100894 69.607527
12201 13 1 38.653380 19.944751 68.637396
12202 13 1 38.316899 20.840461 68.928060
12203 13 1 38.402032 21.812774 68.710440
12204 13 1 38.463787 21.904608 67.716582
12205 13 1 38.799662 22.456997 66.953657
12206 13 1 39.627033 22.331169 66.406277
12207 13 1 39.215612 22.951047 65.738083
12208 13 1 40.186997 22.810535 65.546593
12209 13 1 40.593709 21.898893 65.487483
12210 13 1 40.605321 20.911330 65.644278
12211 13 1 39.639670 20.827352 65.890176
12212 13 1 39.274200 20.537687 66.774782
12213 13 1 39.870299 19.758080 66.582745
12214 13 1 39.085389 19.830162 67.198148
12215 13 1 39.239561 20.755245 67.545211
12216 13 1 40.224653 20.816837 67.705832
12217 13 1 40.467109 21.453795 66.974054
12218 13 1 41.331203 21.947782 67.070579
12219 13 1 42.017157 22.609725 67.372735
12220 13 1 42.696875 22.674345 68.103357
12221 13 1 43.690382 22.561840 68.086414
12222 13 1 44.448483 22.307857 67.485768
12223 13 1 44.043100 23.214076 67.605902
12224 13 1 43.788556 22.862030 66.705196
12225 13 1 43.570948 23.775946 67.047840
12226 13 1 43.701966 24.509476 66.380931
12227 13 1 44.244461 25.347385 66.320868
12228 13 1 43.919744 26.250071 66.603210
12229 13 1 43.260178 26.648814 67.240373
12230 13 1 43.778743 27.058142 66.489680
12231 13 1 43.989019 27.620893 67.289114
12232 13 1 43.477549 27.855183 68.115859
12233 13 1 43.470770 28.703299 68.645626
12234 13 1 44.304566 28.767197 69.193988
12235 13 1 44.357499 27.772508 69.105712
12236 13 1 43.867170 27.190919 69.754812
12237 13 1 43.369484 28.038722 69.937951
12238 13 1 43.159353 28.749578 70.609165
12239 13 1 42.179405 28.791835 70.414443
12240 13 1 42.162569 28.060731 69.732384
12241 13 1 42.618673 27.544184 69.007712
12242 13 1 42.771325 27.415145 69.987532
12243 13 1 41.772724 27.393429 70.035747
12244 13 1 41.458907 27.331485 70.983208
12245 13 1 41.802656 28.268829 71.039980
12246 13 1 42.528632 28.611744 71.636108
12247 13 1 41.727987 28.201334 72.072608
12248 13 1 41.551812 27.251470 72.330911
12249 13 1 40.865709 26.736169 72.844454
12250 13 1 40.626880 27.399208 73.553919
12251 13 1 41.446787 27.827593 73.174133
12252 13 1 41.855955 28.594183 73.669028
12253 13 1 40.975948 28.496717 74.133881
12254 13 1 40.078140 28.141986 73.872909
12255 13 1 40.483085 28.284510 74.776074
12256 13 1 40.690119 27.855037 75.655101
12257 13 1 40.500760 27.910158 76.635461
12258 13 1 39.724175 27.338302 76.371081
12259 13 1 40.110492 26.639649 76.973278
12260 13 1 40.354037 25.669952 76.992624
12261 13 1 41.150064 25.845438 77.571888
12262 13 1 42.053374 26.135054 77.888356
12263 13 1 42.248247 26.061538 78.866426
12264 13 1 42.139571 25.760255 79.813748
12265 13 1 41.966424 24.912809 79.311896
12266 13 1 41.233478 25.157679 79.946583
12267 13 1 40.241269 25.033330 79.954242
12268 13 1 39.908095 24.369442 80.623755
12269 13 1 40.878473 24.132020 80.579053
12270 13 1 41.088548 24.615769 81.428673
12271 13 1 40.880698 24.581744 82.406242
12272 13 1 41.158033 25.524118 82.593369
12273 13 1 41.544877 25.014528 83.361920
12274 13 1 41.704935 24.127787 83.795593
12275 13 1 41.375407 23.471908 84.474734
12276 13 1 41.902288 22.636206 84.319817
12277 13 1 42.812075 22.440995 84.686124
12278 13 1 42.254817 23.181654 85.061475
12279 13 1 41.530586 23.436398 85.702251
12280 13 1 42.215656 23.863412 86.292452
12281 13 1 42.908535 24.424295 86.745585
12282 13 1 43.311696 24.027165 85.921116
12283 13 1 43.618743 23.872040 86.860083
12284 13 1 43.936053 24.568512 87.503699
12285 13 1 43.009076 24.913836 87.650205
12286 13 1 43.410253 25.229344 88.510154
12287 13 1 42.603767 24.730269 88.827180
12288 13 1 42.819038 23.886879 88.334888
12289 13 1 43.048038 23.127501 88.943907
12290 13 1 43.583758 23.873341 89.339794
12291 13 1 42.595677 24.010817 89.270535
12292 13 1 41.985911 23.421251 88.740820
12293 13 1 42.060988 22.713038 88.038825
12294 13 1 41.709100 21.898787 87.577121
12295 13 1 41.101670 22.669130 87.771025
12296 13 1 40.834939 23.313254 88.487935
12297 13 1 41.169778 22.373225 88.552971
12298 13 1 40.717994 21.484792 88.634078
12299 13 1 39.867079 21.796408 89.056971
12300 13 1 39.770439 21.751122 90.051260
12301 13 1 40.571675 21.201724 90.288287
12302 13 1 40.083605 20.405237 90.645214
12303 13 1 39.588534 19.571580 90.400427
12304 13 1 38.882889 19.906330 91.024934
12305 13 1 39.225188 18.981694 91.191908
12306 13 1 40.222929 19.044224 91.216463
12307 13 1 40.041965 18.663528 92.123283
12308 13 1 40.233457 19.104664 93.000055
12309 13 1 40.654638 19.072336 93.906456
12310 13 1 41.214322 18.290249 94.180488
12311 13 1 42.077150 18.759906 94.367442
12312 13 1 41.948005 19.340591 93.563622
12313 13 1 42.575475 19.864870 92.987937
12314 13 1 42.880005 20.434273 92.224366
12315 13 1 43.045114 19.904894 91.392202
12316 13 1 44.012559 19.990541 91.154052
12317 13 1 44.867796 20.381475 91.494258
12318 13 1 44.525838 19.467630 91.713241
12319 13 1 44.387932 18.570326 92.132558
12320 13 1 44.647540 19.190034 92.873210
12321 13 1 45.314209 19.851574 92.529819
12322 13 1 45.970786 19.539184 93.216345
12323 13 1 45.229343 19.464682 93.883212
12324 13 1 44.732360 18.991156 94.610385
12325 13 1 45.416007 18.290676 94.405554
12326 13 1 45.218381 17.382426 94.036738
12327 13 1 45.755126 16.663393 94.478209
12328 13 1 46.299063 17.356464 94.005150
12329 13 1 46.738001 17.707732 94.832159
12330 13 1 46.299162 16.859423 95.128457
12331 13 1 46.227794 16.252528 95.920029
12332 13 1 47.123230 16.130674 96.348218
12333 13 1 46.471468 15.759392 97.009546
12334 13 1 47.163386 15.272275 97.542430
12335 13 1 47.118218 14.296949 97.326330
12336 13 1 46.685857 14.122258 96.441713
12337 13 1 47.322803 13.353557 96.500012
12338 13 1 47.606069 14.293499 96.309565
12339 13 1 47.414310 14.475342 95.345116
12340 13 1 47.158520 15.219966 94.728587
12341 13 1 46.597486 14.873985 93.976565
12342 13 1 46.852129 14.165657 93.318213
12343 13 1 46.242138 13.581079 93.853169
12344 13 1 47.217663 13.618863 94.069787
12345 13 1 46.863042 12.771841 93.673809
12346 13 1 46.139366 13.112884 93.073823
12347 13 1 46.577992 12.219089 93.167295
12348 13 1 45.675000 11.789478 93.173551
12349 13 1 44.826729 12.300171 93.033451
12350 13 1 44.249437 11.722781 92.456082
12351 13 1 43.942370 12.376552 93.147670
12352 13 1 43.301683 12.244116 93.903964
12353 13 1 42.792657 11.977774 94.722471
12354 13 1 42.274577 11.507469 95.436899
12355 13 1 41.837688 11.220747 94.584305
12356 13 1 41.651845 10.238649 94.615069
12357 13 1 41.009761 10.535698 93.908322
12358 13 1 41.839594 10.027719 93.677382
12359 13 1 40.961355 9.551416 93.634592
12360 13 1 41.407053 9.033554 94.364778
12361 13 1 41.665780 9.334374 95.282693
12362 13 1 42.353484 9.767297 95.865480
12363 13 1 42.289717 8.778682 95.729188
12364 13 1 42.368448 7.783019 95.679627
12365 13 1 42.831660 7.511184 96.523156
12366 13 1 42.921152 6.555304 96.802950
12367 13 1 42.103216 6.703833 96.247144
12368 13 1 41.559773 5.919013 95.949271
12369 13 1 41.270486 5.071064 96.393450
12370 13 1 41.764831 5.413920 97.192244
12371 13 1 42.462114 5.877500 96.645537
12372 13 1 42.439683 5.663739 95.668908
12373 13 1 42.277150 4.930533 95.008611
12374 13 1 41.792696 5.401518 94.271402
12375 13 1 41.385793 5.131064 93.398886
12376 13 1 41.884998 4.565193 94.055076
12377 13 1 42.176194 3.665355 94.379876
12378 13 1 41.281425 3.234328 94.496515
12379 13 1 40.975591 3.051591 93.562131
12380 13 1 41.484165 3.910851 93.507131
12381 13 1 41.502628 3.420833 92.635615
12382 13 1 40.536214 3.365997 92.384545
12383 13 1 41.232376 3.926467 91.935957
12384 13 1 41.503905 4.732098 92.462484
12385 13 1 41.846027 4.610819 91.530688
12386 13 1 41.518895 4.735532 90.593975
12387 13 1 42.353039 4.211064 90.423280
12388 13 1 42.515011 5.190931 90.306550
12389 13 1 42.111684 5.535226 91.154364
12390 13 1 42.651415 5.493957 91.995189
12391 13 1 42.388377 4.930894 92.778625
12392 13 1 43.365322 5.089259 92.635453
12393 13 1 43.901585 4.338611 92.249513
12394 13 1 44.466789 5.159796 92.328247
12395 13 1 45.116985 4.848281 91.635280
12396 13 1 44.118400 4.859692 91.583342
12397 13 1 44.464580 3.922387 91.543098
12398 13 1 43.483403 4.075502 91.425426
12399 13 1 42.851369 3.879634 92.175206
12400 13 1 42.312534 3.289488 91.574053
12401 13 1 42.259781 3.217898 90.578015
12402 13 1 43.142660 3.626713 90.346941
12403 13 1 43.447539 2.827318 89.829239
12404 13 1 43.795044 2.237939 90.558535
12405 13 1 44.449543 2.775821 91.089867
12406 13 1 43.543952 2.677122 91.502374
12407 13 1 42.839001 2.565899 92.202855
12408 13 1 42.104115 2.176921 92.758408
12409 13 1 42.337673 1.683040 91.920833
12410 13 1 41.514151 1.209097 91.609079
12411 13 1 40.574443 1.449739 91.366096
12412 13 1 39.943933 1.740926 92.085587
12413 13 1 40.680049 1.986219 92.716431
12414 13 1 39.811887 1.664313 93.094150
12415 13 1 39.596101 2.333254 93.805454
12416 13 1 39.492830 3.074301 94.468918
12417 13 1 40.255820 3.718242 94.412473
12418 13 1 40.703896 4.543511 94.756217
12419 13 1 40.798925 4.703926 93.773752
12420 13 1 40.229314 4.940491 92.986618
12421 13 1 39.786715 4.301024 92.357978
12422 13 1 39.779025 3.528150 92.992491
12423 13 1 39.085998 4.238425 93.115874
12424 13 1 38.307238 3.616557 93.198412
12425 13 1 37.662048 3.674904 92.436621
12426 13 1 36.705117 3.938633 92.557992
12427 13 1 36.975834 3.516281 93.423053
12428 13 1 37.624110 2.818312 93.727317
12429 13 1 37.258177 2.419737 92.886347
12430 13 1 37.203017 2.019061 93.800904
12431 13 1 37.059495 1.266389 93.158343
12432 13 1 37.785710 1.436200 93.824508
12433 13 1 38.088229 0.509853 93.600090
12434 13 1 38.477336 0.265947 92.711773
12435 13 1 38.610604 -0.507935 93.330923
12436 13 1 38.032304 -1.109939 92.780324
12437 13 1 38.851611 -0.655680 92.430487
12438 13 1 38.559175 -1.602004 92.292816
12439 13 1 38.821345 -1.810814 93.234976
12440 13 1 39.495637 -2.369348 93.718060
12441 13 1 40.273889 -2.894312 93.373477
12442 13 1 40.782436 -3.307253 94.129030
12443 13 1 40.255643 -4.156603 94.095973
12444 13 1 40.802252 -4.634652 93.408450
12445 13 1 41.113549 -4.037386 92.669283
12446 13 1 41.313309 -3.192313 92.173352
12447 13 1 41.087959 -2.392830 91.616535
12448 13 1 40.089053 -2.406792 91.661174
12449 13 1 39.173225 -2.006537 91.693653
12450 13 1 39.468231 -1.079961 91.926951
12451 13 1 39.857309 -1.076509 91.005752
12452 13 1 40.455242 -1.845605 90.779993
12453 13 1 39.481078 -1.984956 90.602272
12454 13 1 39.421672 -2.708456 89.914509
12455 13 1 38.450008 -2.818905 89.705537
12456 13 1 37.925196 -3.246899 88.969742
12457 13 1 38.179975 -4.041208 88.418235
12458 13 1 38.840882 -3.696022 87.751864
12459 13 1 39.284434 -4.562017 87.520966
12460 13 1 39.995311 -3.972895 87.136793
12461 13 1 39.305657 -4.196937 86.448184
12462 13 1 39.304159 -5.195226 86.389731
12463 13 1 39.784287 -5.698298 85.671124
12464 13 1 40.644490 -5.522517 86.149823
12465 13 1 40.053411 -6.069614 86.742538
12466 13 1 39.377521 -6.602289 87.251880
12467 13 1 38.613311 -7.235568 87.374112
12468 13 1 38.254298 -6.511526 87.963071
12469 13 1 37.262853 -6.605010 88.054167
12470 13 1 36.530772 -7.257267 87.857653
12471 13 1 36.810224 -6.449604 87.338436
12472 13 1 36.038799 -5.830937 87.487282
12473 13 1 36.109513 -4.859148 87.712281
12474 13 1 35.915656 -5.342730 88.565843
12475 13 1 35.225412 -5.251097 89.283594
12476 13 1 34.431691 -5.173265 88.680313
12477 13 1 33.446778 -5.058879 88.550453
12478 13 1 32.626980 -4.506971 88.703193
12479 13 1 32.373373 -3.568194 88.469996
12480 13 1 31.581932 -2.957237 88.488784
12481 13 1 31.257864 -3.801567 88.915499
12482 13 1 30.400398 -4.234702 88.637748
12483 13 1 31.207351 -4.597795 89.103569
12484 13 1 30.497007 -4.016392 89.500282
12485 13 1 30.766253 -3.341561 90.187385
12486 13 1 30.750537 -4.340401 90.232896
12487 13 1 31.081664 -4.593174 91.141995
12488 13 1 31.790809 -4.954839 91.747232
12489 13 1 32.514912 -4.265580 91.722809
12490 13 1 32.751666 -3.454104 92.257088
12491 13 1 32.579178 -2.471186 92.321270
12492 13 1 32.460398 -1.488181 92.181295
12493 13 1 31.777679 -0.807213 92.446205
12494 13 1 31.591061 -1.570977 91.828275
12495 13 1 30.607556 -1.610149 92.004863
12496 13 1 31.046782 -2.466136 92.277564
12497 13 1 31.859043 -2.976718 91.995539
12498 13 1 31.927790 -3.624835 92.753971
12499 13 1 32.038928 -4.530394 93.163373
12500 13 1 31.865310 -5.313439 93.760615
12501 13 1 31.656283 -6.151769 93.257119
12502 13 1 31.461655 -5.341266 92.704665
12503 13 1 30.748331 -4.898977 93.248308
12504 13 1 30.818366 -5.526687 94.023598
12505 13 1 30.520809 -6.470416 93.879257
12506 13 1 31.139368 -6.914925 93.231339
12507 13 1 30.944690 -7.548042 92.482165
12508 13 1 31.912916 -7.729141 92.309702
12509 13 1 32.584344 -8.059255 92.973184
12510 13 1 32.785045 -8.339983 93.911752
12511 13 1 32.092054 -9.058652 93.969016
12512 13 1 31.879846 -9.212792 93.004024
12513 13 1 31.137560 -9.637830 92.485995
12514 13 1 31.535888 -8.940779 91.889794
12515 13 1 31.276895 -8.941090 90.923914
12516 13 1 32.216537 -8.701876 90.679270
12517 13 1 33.056922 -8.844169 90.156293
12518 13 1 33.044949 -8.033165 89.571374
12519 13 1 32.475836 -7.255539 89.304149
12520 13 1 32.881637 -6.390158 89.010142
12521 13 1 33.099426 -6.995430 88.244496
12522 13 1 33.951756 -6.639099 87.861662
12523 13 1 33.635739 -7.269119 87.152290
12524 13 1 33.885308 -7.415020 88.109593
12525 13 1 33.169023 -7.730195 88.732169
12526 13 1 33.251039 -7.162150 89.551070
12527 13 1 34.058257 -6.578322 89.637918
12528 13 1 34.201262 -6.271873 90.579002
12529 13 1 34.329819 -7.258805 90.676154
12530 13 1 34.170788 -7.988774 90.011433
12531 13 1 33.980036 -8.652679 90.734512
12532 13 1 34.969409 -8.518438 90.790370
12533 13 1 35.436363 -7.897459 91.419925
12534 13 1 35.644179 -6.975210 91.093937
12535 13 1 36.106306 -7.625600 90.491084
12536 13 1 36.912430 -7.843893 89.941072
12537 13 1 37.628032 -8.148560 89.312509
12538 13 1 37.383348 -7.269848 88.902638
12539 13 1 37.620219 -6.791210 89.748096
12540 13 1 37.556135 -6.268357 88.898085
12541 13 1 38.545281 -6.141570 88.823828
12542 13 1 38.989799 -5.309406 88.492305
12543 13 1 38.056355 -5.051986 88.742137
12544 13 1 37.483371 -5.192354 89.549594
12545 13 1 38.462828 -5.308548 89.384783
12546 13 1 37.938325 -4.491691 89.624869
12547 13 1 37.907605 -3.780078 90.326769
12548 13 1 37.691004 -4.599533 90.857408
12549 13 1 36.836157 -4.353837 91.314432
12550 13 1 37.519686 -3.649800 91.121765
12551 13 1 38.513951 -3.620454 91.018924
12552 13 1 39.486202 -3.822341 91.137113
12553 13 1 40.179084 -4.089986 91.806651
12554 13 1 40.342997 -5.019529 91.476378
12555 13 1 40.421914 -5.814565 90.874970
12556 13 1 40.422613 -5.954224 91.865170
12557 13 1 41.338812 -6.101643 92.237792
12558 13 1 41.224830 -7.045158 92.548897
12559 13 1 40.738732 -7.071426 93.422406
12560 13 1 40.020198 -6.554503 92.957111
12561 13 1 40.052983 -5.957973 93.759032
12562 13 1 39.824487 -5.294083 93.046965
12563 13 1 39.480198 -4.358723 92.965939
12564 13 1 39.284832 -4.264203 91.989774
12565 13 1 38.998284 -5.049611 91.441117
12566 13 1 39.119233 -5.896020 90.922500
12567 13 1 39.703473 -6.488581 90.367942
12568 13 1 40.363057 -6.988323 89.806508
12569 13 1 41.362662 -7.011985 89.791394
12570 13 1 42.097110 -7.608151 90.115695
12571 13 1 42.646251 -7.976286 90.865976
12572 13 1 41.708198 -7.759340 91.136143
12573 13 1 41.069696 -7.249682 91.712828
12574 13 1 41.344983 -6.686801 90.933480
12575 13 1 41.991397 -6.051132 90.511493
12576 13 1 41.918782 -5.913125 91.499259
12577 13 1 42.552944 -5.403278 92.080545
12578 13 1 42.880797 -4.984334 91.233787
12579 13 1 41.999689 -4.834481 91.682333
12580 13 1 42.037599 -5.281967 90.788846
12581 13 1 41.145632 -5.383438 91.229413
12582 13 1 40.788966 -4.466530 91.050337
12583 13 1 40.601288 -4.754690 90.111326
12584 13 1 39.797562 -4.373144 89.654766
12585 13 1 40.162104 -4.517064 88.734768
12586 13 1 40.925541 -4.964933 88.269389
12587 13 1 41.824037 -5.038327 87.836587
12588 13 1 42.789021 -5.294288 87.779221
12589 13 1 42.029489 -5.834715 88.141229
12590 13 1 41.153465 -5.887293 87.661835
12591 13 1 40.392033 -6.252125 88.197669
12592 13 1 40.122625 -6.911603 87.495880
12593 13 1 41.074002 -7.167468 87.667386
12594 13 1 41.300264 -8.118525 87.456924
12595 13 1 42.016026 -8.687534 87.861787
12596 13 1 41.607381 -9.356782 88.482365
12597 13 1 41.730537 -10.257468 88.899015
12598 13 1 42.540785 -9.678478 88.808081
12599 13 1 41.989871 -9.781264 89.636290
12600 13 1 42.741729 -10.438949 89.589817
12601 13 1 43.717388 -10.220065 89.576386
12602 13 1 44.377276 -9.549916 89.916162
12603 13 1 44.872054 -9.820739 89.090420
12604 13 1 44.451826 -9.950713 88.192358
12605 13 1 44.926778 -10.392050 87.431016
12606 13 1 44.602780 -11.328916 87.299461
12607 13 1 45.531864 -11.287171 87.666967
12608 13 1 45.434192 -11.565743 88.622403
12609 13 1 45.646585 -10.774581 89.195946
12610 13 1 46.140596 -9.979482 89.547758
12611 13 1 46.585983 -9.914195 90.440713
12612 13 1 47.440548 -9.981808 90.955636
12613 13 1 48.281525 -10.219104 91.441897
12614 13 1 48.439604 -9.472850 92.088516
12615 13 1 49.141259 -8.762853 92.148380
12616 13 1 49.500396 -9.205889 91.326955
12617 13 1 50.421518 -9.409720 91.658600
12618 13 1 49.715712 -10.073927 91.412295
12619 13 1 49.847295 -10.581807 90.560976
12620 13 1 49.344062 -11.414754 90.791098
12621 13 1 49.145759 -10.452388 90.976915
12622 13 1 49.165907 -10.987709 91.821324
12623 13 1 49.973704 -10.475647 92.113311
12624 13 1 50.429889 -11.071343 91.452221
12625 13 1 50.645087 -11.722491 90.724419
12626 13 1 50.420584 -11.444762 89.790361
12627 13 1 51.077576 -10.934303 89.235570
12628 13 1 51.307791 -10.807019 90.200349
12629 13 1 51.404967 -11.777769 89.980799
12630 13 1 52.074436 -11.303170 89.409339
12631 13 1 52.208609 -12.028351 90.084698
12632 13 1 53.058201 -11.677244 90.478292
12633 13 1 53.106572 -10.721735 90.769262
12634 13 1 53.891390 -10.302065 91.225264
12635 13 1 54.194878 -10.937928 91.934893
12636 13 1 54.627877 -10.491419 92.717927
12637 13 1 54.985176 -10.807789 91.839151
12638 13 1 55.095204 -11.276342 90.962594
12639 13 1 55.737030 -10.645237 90.526974
12640 13 1 54.822768 -10.400609 90.849900
12641 13 1 53.940640 -10.443162 90.380817
12642 13 1 54.278953 -9.502802 90.416400
12643 13 1 54.914458 -9.478969 89.644671
12644 13 1 55.695123 -8.861122 89.550717
12645 13 1 56.070978 -8.983707 90.469251
12646 13 1 56.917688 -9.515427 90.488106
12647 13 1 56.351436 -9.624726 91.305059
12648 13 1 57.277747 -9.988203 91.205899
12649 13 1 57.732572 -10.109423 92.088191
12650 13 1 58.023732 -10.913648 92.606311
12651 13 1 58.139454 -11.721531 93.184181
12652 13 1 58.009560 -10.830458 93.619056
12653 13 1 58.697323 -10.387073 93.044258
12654 13 1 59.148933 -11.200134 92.676861
12655 13 1 59.020750 -12.146848 92.972330
12656 13 1 59.663763 -12.912293 92.997381
12657 13 1 59.787918 -12.976689 92.007210
12658 13 1 60.244626 -12.272196 92.550448
12659 13 1 60.290145 -12.488800 93.525645
12660 13 1 59.882701 -13.272500 93.994478
12661 13 1 59.595682 -14.160900 93.636197
12662 13 1 59.703831 -15.142817 93.480821
12663 13 1 59.842794 -16.096314 93.748277
12664 13 1 59.790913 -16.132379 92.750275
12665 13 1 59.811698 -17.108906 92.964664
12666 13 1 60.761646 -16.917653 92.717639
12667 13 1 61.712604 -16.886344 92.409907
12668 13 1 61.474170 -16.082032 92.954178
12669 13 1 62.401295 -15.755186 92.770845
12670 13 1 63.273860 -16.186308 92.541140
12671 13 1 63.745972 -16.754248 91.866933
12672 13 1 64.564714 -17.325643 91.923222
12673 13 1 64.210887 -18.156669 91.494032
12674 13 1 64.610797 -17.971393 90.596399
12675 13 1 64.292547 -17.197906 90.048280
12676 13 1 63.620858 -16.772839 89.441525
12677 13 1 64.244482 -16.236070 88.873219
12678 13 1 64.421193 -15.982986 87.922051
12679 13 1 63.825286 -16.768060 87.753073
12680 13 1 64.429685 -17.493221 87.423159
12681 13 1 64.052845 -17.119575 86.575586
12682 13 1 63.291609 -17.760784 86.478773
12683 13 1 62.719133 -17.053439 86.064123
12684 13 1 62.659818 -17.946633 85.618380
12685 13 1 62.132123 -18.759242 85.370985
12686 13 1 62.728346 -19.479173 85.015713
12687 13 1 62.162494 -19.987327 85.665014
12688 13 1 61.269405 -20.040863 85.218332
12689 13 1 60.279028 -19.909710 85.174139
12690 13 1 60.442254 -20.034613 86.152789
12691 13 1 61.074410 -20.753054 85.862580
12692 13 1 61.936942 -20.739577 86.368403
12693 13 1 62.003819 -20.405424 87.308546
12694 13 1 62.465758 -21.290804 87.256444
12695 13 1 63.335799 -21.771415 87.146707
12696 13 1 63.661809 -22.716769 87.151521
12697 13 1 63.831229 -22.872028 88.124758
12698 13 1 63.017285 -22.568411 87.629469
12699 13 1 62.597438 -22.219950 88.467504
12700 13 1 61.736161 -22.487494 88.035507
12701 13 1 60.835959 -22.799301 88.339502
12702 13 1 60.939110 -22.594944 89.312949
12703 13 1 60.344888 -23.112348 89.928736
12704 13 1 59.426730 -23.492184 90.041472
12705 13 1 58.821568 -23.110366 89.342906
12706 13 1 58.088919 -22.653336 88.838575
12707 13 1 58.805079 -22.036288 89.164713
12708 13 1 57.936246 -22.213531 89.627005
12709 13 1 57.847589 -21.670415 88.792041
12710 13 1 57.236082 -21.416300 89.541363
12711 13 1 57.666440 -21.613287 90.422264
12712 13 1 57.128464 -22.294924 89.926327
12713 13 1 56.707716 -22.114509 90.815383
12714 13 1 55.937550 -22.032113 90.182884
12715 13 1 55.830114 -22.930637 89.757312
12716 13 1 55.718233 -22.080521 89.242740
12717 13 1 55.113160 -22.776551 88.856180
12718 13 1 54.764498 -23.522151 88.288275
12719 13 1 54.707382 -24.183976 89.035754
12720 13 1 54.577907 -25.148507 89.265787
12721 13 1 54.255292 -25.309239 88.333004
12722 13 1 54.788675 -25.799523 87.643711
12723 13 1 55.268490 -25.677290 88.512524
12724 13 1 54.931946 -26.600932 88.695893
12725 13 1 54.399698 -27.376312 89.035741
12726 13 1 55.314862 -27.778904 89.015869
12727 13 1 55.125073 -26.963326 89.562507
12728 13 1 54.313183 -26.642772 90.050441
12729 13 1 53.454448 -26.842320 89.578472
12730 13 1 53.672062 -25.880171 89.742529
12731 13 1 53.936645 -24.966738 90.051778
12732 13 1 53.603690 -25.161285 90.974433
12733 13 1 53.598924 -24.227364 91.331882
12734 13 1 53.165343 -24.326250 90.436210
12735 13 1 52.598227 -23.541426 90.186349
12736 13 1 51.887332 -23.946763 89.611605
12737 13 1 51.714123 -23.486896 88.740674
12738 13 1 51.609155 -22.867513 89.518714
12739 13 1 50.841610 -22.627209 88.924468
12740 13 1 51.544531 -21.973585 89.204964
12741 13 1 52.367091 -21.404914 89.202306
12742 13 1 52.624792 -21.949581 90.000384
12743 13 1 52.750957 -21.198719 90.648681
12744 13 1 52.150606 -20.674196 90.044979
12745 13 1 52.089775 -19.696384 89.844523
12746 13 1 51.256604 -19.174510 90.027480
12747 13 1 51.141491 -19.504643 90.964370
12748 13 1 50.965629 -20.441495 90.662079
12749 13 1 51.915511 -20.623310 90.916375
12750 13 1 52.747085 -20.752568 91.456539
12751 13 1 52.823901 -20.167719 90.649042
12752 13 1 52.982589 -19.337173 91.182906
12753 13 1 53.207458 -18.575302 90.575464
12754 13 1 52.362501 -18.672818 91.101333
12755 13 1 52.579618 -18.995145 90.179939
12756 13 1 51.747928 -18.491941 90.414625
12757 13 1 51.909082 -18.423683 89.430059
12758 13 1 51.623758 -19.361365 89.231705
12759 13 1 52.503639 -18.905988 89.095901
12760 13 1 51.944087 -18.635788 88.312387
12761 13 1 52.432249 -18.744729 87.446459
12762 13 1 51.934543 -19.341125 86.816697
12763 13 1 51.052716 -18.887105 86.944162
12764 13 1 50.266171 -19.361599 86.548937
12765 13 1 50.305895 -20.095449 87.227086
12766 13 1 49.500904 -20.044286 87.818163
12767 13 1 49.325645 -20.081894 86.834359
12768 13 1 48.335466 -20.107200 86.696862
12769 13 1 48.221710 -19.996098 85.709585
12770 13 1 47.925328 -19.209935 85.167270
12771 13 1 48.118975 -19.175461 86.147735
12772 13 1 47.925793 -18.993485 87.111875
12773 13 1 47.625562 -19.721783 86.495885
12774 13 1 47.066091 -18.900013 86.387780
12775 13 1 47.404001 -18.065000 86.822026
12776 13 1 46.438866 -18.085242 86.561059
12777 13 1 45.474577 -18.153213 86.817043
12778 13 1 45.969972 -18.988059 86.577009
12779 13 1 45.504025 -19.461059 85.829236
12780 13 1 44.955442 -19.588269 86.655598
12781 13 1 45.821030 -19.917155 87.033211
12782 13 1 45.226110 -20.705722 86.877544
12783 13 1 45.764602 -21.547445 86.838461
12784 13 1 45.331379 -22.431011 86.660616
12785 13 1 45.376864 -21.610509 86.090785
12786 13 1 46.157102 -22.202833 85.889836
12787 13 1 45.925056 -22.209623 84.917155
12788 13 1 46.469679 -22.940092 84.505084
12789 13 1 46.895188 -23.404031 83.728102
12790 13 1 45.913440 -23.537725 83.592834
12791 13 1 46.655233 -23.559294 82.922552
12792 13 1 46.459730 -24.462195 83.305369
12793 13 1 45.952467 -24.510053 84.165831
12794 13 1 46.556858 -24.209688 84.903728
12795 13 1 45.879149 -23.767165 85.490996
12796 13 1 45.135558 -23.383440 86.038561
12797 13 1 44.496236 -24.141898 85.912038
12798 13 1 44.518445 -24.229682 84.916146
12799 13 1 44.041603 -25.108545 84.901241
12800 13 1 44.691521 -25.828473 85.144775
12801 13 1 45.649318 -25.606219 84.962488
12802 13 1 45.539123 -25.883282 85.917000
12803 13 1 45.650749 -24.956121 86.274648
12804 13 1 45.294239 -25.252799 87.160584
12805 13 1 46.213936 -24.911035 86.967306
12806 13 1 46.408875 -24.039223 86.517925
12807 13 1 46.904973 -24.597508 85.852940
12808 13 1 47.698794 -24.561823 85.245837
12809 13 1 47.496662 -23.719490 84.746219
12810 13 1 47.804126 -24.099484 83.873826
12811 13 1 48.460155 -23.663243 83.257936
12812 13 1 48.538601 -22.736469 82.890600
12813 13 1 48.515081 -21.974690 83.538011
12814 13 1 47.802176 -21.274003 83.566373
12815 13 1 47.239125 -21.376847 84.386371
12816 13 1 46.362253 -20.952223 84.161008
12817 13 1 45.502102 -20.444235 84.206723
12818 13 1 45.190893 -21.393209 84.155755
12819 13 1 45.978616 -21.477490 83.545517
12820 13 1 45.033488 -21.621002 83.252024
12821 13 1 44.803657 -20.695064 83.551719
12822 13 1 44.804941 -19.872367 82.983241
12823 13 1 45.631250 -20.354923 83.273677
12824 13 1 45.584604 -19.421864 83.630365
12825 13 1 45.776502 -18.477300 83.363956
12826 13 1 46.212968 -17.782969 82.791766
12827 13 1 46.974217 -17.701447 82.148451
12828 13 1 47.580757 -17.262353 82.811252
12829 13 1 48.162323 -16.478550 82.593461
12830 13 1 48.765222 -17.236968 82.345842
12831 13 1 48.680388 -18.139336 81.923308
12832 13 1 48.224108 -17.918961 82.785424
12833 13 1 48.847144 -17.543126 83.471407
12834 13 1 49.568421 -17.682871 84.149811
12835 13 1 50.439249 -17.498390 84.605471
12836 13 1 51.071028 -17.805334 83.893684
12837 13 1 51.000466 -18.689581 83.432026
12838 13 1 50.278679 -19.232854 83.003217
12839 13 1 49.928749 -18.682886 82.244873
12840 13 1 49.787836 -19.002530 81.307872
12841 13 1 49.663968 -18.228443 80.687029
12842 13 1 49.069978 -18.805482 80.126493
12843 13 1 49.304112 -19.469171 79.416072
12844 13 1 49.676545 -19.892944 78.590415
12845 13 1 49.697375 -20.613094 79.283921
12846 13 1 49.088208 -20.652824 80.075967
12847 13 1 50.017448 -20.393982 80.339620
12848 13 1 49.727135 -20.762992 81.222542
12849 13 1 48.735246 -20.787668 81.347225
12850 13 1 49.282215 -20.504962 82.135198
12851 13 1 48.360827 -20.892718 82.108962
12852 13 1 47.516555 -21.162423 82.572065
12853 13 1 46.959751 -21.578625 83.290915
12854 13 1 47.856247 -21.845227 82.937054
12855 13 1 46.958044 -21.920823 82.504022
12856 13 1 47.271405 -21.876495 81.555423
12857 13 1 48.077305 -22.425786 81.334507
12858 13 1 47.722468 -23.098174 80.684904
12859 13 1 48.684130 -22.828669 80.634178
12860 13 1 48.335061 -23.734207 80.875322
12861 13 1 48.864889 -24.558310 81.075661
12862 13 1 49.546283 -23.847585 81.250509
12863 13 1 49.780191 -24.546389 81.926497
12864 13 1 49.392509 -25.329973 81.441009
12865 13 1 49.704477 -26.278665 81.492593
12866 13 1 50.488347 -26.548361 80.933298
12867 13 1 49.815841 -27.001724 80.348322
12868 13 1 49.569729 -27.513360 81.171522
12869 13 1 50.560371 -27.648099 81.193268
12870 13 1 51.519183 -27.364243 81.182950
12871 13 1 51.676010 -26.907134 82.058425
12872 13 1 52.063616 -27.821303 81.939866
12873 13 1 52.567555 -28.196759 81.161998
12874 13 1 53.193837 -28.758155 81.702928
12875 13 1 53.543299 -27.827934 81.815024
12876 13 1 53.295018 -26.926275 81.460950
12877 13 1 53.078718 -27.584790 80.740136
12878 13 1 52.881751 -28.095310 79.903134
12879 13 1 53.103186 -29.061784 80.033119
12880 13 1 53.471978 -29.818606 80.572761
12881 13 1 53.917727 -30.037446 81.440757
12882 13 1 53.262474 -29.827150 82.166304
12883 13 1 52.462255 -29.483120 82.657520
12884 13 1 53.011104 -30.284460 82.895467
12885 13 1 53.863250 -30.337765 83.416049
12886 13 1 54.122123 -29.380645 83.546076
12887 13 1 53.310825 -29.241570 82.978226
12888 13 1 53.607556 -28.625958 83.708277
12889 13 1 54.505185 -28.878192 84.069717
12890 13 1 55.072621 -29.321903 84.763358
12891 13 1 55.723730 -29.675410 85.434990
12892 13 1 56.162338 -30.128351 86.211178
12893 13 1 57.029241 -30.283752 86.684811
12894 13 1 56.396478 -31.029625 86.476763
12895 13 1 56.687674 -31.343443 87.380490
12896 13 1 56.956689 -32.190563 87.838768
12897 13 1 56.426952 -32.316465 88.677533
12898 13 1 56.616125 -33.189505 88.228073
12899 13 1 56.871973 -34.033420 88.699614
12900 13 1 55.888301 -34.108539 88.863161
12901 13 1 55.713337 -34.812946 89.551055
12902 13 1 55.968041 -34.044971 90.138712
12903 13 1 56.898461 -33.844845 90.445741
12904 13 1 56.690760 -34.203821 91.355684
12905 13 1 57.648601 -34.047300 91.596604
12906 13 1 58.336177 -34.767683 91.687635
12907 13 1 57.439633 -34.875020 91.257882
12908 13 1 57.670171 -35.723477 90.781466
12909 13 1 56.809690 -35.831701 90.283611
12910 13 1 55.834342 -35.679725 90.443612
12911 13 1 56.290953 -35.850360 91.316762
12912 13 1 55.313187 -35.994001 91.163980
12913 13 1 55.536205 -35.019250 91.152854
12914 13 1 54.796487 -35.019863 90.479937
12915 13 1 53.991100 -35.279634 91.012733
12916 13 1 54.047859 -34.470691 90.427591
12917 13 1 54.344980 -33.565888 90.732632
12918 13 1 54.270872 -33.317964 89.766691
12919 13 1 54.812314 -32.500166 89.961746
12920 13 1 54.202581 -31.846969 89.512791
12921 13 1 54.611251 -32.632459 89.048039
12922 13 1 55.599719 -32.767368 88.979248
12923 13 1 55.091005 -31.917574 88.841188
12924 13 1 55.943481 -31.683866 88.373572
12925 13 1 56.397303 -31.276644 89.166172
12926 13 1 56.025801 -30.371905 89.374580
12927 13 1 56.684147 -30.407171 88.622691
12928 13 1 57.299590 -30.115619 87.890416
12929 13 1 57.455740 -29.128702 87.850267
12930 13 1 56.752520 -28.562917 88.280813
12931 13 1 55.783033 -28.762384 88.138312
12932 13 1 55.632024 -28.680983 87.153137
12933 13 1 54.984440 -29.149511 86.552207
12934 13 1 54.309336 -29.886115 86.592812
12935 13 1 54.597150 -30.829043 86.760292
12936 13 1 55.420179 -30.307135 86.536160
12937 13 1 54.880361 -29.791390 87.201445
12938 13 1 55.752415 -30.243154 87.389678
12939 13 1 55.363219 -30.069444 88.294306
12940 13 1 55.247572 -29.183929 88.744294
12941 13 1 54.516532 -29.047468 88.075745
12942 13 1 54.369433 -29.248685 89.044183
12943 13 1 53.698715 -29.811286 88.560843
12944 13 1 53.070821 -30.435032 89.026342
12945 13 1 53.942625 -30.909264 89.149071
12946 13 1 54.568899 -30.206734 88.811088
12947 13 1 54.720813 -30.770338 89.623045
12948 13 1 54.774530 -30.016688 90.278123
12949 13 1 55.544838 -29.390891 90.155634
12950 13 1 55.900178 -28.881465 89.371913
12951 13 1 56.332363 -29.257002 88.552043
12952 13 1 56.957690 -29.629971 89.237507
12953 13 1 57.288252 -29.776854 90.169792
12954 13 1 57.340389 -28.809665 89.921139
12955 13 1 57.768247 -28.825447 89.017431
12956 13 1 57.228560 -28.135625 89.500011
12957 13 1 57.701722 -27.256353 89.445236
12958 13 1 58.231563 -26.417607 89.570827
12959 13 1 57.504024 -26.186211 90.216693
12960 13 1 57.674677 -25.801229 89.309683
12961 13 1 57.328539 -24.863250 89.290067
12962 13 1 57.359128 -24.044244 89.863035
12963 13 1 57.591374 -24.896660 90.331488
12964 13 1 57.861937 -24.191636 90.987031
12965 13 1 58.249093 -25.097778 90.816691
12966 13 1 57.360394 -25.407846 91.154437
12967 13 1 56.517436 -25.085487 91.585141
12968 13 1 56.086043 -25.592430 90.838878
12969 13 1 55.243694 -25.281392 91.278995
12970 13 1 55.763473 -24.941038 90.495420
12971 13 1 55.256139 -24.369446 91.140319
12972 13 1 54.755964 -24.915985 91.811975
12973 13 1 54.849186 -25.649867 92.484825
12974 13 1 54.003853 -25.333093 92.054631
12975 13 1 53.270942 -25.089249 92.689753
12976 13 1 54.064213 -24.546770 92.413281
12977 13 1 54.690895 -23.872852 92.021995
12978 13 1 54.504196 -23.687062 91.057306
12979 13 1 54.135721 -24.560178 90.738097
12980 13 1 54.523253 -23.780419 90.246370
12981 13 1 53.810442 -23.087193 90.352850
12982 13 1 54.504585 -22.483551 89.960699
12983 13 1 55.007678 -23.131578 90.532503
12984 13 1 55.486674 -23.016388 91.402729
12985 13 1 56.382664 -23.083548 90.963764
12986 13 1 56.035574 -23.984330 91.224763
12987 13 1 56.611085 -24.195964 92.014699
12988 13 1 56.411917 -23.215999 92.015662
12989 13 1 56.006124 -23.970520 92.531443
12990 13 1 55.650577 -24.882231 92.325604
12991 13 1 56.009025 -25.777966 92.062595
12992 13 1 56.139941 -26.768222 92.015118
12993 13 1 56.396552 -26.117593 92.729843
12994 13 1 57.086996 -25.666253 92.164530
12995 13 1 57.031601 -25.004034 92.911790
12996 13 1 57.582118 -25.831397 92.800428
12997 13 1 57.816617 -24.994695 93.295342
12998 13 1 58.234053 -25.365011 92.465514
12999 13 1 58.719304 -25.746780 93.252143
13000 13 1 59.018992 -26.397164 93.950131
13001 14 1 -25.482583 -83.893357 -88.739808
13002 14 1 -26.435063 -84.135064 -88.554442
13003 14 1 -26.814343 -83.211791 -88.493501
13004 14 1 -26.893575 -82.764714 -89.384480
13005 14 1 -27.047587 -81.945670 -89.937153
13006 14 1 -27.650551 -82.142686 -89.164095
13007 14 1 -28.444855 -82.710840 -88.948962
13008 14 1 -28.677023 -81.932542 -88.365567
13009 14 1 -28.059045 -81.469329 -87.730321
13010 14 1 -27.102907 -81.186090 -87.804996
13011 14 1 -26.410241 -80.844064 -88.440002
13012 14 1 -26.445750 -80.485971 -89.373012
13013 14 1 -26.477104 -80.225165 -90.337894
13014 14 1 -26.438164 -81.201363 -90.551255
13015 14 1 -26.021661 -80.616236 -91.247065
13016 14 1 -25.816800 -81.389484 -91.847164
13017 14 1 -26.700932 -81.835815 -91.985363
13018 14 1 -27.369487 -81.129423 -91.752887
13019 14 1 -28.135391 -80.652763 -92.184381
13020 14 1 -28.919309 -80.250752 -92.657520
13021 14 1 -28.429199 -79.457124 -93.018002
13022 14 1 -28.871911 -78.663465 -93.435268
13023 14 1 -28.005199 -78.708081 -93.932077
13024 14 1 -27.617754 -79.525498 -93.505797
13025 14 1 -26.736105 -79.058213 -93.571671
13026 14 1 -26.817495 -79.860876 -94.162523
13027 14 1 -26.113081 -80.521269 -94.422679
13028 14 1 -25.684049 -79.938010 -93.732940
13029 14 1 -25.840604 -78.981154 -93.977717
13030 14 1 -25.978115 -78.303442 -94.700072
13031 14 1 -26.313191 -78.333008 -93.758345
13032 14 1 -26.203126 -78.219948 -92.770872
13033 14 1 -26.854337 -77.935158 -92.067439
13034 14 1 -27.298663 -77.101913 -91.738382
13035 14 1 -26.680069 -77.366489 -90.998557
13036 14 1 -26.251449 -78.269264 -90.962732
13037 14 1 -25.765455 -79.132005 -91.102328
13038 14 1 -26.565859 -79.714415 -91.244287
13039 14 1 -27.393623 -79.196188 -91.029238
13040 14 1 -26.582411 -78.964337 -91.566063
13041 14 1 -27.244855 -79.640983 -91.887493
13042 14 1 -26.668743 -79.611066 -92.704316
13043 14 1 -27.331466 -78.932186 -93.020416
13044 14 1 -27.872576 -78.093224 -93.078226
13045 14 1 -27.168196 -77.516346 -93.491821
13046 14 1 -28.056908 -77.179110 -93.802407
13047 14 1 -28.828723 -77.657240 -94.221565
13048 14 1 -29.305745 -78.046345 -95.009631
13049 14 1 -29.652920 -78.241073 -94.092270
13050 14 1 -30.331710 -77.741864 -94.630819
13051 14 1 -30.679882 -77.075311 -95.289972
13052 14 1 -29.706818 -76.886306 -95.421972
13053 14 1 -30.221526 -77.612249 -95.878132
13054 14 1 -30.964154 -77.196316 -96.403016
13055 14 1 -30.779367 -76.222184 -96.272937
13056 14 1 -31.353496 -76.809907 -95.702887
13057 14 1 -31.690885 -75.869835 -95.653572
13058 14 1 -32.611636 -76.009857 -95.289416
13059 14 1 -33.368687 -76.038420 -95.942148
13060 14 1 -33.031136 -76.872346 -96.378757
13061 14 1 -32.888650 -77.544288 -95.651989
13062 14 1 -32.678137 -77.203462 -94.735735
13063 14 1 -33.000243 -76.520518 -94.080116
13064 14 1 -33.859501 -76.288104 -94.535813
13065 14 1 -34.657966 -75.691689 -94.617924
13066 14 1 -35.069221 -74.832927 -94.923534
13067 14 1 -34.445318 -74.234440 -95.426086
13068 14 1 -35.324408 -74.043061 -94.989537
13069 14 1 -35.052081 -73.808231 -94.056428
13070 14 1 -35.606419 -73.029356 -94.349791
13071 14 1 -34.607437 -73.059812 -94.316521
13072 14 1 -34.041637 -73.871130 -94.169437
13073 14 1 -33.788372 -73.757134 -95.130094
13074 14 1 -33.482046 -73.118668 -94.424031
13075 14 1 -32.839461 -73.110786 -95.190205
13076 14 1 -33.647506 -72.795812 -95.688055
13077 14 1 -32.839113 -72.365451 -96.089665
13078 14 1 -32.585037 -71.574362 -95.533226
13079 14 1 -33.405615 -71.276460 -96.020983
13080 14 1 -34.193613 -71.785060 -95.674019
13081 14 1 -35.150346 -72.066050 -95.749566
13082 14 1 -34.985082 -71.094653 -95.579048
13083 14 1 -35.423301 -70.591498 -96.323896
13084 14 1 -34.777913 -70.023262 -96.834369
13085 14 1 -33.785851 -70.056579 -96.713114
13086 14 1 -33.947494 -70.655257 -95.928603
13087 14 1 -34.082507 -71.310440 -96.671911
13088 14 1 -34.979872 -71.322201 -97.113043
13089 14 1 -34.972012 -72.304709 -96.926987
13090 14 1 -34.549549 -73.078083 -97.399656
13091 14 1 -34.729437 -72.232191 -97.901757
13092 14 1 -33.747271 -72.419405 -97.919098
13093 14 1 -32.817674 -72.297762 -98.267023
13094 14 1 -33.183472 -71.367161 -98.253879
13095 14 1 -34.075730 -71.770947 -98.455948
13096 14 1 -34.834531 -71.318093 -98.924077
13097 14 1 -34.550437 -70.517696 -98.396199
13098 14 1 -34.551003 -69.593388 -98.777845
13099 14 1 -34.487458 -69.750413 -97.792297
13100 14 1 -35.360416 -69.688028 -97.308507
13101 14 1 -35.679158 -69.236860 -98.142084
13102 14 1 -35.357972 -69.146877 -99.084815
13103 14 1 -35.299208 -68.325193 -98.517909
13104 14 1 -35.896532 -68.014914 -97.778361
13105 14 1 -36.759548 -68.463722 -97.546467
13106 14 1 -36.008349 -68.225305 -96.930952
13107 14 1 -36.715235 -67.913088 -96.296260
13108 14 1 -37.707381 -67.899796 -96.420633
13109 14 1 -37.496121 -68.819174 -96.088800
13110 14 1 -38.308782 -68.262710 -95.915800
13111 14 1 -39.147411 -68.779697 -95.744266
13112 14 1 -38.808743 -69.599970 -96.205197
13113 14 1 -38.489571 -69.340623 -97.116717
13114 14 1 -38.358391 -68.497766 -97.638621
13115 14 1 -38.768890 -68.519011 -98.550234
13116 14 1 -38.436715 -69.358637 -98.120481
13117 14 1 -38.640105 -70.315201 -98.329325
13118 14 1 -38.412387 -70.625376 -99.252329
13119 14 1 -38.349301 -71.495069 -98.762785
13120 14 1 -37.797053 -70.861819 -98.220552
13121 14 1 -38.039536 -70.276230 -97.447061
13122 14 1 -37.229529 -69.853911 -97.040200
13123 14 1 -36.444045 -69.490524 -97.541164
13124 14 1 -36.224336 -70.437113 -97.777164
13125 14 1 -35.384158 -69.978124 -98.066006
13126 14 1 -35.438708 -70.968579 -97.939423
13127 14 1 -35.982019 -71.727859 -97.581225
13128 14 1 -36.272039 -71.137624 -96.827891
13129 14 1 -37.151072 -71.591929 -96.683297
13130 14 1 -37.330389 -71.622068 -95.699967
13131 14 1 -37.612227 -72.464041 -95.239913
13132 14 1 -38.371277 -72.863079 -95.754318
13133 14 1 -38.659573 -72.591306 -96.672482
13134 14 1 -37.696718 -72.853312 -96.737773
13135 14 1 -37.347779 -72.550866 -97.624772
13136 14 1 -36.582248 -73.053984 -97.223731
13137 14 1 -35.691283 -73.493267 -97.338668
13138 14 1 -35.775375 -72.675088 -96.769888
13139 14 1 -35.381961 -73.560587 -96.522669
13140 14 1 -35.339768 -74.528466 -96.274818
13141 14 1 -36.322930 -74.512859 -96.456885
13142 14 1 -36.206985 -73.786576 -95.779338
13143 14 1 -35.864075 -72.960476 -95.332156
13144 14 1 -34.865974 -72.955205 -95.270781
13145 14 1 -34.696221 -72.254099 -94.578226
13146 14 1 -35.039358 -72.216737 -93.639684
13147 14 1 -34.273513 -72.536111 -93.081578
13148 14 1 -35.158925 -72.157195 -92.812378
13149 14 1 -34.607100 -71.889251 -92.022634
13150 14 1 -35.548348 -72.226397 -92.042227
13151 14 1 -34.870997 -72.822918 -92.472760
13152 14 1 -34.176987 -73.375376 -92.934430
13153 14 1 -34.253138 -73.615277 -91.966625
13154 14 1 -34.425086 -74.373041 -92.596092
13155 14 1 -34.074322 -75.235284 -92.961469
13156 14 1 -34.504915 -74.977617 -93.826453
13157 14 1 -33.787870 -75.654440 -93.993057
13158 14 1 -33.404187 -74.892404 -93.471437
13159 14 1 -33.116279 -75.366718 -92.639490
13160 14 1 -32.140057 -75.433329 -92.845779
13161 14 1 -32.722058 -76.243874 -92.911293
13162 14 1 -32.141233 -76.783590 -92.301910
13163 14 1 -31.569226 -76.895091 -91.489275
13164 14 1 -31.356750 -77.859868 -91.334163
13165 14 1 -30.360428 -77.872260 -91.249372
13166 14 1 -30.933956 -77.978129 -92.061689
13167 14 1 -30.326472 -77.888447 -92.850942
13168 14 1 -31.064005 -77.277053 -92.564161
13169 14 1 -31.343520 -77.461979 -93.506326
13170 14 1 -32.343380 -77.445590 -93.509522
13171 14 1 -32.721235 -77.505671 -92.585609
13172 14 1 -32.122035 -78.247259 -92.283935
13173 14 1 -32.061523 -78.887506 -93.049717
13174 14 1 -31.130025 -78.547394 -92.920742
13175 14 1 -30.355481 -78.917276 -93.433839
13176 14 1 -30.409986 -79.322081 -92.521062
13177 14 1 -30.493264 -79.305561 -91.524673
13178 14 1 -31.383968 -79.613309 -91.190104
13179 14 1 -32.291492 -79.651243 -90.771819
13180 14 1 -32.519986 -78.788928 -90.319930
13181 14 1 -32.762156 -77.958985 -90.822472
13182 14 1 -32.452299 -77.976877 -89.871857
13183 14 1 -32.724880 -77.191129 -89.316609
13184 14 1 -32.562146 -77.373931 -88.347021
13185 14 1 -32.560284 -76.453883 -87.955221
13186 14 1 -32.614718 -76.166584 -86.998928
13187 14 1 -33.578067 -76.209345 -86.734109
13188 14 1 -33.691600 -77.170502 -86.985680
13189 14 1 -33.346072 -77.922678 -87.546787
13190 14 1 -32.541339 -78.259639 -87.058052
13191 14 1 -32.867867 -79.080912 -86.590194
13192 14 1 -33.631666 -79.315523 -85.988888
13193 14 1 -33.983627 -78.439325 -86.318130
13194 14 1 -33.068922 -78.035501 -86.333601
13195 14 1 -32.930913 -78.629537 -85.541090
13196 14 1 -32.546482 -77.718175 -85.394013
13197 14 1 -32.540897 -77.859372 -84.404048
13198 14 1 -32.582510 -77.073349 -83.787253
13199 14 1 -33.395020 -76.508610 -83.642695
13200 14 1 -33.777176 -76.838427 -84.505931
13201 14 1 -33.883213 -77.780768 -84.188521
13202 14 1 -33.154467 -78.386662 -84.507614
13203 14 1 -33.013759 -79.366643 -84.366766
13204 14 1 -32.728828 -80.310176 -84.535763
13205 14 1 -32.888367 -80.626066 -85.471050
13206 14 1 -32.095171 -80.795889 -86.055857
13207 14 1 -32.087472 -80.410700 -85.133051
13208 14 1 -32.012837 -79.453628 -85.413125
13209 14 1 -32.797182 -79.669493 -85.994679
13210 14 1 -32.033565 -79.069803 -86.233974
13211 14 1 -31.944271 -79.639695 -87.050828
13212 14 1 -31.018374 -79.928183 -86.806927
13213 14 1 -30.552605 -80.298516 -87.610614
13214 14 1 -31.198977 -81.060356 -87.568144
13215 14 1 -31.161552 -82.055766 -87.480065
13216 14 1 -30.163816 -82.121993 -87.491725
13217 14 1 -29.986734 -81.289930 -86.966070
13218 14 1 -29.628614 -81.258724 -86.032916
13219 14 1 -28.821422 -81.396987 -85.459047
13220 14 1 -29.118966 -82.068477 -84.780395
13221 14 1 -29.775549 -81.496656 -85.272248
13222 14 1 -30.052725 -82.382678 -84.900578
13223 14 1 -30.800041 -82.691478 -84.312223
13224 14 1 -30.367118 -81.865758 -83.950609
13225 14 1 -31.265006 -81.426580 -83.980927
13226 14 1 -30.929995 -81.872075 -84.811169
13227 14 1 -31.134187 -81.065708 -85.366215
13228 14 1 -30.358919 -80.877546 -85.969169
13229 14 1 -30.574829 -79.931070 -85.729241
13230 14 1 -30.649654 -79.196310 -86.403428
13231 14 1 -30.070993 -78.778792 -87.104021
13232 14 1 -31.067612 -78.702512 -87.134555
13233 14 1 -31.447730 -78.678163 -88.059172
13234 14 1 -30.779585 -78.045410 -87.667756
13235 14 1 -30.689630 -77.766048 -88.623719
13236 14 1 -31.318512 -78.338995 -89.149303
13237 14 1 -31.005626 -79.154529 -88.662471
13238 14 1 -31.056526 -79.709248 -89.492951
13239 14 1 -30.131772 -79.967330 -89.772636
13240 14 1 -29.859422 -80.927613 -89.833319
13241 14 1 -29.516355 -80.824819 -90.766988
13242 14 1 -29.422316 -81.818532 -90.827755
13243 14 1 -30.363091 -81.697651 -90.511007
13244 14 1 -30.866763 -81.137198 -91.168433
13245 14 1 -30.057780 -80.897129 -91.705009
13246 14 1 -30.301848 -81.837513 -91.468136
13247 14 1 -31.300224 -81.847363 -91.412018
13248 14 1 -32.037907 -81.667454 -92.062754
13249 14 1 -32.674689 -81.210242 -91.441896
13250 14 1 -32.450402 -81.003388 -90.489579
13251 14 1 -33.110331 -81.657772 -90.858734
13252 14 1 -34.020805 -81.758121 -91.259940
13253 14 1 -33.739618 -81.663202 -90.304993
13254 14 1 -33.943634 -80.800266 -90.767290
13255 14 1 -33.741744 -79.829181 -90.894701
13256 14 1 -33.842278 -78.858959 -91.115068
13257 14 1 -34.825845 -78.826605 -91.292690
13258 14 1 -35.139916 -78.179596 -91.987484
13259 14 1 -35.991383 -78.701464 -92.039029
13260 14 1 -36.557803 -78.005947 -91.596960
13261 14 1 -36.089760 -78.714589 -91.068981
13262 14 1 -35.570708 -78.167650 -90.412138
13263 14 1 -35.010016 -77.740729 -89.702657
13264 14 1 -35.044610 -77.111357 -88.926323
13265 14 1 -34.123933 -77.177913 -88.541715
13266 14 1 -34.160215 -76.267399 -88.953598
13267 14 1 -34.068268 -75.814678 -89.840497
13268 14 1 -34.057952 -75.464110 -88.904017
13269 14 1 -33.424929 -76.100913 -88.463832
13270 14 1 -32.637683 -76.109121 -89.080416
13271 14 1 -33.237481 -75.568711 -89.670501
13272 14 1 -32.464351 -75.995836 -90.139365
13273 14 1 -31.807777 -75.747261 -89.427241
13274 14 1 -30.849089 -75.789852 -89.145987
13275 14 1 -30.871193 -76.506308 -88.448705
13276 14 1 -31.544210 -76.545635 -87.710124
13277 14 1 -31.429380 -77.287303 -87.049259
13278 14 1 -31.356995 -76.932487 -86.117129
13279 14 1 -31.039957 -77.126610 -85.188795
13280 14 1 -30.168861 -77.564842 -85.410480
13281 14 1 -29.293358 -78.025883 -85.265789
13282 14 1 -28.970656 -77.559746 -84.442029
13283 14 1 -28.172743 -77.388046 -85.019830
13284 14 1 -28.850102 -76.654628 -84.962533
13285 14 1 -28.103291 -75.989807 -84.979434
13286 14 1 -27.576849 -75.303124 -85.480757
13287 14 1 -28.071710 -75.009607 -84.662857
13288 14 1 -27.985009 -74.039655 -84.890184
13289 14 1 -27.254687 -74.383834 -85.480244
13290 14 1 -28.189505 -74.140332 -85.738744
13291 14 1 -28.266168 -73.272889 -86.230340
13292 14 1 -28.907004 -72.975247 -86.937968
13293 14 1 -28.822271 -71.990755 -86.784357
13294 14 1 -28.119393 -71.881705 -87.487259
13295 14 1 -27.843769 -72.545197 -86.791695
13296 14 1 -26.845690 -72.606687 -86.799330
13297 14 1 -26.938088 -71.849301 -86.152932
13298 14 1 -27.204928 -71.446257 -87.028347
13299 14 1 -26.539324 -71.374731 -87.771217
13300 14 1 -26.855150 -71.168824 -88.697422
13301 14 1 -26.259158 -70.814556 -89.418038
13302 14 1 -25.662766 -70.015939 -89.337251
13303 14 1 -25.949038 -69.670920 -88.443377
13304 14 1 -25.290524 -68.938651 -88.616988
13305 14 1 -25.892904 -69.031763 -87.824229
13306 14 1 -25.962903 -70.009906 -87.628431
13307 14 1 -25.031194 -69.825678 -87.941445
13308 14 1 -24.750389 -70.567119 -87.332006
13309 14 1 -24.783407 -69.575625 -87.206110
13310 14 1 -24.074852 -69.281289 -86.564770
13311 14 1 -23.635182 -68.449110 -86.226881
13312 14 1 -24.091780 -68.670076 -87.088677
13313 14 1 -23.706580 -69.475991 -87.538256
13314 14 1 -23.092502 -69.183965 -88.271488
13315 14 1 -22.782515 -68.896181 -89.177627
13316 14 1 -21.966499 -68.929635 -89.754687
13317 14 1 -21.527492 -69.477628 -89.042664
13318 14 1 -22.463878 -69.542914 -88.697818
13319 14 1 -23.020913 -70.339006 -88.461283
13320 14 1 -22.055805 -70.415154 -88.210750
13321 14 1 -22.359898 -71.125637 -88.845369
13322 14 1 -22.713169 -71.369223 -89.748622
13323 14 1 -23.203345 -70.520993 -89.548038
13324 14 1 -23.458395 -70.403093 -90.507751
13325 14 1 -24.325621 -70.100769 -90.903375
13326 14 1 -24.804685 -69.980393 -90.033889
13327 14 1 -24.926967 -70.592102 -89.252314
13328 14 1 -24.052531 -70.119960 -89.363868
13329 14 1 -23.462436 -69.351424 -89.116604
13330 14 1 -23.149176 -69.723932 -89.990163
13331 14 1 -22.477507 -70.292733 -90.464850
13332 14 1 -21.510993 -70.549273 -90.470957
13333 14 1 -22.034827 -71.397892 -90.544751
13334 14 1 -21.060040 -71.604395 -90.460211
13335 14 1 -20.500521 -72.429978 -90.533367
13336 14 1 -20.004982 -73.161639 -91.001462
13337 14 1 -19.799885 -74.139103 -91.051451
13338 14 1 -19.100614 -74.833851 -90.883089
13339 14 1 -18.498500 -75.119626 -90.137576
13340 14 1 -19.038627 -75.200285 -89.299866
13341 14 1 -19.817902 -75.741941 -89.615047
13342 14 1 -20.671054 -76.247619 -89.486902
13343 14 1 -21.516789 -76.257884 -90.020406
13344 14 1 -20.872547 -76.833184 -90.524373
13345 14 1 -21.324070 -76.574400 -91.378281
13346 14 1 -21.407688 -77.548137 -91.590042
13347 14 1 -22.340984 -77.224704 -91.434000
13348 14 1 -23.121687 -76.773638 -91.001516
13349 14 1 -23.189320 -77.300799 -91.848585
13350 14 1 -23.775631 -77.645023 -92.581899
13351 14 1 -24.059203 -77.574110 -91.625574
13352 14 1 -24.684067 -76.846145 -91.343418
13353 14 1 -24.954762 -75.886160 -91.415200
13354 14 1 -24.172071 -75.273025 -91.308151
13355 14 1 -24.196204 -76.233117 -91.029509
13356 14 1 -24.162999 -75.460526 -90.395474
13357 14 1 -24.482082 -74.515484 -90.324191
13358 14 1 -25.477454 -74.548830 -90.414322
13359 14 1 -26.342651 -75.033508 -90.542853
13360 14 1 -27.149910 -74.734118 -91.051477
13361 14 1 -27.764588 -73.971509 -91.252965
13362 14 1 -28.707319 -73.668539 -91.113436
13363 14 1 -28.141386 -73.619917 -90.290419
13364 14 1 -27.237122 -73.230816 -90.466220
13365 14 1 -27.736269 -72.436697 -90.812959
13366 14 1 -27.083112 -71.702422 -90.997962
13367 14 1 -26.222984 -72.042301 -90.617617
13368 14 1 -25.827005 -71.572302 -91.406478
13369 14 1 -25.277484 -70.953721 -91.968069
13370 14 1 -25.515607 -70.216035 -91.336312
13371 14 1 -25.799275 -69.484847 -91.956712
13372 14 1 -25.148215 -68.863721 -92.392973
13373 14 1 -24.220464 -69.048182 -92.068548
13374 14 1 -23.976306 -69.994300 -92.281260
13375 14 1 -23.156004 -70.281791 -92.775682
13376 14 1 -22.348066 -70.596556 -93.273838
13377 14 1 -22.282163 -70.659626 -92.278007
13378 14 1 -22.827824 -71.260924 -91.694316
13379 14 1 -22.086234 -71.473154 -92.330715
13380 14 1 -21.104512 -71.655369 -92.275780
13381 14 1 -21.705346 -72.451498 -92.347730
13382 14 1 -22.589365 -72.517450 -92.810506
13383 14 1 -23.262974 -71.812600 -93.032852
13384 14 1 -23.241097 -72.403032 -93.839643
13385 14 1 -23.430471 -71.477598 -94.167832
13386 14 1 -22.569452 -71.571017 -93.667913
13387 14 1 -22.008199 -72.226753 -94.172893
13388 14 1 -21.794214 -72.278197 -95.148374
13389 14 1 -21.243019 -72.785042 -95.811165
13390 14 1 -21.450743 -73.481245 -96.498299
13391 14 1 -20.565792 -73.312695 -96.932409
13392 14 1 -20.336693 -72.351062 -97.083322
13393 14 1 -20.784358 -72.082257 -97.936164
13394 14 1 -19.845692 -72.154734 -98.273287
13395 14 1 -20.263287 -71.545223 -97.599409
13396 14 1 -20.091253 -71.362779 -98.567458
13397 14 1 -19.247672 -71.651167 -99.020452
13398 14 1 -18.913959 -71.265233 -98.160400
13399 14 1 -19.080693 -71.966647 -97.467421
13400 14 1 -19.513371 -71.172586 -97.040506
13401 14 1 -19.258721 -72.053499 -96.641577
13402 14 1 -19.564915 -72.997807 -96.521042
13403 14 1 -18.777462 -73.613733 -96.497549
13404 14 1 -18.517194 -74.571039 -96.371752
13405 14 1 -18.227397 -74.557438 -97.328744
13406 14 1 -17.660470 -74.065428 -97.989440
13407 14 1 -17.186028 -73.505965 -98.669077
13408 14 1 -17.017082 -72.609631 -99.079006
13409 14 1 -17.611214 -73.019917 -99.770867
13410 14 1 -16.782570 -73.503429 -99.488797
13411 14 1 -17.463344 -74.213868 -99.667186
13412 14 1 -18.030909 -74.535459 -98.909262
13413 14 1 -18.481296 -73.649756 -98.796649
13414 14 1 -19.052193 -73.159555 -99.455269
13415 14 1 -19.803915 -72.945294 -98.831566
13416 14 1 -18.942544 -72.642422 -98.423756
13417 14 1 -18.700655 -73.484680 -97.941997
13418 14 1 -19.641423 -73.395144 -97.614980
13419 14 1 -19.602140 -73.926813 -96.768939
13420 14 1 -19.764987 -73.472643 -95.893033
13421 14 1 -20.167336 -74.387939 -95.874364
13422 14 1 -20.601354 -75.169289 -96.322829
13423 14 1 -21.427767 -75.692473 -96.114698
13424 14 1 -21.954354 -75.828732 -95.275567
13425 14 1 -22.302602 -76.439259 -95.986891
13426 14 1 -22.011315 -75.762189 -96.662708
13427 14 1 -22.459545 -74.974753 -96.239584
13428 14 1 -23.393662 -74.629757 -96.331261
13429 14 1 -23.152051 -74.005346 -95.588472
13430 14 1 -23.133863 -74.847698 -95.049851
13431 14 1 -23.973965 -75.164917 -94.609851
13432 14 1 -23.144689 -75.209818 -94.052817
13433 14 1 -22.378584 -74.782141 -94.532583
13434 14 1 -22.844933 -73.920270 -94.333344
13435 14 1 -22.159709 -73.767869 -93.621134
13436 14 1 -22.305701 -74.695461 -93.277245
13437 14 1 -23.193180 -74.387540 -93.620125
13438 14 1 -22.945763 -74.626305 -92.681096
13439 14 1 -22.742141 -75.408576 -92.092377
13440 14 1 -22.566456 -74.761661 -91.350329
13441 14 1 -22.190267 -75.688162 -91.341621
13442 14 1 -22.268271 -75.102474 -90.534846
13443 14 1 -23.005484 -75.777455 -90.504533
13444 14 1 -23.423423 -76.206566 -89.703790
13445 14 1 -23.111921 -75.759016 -88.865538
13446 14 1 -22.975742 -74.849448 -89.258147
13447 14 1 -23.460217 -74.128066 -89.753012
13448 14 1 -22.464142 -74.127046 -89.664509
13449 14 1 -21.559550 -73.748920 -89.467698
13450 14 1 -21.641322 -74.320865 -88.651492
13451 14 1 -21.642701 -75.094389 -88.017726
13452 14 1 -21.843374 -74.484203 -87.251303
13453 14 1 -22.145134 -74.600438 -86.305032
13454 14 1 -21.549592 -73.955476 -85.826122
13455 14 1 -21.576931 -73.771809 -84.843513
13456 14 1 -20.774359 -73.175929 -84.871888
13457 14 1 -20.438973 -72.235550 -84.815293
13458 14 1 -21.205357 -72.382703 -85.440594
13459 14 1 -21.314238 -71.396092 -85.319168
13460 14 1 -20.621886 -70.727076 -85.048858
13461 14 1 -20.368652 -71.402100 -85.741834
13462 14 1 -20.092376 -71.436368 -84.781367
13463 14 1 -19.285128 -70.850558 -84.709407
13464 14 1 -19.607648 -70.084140 -85.264911
13465 14 1 -20.068206 -70.049532 -84.377956
13466 14 1 -19.203582 -70.101805 -83.878263
13467 14 1 -18.577341 -70.034563 -84.654987
13468 14 1 -18.076369 -70.869186 -84.426007
13469 14 1 -18.615730 -71.126350 -85.227853
13470 14 1 -18.354297 -70.253235 -85.639342
13471 14 1 -18.908284 -69.430503 -85.766666
13472 14 1 -18.486917 -69.061180 -84.938384
13473 14 1 -17.849133 -69.596042 -85.492598
13474 14 1 -17.287956 -70.398360 -85.695985
13475 14 1 -16.381297 -70.116692 -85.381928
13476 14 1 -16.587407 -70.723538 -86.149559
13477 14 1 -15.872542 -70.043791 -86.313608
13478 14 1 -14.891634 -70.126902 -86.137789
13479 14 1 -14.309533 -70.551426 -85.444292
13480 14 1 -13.364077 -70.657041 -85.752446
13481 14 1 -12.946228 -70.678704 -86.660704
13482 14 1 -12.871028 -70.621719 -87.656243
13483 14 1 -13.611123 -70.325472 -88.259979
13484 14 1 -12.827219 -69.727045 -88.425447
13485 14 1 -12.152002 -69.011403 -88.246734
13486 14 1 -11.285288 -69.471102 -88.440342
13487 14 1 -11.574290 -69.218582 -87.516918
13488 14 1 -12.048732 -69.720411 -86.793681
13489 14 1 -12.697824 -69.939709 -86.065266
13490 14 1 -11.708519 -69.804011 -86.011762
13491 14 1 -11.038275 -69.093612 -86.226485
13492 14 1 -10.609266 -69.907053 -86.619251
13493 14 1 -10.110950 -69.880620 -85.752658
13494 14 1 -9.504497 -69.925687 -86.546500
13495 14 1 -10.249192 -70.544047 -86.295381
13496 14 1 -9.981178 -70.521927 -87.258542
13497 14 1 -9.072030 -70.423943 -87.663324
13498 14 1 -9.802349 -69.854826 -88.041134
13499 14 1 -10.004798 -69.959354 -89.014832
13500 14 1 -10.256826 -69.951919 -89.982524
13501 14 1 -11.181422 -69.975191 -89.602285
13502 14 1 -10.770649 -70.798629 -89.210858
13503 14 1 -9.959513 -71.363281 -89.363265
13504 14 1 -9.775599 -71.189005 -90.330634
13505 14 1 -9.958774 -70.992071 -91.293787
13506 14 1 -10.535498 -71.616210 -90.766682
13507 14 1 -11.166622 -72.183214 -90.237352
13508 14 1 -11.702051 -71.544766 -90.790253
13509 14 1 -12.414464 -72.119344 -91.193152
13510 14 1 -12.771962 -71.699275 -92.027260
13511 14 1 -12.729188 -72.695452 -91.951088
13512 14 1 -12.012368 -72.538081 -92.630355
13513 14 1 -12.173198 -73.513785 -92.481577
13514 14 1 -11.570457 -74.305108 -92.584111
13515 14 1 -11.702685 -74.279868 -91.593213
13516 14 1 -12.376674 -74.388111 -92.323982
13517 14 1 -12.406762 -74.348729 -93.322753
13518 14 1 -12.790634 -75.157119 -93.769015
13519 14 1 -12.405145 -75.234767 -92.849575
13520 14 1 -13.199560 -74.628044 -92.877733
13521 14 1 -13.955427 -74.024797 -93.132208
13522 14 1 -13.466682 -73.256785 -92.718342
13523 14 1 -14.310949 -73.714915 -92.440260
13524 14 1 -15.217506 -73.296454 -92.495455
13525 14 1 -14.439576 -73.235921 -93.120884
13526 14 1 -15.101458 -73.499071 -93.822784
13527 14 1 -14.620385 -72.735604 -94.253698
13528 14 1 -13.926748 -72.480619 -94.927383
13529 14 1 -13.837503 -72.459897 -95.923177
13530 14 1 -14.684302 -71.967933 -96.125424
13531 14 1 -15.163177 -71.363101 -96.761706
13532 14 1 -15.383076 -71.337776 -95.786513
13533 14 1 -15.534609 -71.433991 -94.802754
13534 14 1 -15.205404 -70.493929 -94.713825
13535 14 1 -15.403676 -70.689475 -93.753382
13536 14 1 -15.909878 -69.849059 -93.946926
13537 14 1 -16.478312 -70.352634 -94.597537
13538 14 1 -16.690207 -71.005970 -95.324347
13539 14 1 -17.411410 -71.670544 -95.519814
13540 14 1 -17.027799 -71.343745 -96.383553
13541 14 1 -17.163852 -72.309683 -96.603673
13542 14 1 -18.124238 -72.568168 -96.499531
13543 14 1 -17.715715 -71.908235 -97.130085
13544 14 1 -17.161093 -72.712771 -97.342491
13545 14 1 -16.324506 -72.813468 -96.803991
13546 14 1 -16.145250 -73.784878 -96.648332
13547 14 1 -16.025449 -74.553342 -96.019753
13548 14 1 -15.065426 -74.686198 -96.266137
13549 14 1 -15.793628 -75.340251 -96.470919
13550 14 1 -15.149449 -76.025435 -96.130984
13551 14 1 -14.271261 -75.608228 -96.364919
13552 14 1 -14.069936 -74.892289 -97.033424
13553 14 1 -13.639504 -75.339671 -97.817374
13554 14 1 -13.671078 -76.333847 -97.920409
13555 14 1 -13.258320 -76.425376 -97.014179
13556 14 1 -12.682920 -77.241868 -97.061659
13557 14 1 -12.835718 -76.641088 -96.276984
13558 14 1 -13.777115 -76.552077 -95.951640
13559 14 1 -14.176930 -77.369551 -96.366229
13560 14 1 -13.718622 -77.230679 -95.488352
13561 14 1 -14.676435 -77.125983 -95.220711
13562 14 1 -14.122174 -77.390289 -94.431448
13563 14 1 -13.835321 -77.360738 -93.473929
13564 14 1 -13.182774 -78.095230 -93.660218
13565 14 1 -14.093180 -78.094387 -93.246503
13566 14 1 -14.708585 -77.566844 -93.832144
13567 14 1 -15.665095 -77.364823 -94.042560
13568 14 1 -15.039913 -76.662352 -93.702441
13569 14 1 -15.111092 -76.512820 -94.688633
13570 14 1 -14.185253 -76.329872 -95.019315
13571 14 1 -13.402783 -76.270642 -94.399450
13572 14 1 -12.639802 -76.645846 -93.873062
13573 14 1 -12.322150 -77.571567 -93.667786
13574 14 1 -13.116512 -77.469835 -94.266651
13575 14 1 -12.903953 -76.732972 -94.908407
13576 14 1 -12.280070 -75.951461 -94.911800
13577 14 1 -11.728364 -75.966679 -95.745700
13578 14 1 -11.371713 -75.974274 -94.811493
13579 14 1 -11.028552 -75.085421 -94.507879
13580 14 1 -10.395674 -75.816638 -94.253349
13581 14 1 -9.664850 -76.468816 -94.454743
13582 14 1 -8.977144 -75.801821 -94.741410
13583 14 1 -8.942492 -75.448550 -95.676290
13584 14 1 -8.102820 -74.912400 -95.589726
13585 14 1 -7.517613 -74.898510 -94.778961
13586 14 1 -7.833051 -74.670739 -93.857756
13587 14 1 -8.673809 -75.002683 -93.430042
13588 14 1 -8.073684 -74.934263 -92.633067
13589 14 1 -7.585017 -75.410931 -91.902319
13590 14 1 -6.899996 -74.773002 -92.254161
13591 14 1 -6.677425 -74.123337 -91.527252
13592 14 1 -5.768189 -74.133455 -91.943412
13593 14 1 -6.426764 -73.410637 -92.152730
13594 14 1 -6.478953 -72.570722 -91.612528
13595 14 1 -7.280751 -72.154706 -92.041540
13596 14 1 -6.611228 -71.498689 -91.693143
13597 14 1 -7.080849 -72.144001 -91.090624
13598 14 1 -7.036298 -72.930860 -90.475101
13599 14 1 -7.700091 -73.674811 -90.552011
13600 14 1 -7.932032 -73.082862 -91.323891
13601 14 1 -8.139409 -72.851017 -92.274282
13602 14 1 -7.657344 -73.537332 -92.818878
13603 14 1 -7.084590 -72.718057 -92.846090
13604 14 1 -7.097088 -72.298789 -93.753867
13605 14 1 -7.149590 -71.647038 -92.997252
13606 14 1 -6.822804 -70.730291 -93.227002
13607 14 1 -7.778504 -70.448538 -93.141831
13608 14 1 -8.714159 -70.135916 -93.305591
13609 14 1 -8.756027 -69.420235 -94.002763
13610 14 1 -8.019944 -69.885328 -94.494567
13611 14 1 -8.330359 -70.763701 -94.131108
13612 14 1 -9.247703 -70.832999 -93.739090
13613 14 1 -9.925355 -70.598760 -93.042010
13614 14 1 -10.668755 -70.364903 -93.668641
13615 14 1 -10.964557 -70.625867 -92.749729
13616 14 1 -11.841286 -71.000624 -93.051232
13617 14 1 -12.558693 -70.638537 -93.646395
13618 14 1 -12.970844 -71.206522 -92.933987
13619 14 1 -13.556026 -70.517854 -92.505855
13620 14 1 -13.609045 -69.697023 -93.074560
13621 14 1 -13.305610 -70.138677 -93.918875
13622 14 1 -13.783001 -70.253033 -94.790093
13623 14 1 -13.367047 -69.347275 -94.871252
13624 14 1 -13.758272 -68.547972 -95.327386
13625 14 1 -13.201977 -67.717214 -95.346806
13626 14 1 -12.405696 -68.195795 -94.976810
13627 14 1 -12.268910 -67.653054 -94.148123
13628 14 1 -12.106455 -66.754542 -93.740342
13629 14 1 -12.179535 -67.049496 -92.787630
13630 14 1 -12.980305 -67.610424 -92.997694
13631 14 1 -13.041876 -68.604977 -93.081795
13632 14 1 -13.267235 -68.058498 -93.888376
13633 14 1 -14.136309 -67.721721 -94.250717
13634 14 1 -14.472825 -68.659096 -94.340640
13635 14 1 -15.059895 -68.927421 -95.104414
13636 14 1 -14.887500 -69.867319 -95.399154
13637 14 1 -14.379627 -70.523376 -95.957415
13638 14 1 -14.684247 -69.920505 -96.694811
13639 14 1 -14.459600 -70.674065 -97.312614
13640 14 1 -13.745283 -71.114745 -97.856262
13641 14 1 -14.024560 -70.750956 -98.744891
13642 14 1 -13.329752 -70.618410 -99.451767
13643 14 1 -12.541441 -70.025375 -99.615701
13644 14 1 -12.637157 -70.827906 -99.026820
13645 14 1 -12.683601 -70.651445 -98.043609
13646 14 1 -11.912661 -70.210308 -98.503011
13647 14 1 -11.308705 -70.301256 -99.294823
13648 14 1 -10.887446 -71.185420 -99.496802
13649 14 1 -10.111219 -71.814558 -99.456105
13650 14 1 -9.874988 -72.383340 -98.668271
13651 14 1 -9.096303 -72.917634 -98.997176
13652 14 1 -9.326344 -72.209675 -99.664915
13653 14 1 -8.748827 -71.459439 -99.986817
13654 14 1 -8.115420 -71.504638 -99.214319
13655 14 1 -7.758559 -72.267845 -98.675649
13656 14 1 -7.147025 -73.057482 -98.625658
13657 14 1 -6.840422 -72.150323 -98.913853
13658 14 1 -6.622495 -71.202683 -98.680429
13659 14 1 -6.364710 -70.257262 -98.481113
13660 14 1 -6.051381 -69.333069 -98.262730
13661 14 1 -6.520886 -68.635228 -97.721821
13662 14 1 -6.125657 -68.561953 -96.806166
13663 14 1 -5.987491 -67.776035 -97.408861
13664 14 1 -5.992374 -67.491901 -96.450089
13665 14 1 -6.436455 -66.731290 -96.923652
13666 14 1 -5.540737 -66.369356 -97.181903
13667 14 1 -5.242414 -67.171843 -96.665163
13668 14 1 -4.866482 -66.852015 -95.795459
13669 14 1 -4.910894 -66.833981 -94.796608
13670 14 1 -4.627761 -67.778150 -94.628143
13671 14 1 -5.591569 -67.843057 -94.886721
13672 14 1 -5.671868 -68.836777 -94.808795
13673 14 1 -6.487056 -68.766048 -94.233934
13674 14 1 -7.013604 -68.458457 -93.441384
13675 14 1 -7.573457 -68.783035 -92.679010
13676 14 1 -8.476305 -68.706678 -92.255884
13677 14 1 -8.361792 -68.242659 -91.377492
13678 14 1 -8.409447 -67.917748 -90.432949
13679 14 1 -8.793596 -67.136117 -90.924357
13680 14 1 -9.089248 -66.556004 -90.165372
13681 14 1 -8.614856 -65.898574 -90.750810
13682 14 1 -9.212955 -65.435450 -91.404869
13683 14 1 -8.319461 -65.753141 -91.722265
13684 14 1 -7.426084 -66.064467 -92.046231
13685 14 1 -7.661549 -67.009565 -91.819635
13686 14 1 -7.836707 -67.293657 -92.762297
13687 14 1 -7.763409 -66.576517 -93.455360
13688 14 1 -8.390485 -66.155387 -94.110666
13689 14 1 -8.933001 -65.315454 -94.096940
13690 14 1 -8.908135 -65.489652 -95.081337
13691 14 1 -7.957296 -65.594798 -94.790046
13692 14 1 -7.563730 -66.336918 -94.247494
13693 14 1 -7.080335 -66.352075 -95.122764
13694 14 1 -6.616951 -67.148203 -95.511939
13695 14 1 -6.673872 -68.125436 -95.307548
13696 14 1 -7.551633 -67.666748 -95.169201
13697 14 1 -6.850905 -67.995772 -94.536175
13698 14 1 -7.284573 -68.890352 -94.644155
13699 14 1 -7.784095 -68.254885 -94.055376
13700 14 1 -7.138516 -67.531964 -93.809179
13701 14 1 -6.908919 -66.937119 -93.038825
13702 14 1 -7.151313 -66.059424 -93.452223
13703 14 1 -6.999969 -65.371214 -94.161773
13704 14 1 -7.720296 -64.752240 -94.474820
13705 14 1 -7.729899 -65.045287 -95.430870
13706 14 1 -8.569556 -64.939034 -95.963492
13707 14 1 -8.027422 -65.673178 -96.372300
13708 14 1 -7.214089 -65.246322 -96.767628
13709 14 1 -6.332382 -65.304379 -97.235839
13710 14 1 -6.502983 -65.806228 -96.387875
13711 14 1 -6.902304 -65.253935 -95.656086
13712 14 1 -6.362638 -64.946825 -96.439951
13713 14 1 -5.590355 -64.375751 -96.161646
13714 14 1 -5.644835 -64.719710 -95.224243
13715 14 1 -5.476733 -65.192088 -96.089460
13716 14 1 -4.729647 -64.527393 -96.095938
13717 14 1 -3.742571 -64.367570 -96.107702
13718 14 1 -2.924183 -63.921980 -96.470594
13719 14 1 -2.697724 -64.866413 -96.232343
13720 14 1 -2.964527 -64.788410 -97.192933
13721 14 1 -3.352589 -65.361438 -96.471097
13722 14 1 -3.027317 -65.627006 -95.563533
13723 14 1 -3.466509 -65.455660 -94.681631
13724 14 1 -4.040977 -66.126806 -94.213070
13725 14 1 -3.424580 -66.437244 -94.936730
13726 14 1 -2.489566 -66.722304 -94.725807
13727 14 1 -2.343337 -66.021642 -94.027459
13728 14 1 -1.830942 -66.290828 -93.211989
13729 14 1 -0.960269 -66.123586 -93.674545
13730 14 1 -0.619447 -66.152384 -92.734858
13731 14 1 -0.219187 -65.238071 -92.673027
13732 14 1 0.390467 -64.449372 -92.593800
13733 14 1 0.219693 -65.025478 -93.393137
13734 14 1 0.598761 -64.598335 -94.214024
13735 14 1 1.442744 -64.126428 -94.468971
13736 14 1 1.098500 -63.188184 -94.434428
13737 14 1 0.553013 -63.505425 -93.658669
13738 14 1 -0.050335 -64.296808 -93.757081
13739 14 1 -0.259657 -64.209274 -94.731001
13740 14 1 -0.988923 -63.788919 -95.270884
13741 14 1 -0.065953 -64.004068 -95.590003
13742 14 1 0.120805 -63.026239 -95.684718
13743 14 1 -0.695921 -62.488948 -95.474296
13744 14 1 -0.032031 -62.403897 -94.731318
13745 14 1 0.306878 -61.791138 -94.017408
13746 14 1 1.087131 -61.838370 -93.393731
13747 14 1 1.213655 -61.530671 -94.336764
13748 14 1 0.664025 -61.020917 -94.998624
13749 14 1 1.366548 -61.376189 -95.615263
13750 14 1 1.936440 -60.648023 -95.234478
13751 14 1 2.694120 -60.541042 -94.590680
13752 14 1 2.805110 -61.528013 -94.707165
13753 14 1 2.101078 -61.949861 -94.135866
13754 14 1 2.731029 -62.512212 -94.671517
13755 14 1 3.028226 -62.930558 -95.529807
13756 14 1 3.476351 -63.768513 -95.218333
13757 14 1 3.484458 -64.647025 -95.695983
13758 14 1 4.097533 -65.430852 -95.597221
13759 14 1 3.909521 -65.096793 -96.520832
13760 14 1 2.919034 -65.089632 -96.383409
13761 14 1 2.846969 -64.681935 -97.293678
13762 14 1 3.619937 -64.749499 -97.924514
13763 14 1 3.311317 -65.378538 -97.211027
13764 14 1 4.033703 -66.057544 -97.080219
13765 14 1 4.004865 -66.983247 -97.457369
13766 14 1 4.785709 -66.394751 -97.247712
13767 14 1 4.918690 -65.420792 -97.064080
13768 14 1 5.195141 -64.459920 -97.046796
13769 14 1 4.407332 -63.952862 -96.697156
13770 14 1 5.058108 -63.285892 -97.059981
13771 14 1 4.453895 -63.081271 -97.830083
13772 14 1 4.257561 -62.809363 -96.888000
13773 14 1 3.441802 -62.237940 -96.798485
13774 14 1 2.723100 -62.709634 -96.287632
13775 14 1 3.027859 -63.345968 -96.996293
13776 14 1 3.433235 -63.683066 -97.846020
13777 14 1 2.778193 -63.133284 -98.364344
13778 14 1 2.704312 -63.555717 -99.267721
13779 14 1 2.770815 -64.451207 -98.827635
13780 14 1 3.382869 -65.227545 -98.978265
13781 14 1 3.041704 -66.042944 -99.445951
13782 14 1 3.869530 -66.568510 -99.249778
13783 14 1 4.727570 -67.081059 -99.282351
13784 14 1 4.291213 -67.414267 -98.446548
13785 14 1 3.728810 -68.148891 -98.067035
13786 14 1 4.427870 -68.813431 -98.331046
13787 14 1 5.259917 -69.315704 -98.566457
13788 14 1 6.164867 -69.238256 -98.984868
13789 14 1 5.627011 -70.072846 -98.865825
13790 14 1 5.679244 -69.455911 -99.651103
13791 14 1 5.293484 -68.572798 -99.918127
13792 14 1 4.845633 -69.367620 -99.508631
13793 14 1 4.856694 -70.362267 -99.405888
13794 14 1 4.430607 -71.237339 -99.176326
13795 14 1 4.664162 -71.348006 -98.210301
13796 14 1 5.518219 -70.921093 -97.913095
13797 14 1 6.024611 -71.510886 -98.542151
13798 14 1 5.583047 -71.975407 -99.309772
13799 14 1 4.861778 -72.431142 -98.788163
13800 14 1 4.740478 -73.240318 -98.213254
13801 14 1 5.065902 -73.466519 -99.131367
13802 14 1 5.933989 -73.184402 -98.722914
13803 14 1 6.595173 -73.174066 -99.473066
13804 14 1 6.967935 -72.347173 -99.894133
13805 14 1 6.390366 -72.132428 -99.106542
13806 14 1 5.768538 -72.820702 -99.480184
13807 14 1 5.729754 -73.769433 -99.793879
13808 14 1 6.097120 -73.987342 -98.889690
13809 14 1 6.679654 -74.474492 -99.540336
13810 14 1 7.601517 -74.154445 -99.758826
13811 14 1 7.783698 -73.187571 -99.580036
13812 14 1 7.821272 -73.038708 -98.591892
13813 14 1 7.773721 -73.429941 -97.672830
13814 14 1 7.638195 -74.175288 -97.020073
13815 14 1 6.932836 -74.880012 -96.943703
13816 14 1 6.803014 -73.888897 -96.972655
13817 14 1 5.968333 -73.349693 -96.860557
13818 14 1 5.796935 -73.817310 -97.727712
13819 14 1 6.769996 -73.951680 -97.915059
13820 14 1 6.701527 -74.772217 -98.482536
13821 14 1 7.180738 -73.902758 -98.602527
13822 14 1 7.943749 -74.344121 -98.130284
13823 14 1 8.649662 -74.962811 -98.475115
13824 14 1 8.787285 -75.660773 -97.772329
13825 14 1 9.675799 -76.070451 -97.978984
13826 14 1 9.648299 -76.682088 -97.188323
13827 14 1 9.582818 -76.197090 -96.316263
13828 14 1 8.742808 -76.670277 -96.581738
13829 14 1 7.913868 -77.167741 -96.326025
13830 14 1 7.430896 -77.840373 -95.765397
13831 14 1 7.577406 -76.870637 -95.570086
13832 14 1 7.220408 -76.041655 -96.000598
13833 14 1 8.208189 -76.013126 -95.847385
13834 14 1 9.123397 -76.329920 -95.598315
13835 14 1 9.434573 -75.408188 -95.366843
13836 14 1 9.709571 -75.849037 -94.512426
13837 14 1 8.951693 -76.067155 -93.897571
13838 14 1 8.159480 -76.676485 -93.864191
13839 14 1 8.123030 -77.487317 -94.448333
13840 14 1 8.959203 -77.454972 -94.995845
13841 14 1 9.718579 -77.725884 -95.587414
13842 14 1 9.675080 -78.326570 -94.789113
13843 14 1 9.992628 -78.062845 -93.878282
13844 14 1 9.606668 -78.981463 -93.962984
13845 14 1 10.370167 -79.165008 -93.343806
13846 14 1 10.020149 -78.848111 -92.462294
13847 14 1 10.189111 -78.095273 -91.826144
13848 14 1 9.901164 -77.192047 -91.507915
13849 14 1 9.430091 -76.376601 -91.844276
13850 14 1 8.617406 -76.647768 -91.328513
13851 14 1 7.782332 -76.156232 -91.081443
13852 14 1 6.954976 -75.729587 -90.716126
13853 14 1 6.186975 -75.543089 -90.103432
13854 14 1 5.560257 -75.549170 -90.882655
13855 14 1 4.792493 -75.821405 -90.302631
13856 14 1 4.937082 -76.799002 -90.149666
13857 14 1 4.079756 -76.815210 -90.664184
13858 14 1 4.780086 -77.510168 -90.501178
13859 14 1 4.720605 -78.475919 -90.248616
13860 14 1 3.938192 -78.334126 -90.855019
13861 14 1 3.758336 -77.843016 -91.707347
13862 14 1 2.857299 -77.864369 -92.140563
13863 14 1 3.470181 -77.913245 -92.929224
13864 14 1 2.765106 -78.581618 -92.692273
13865 14 1 2.166394 -78.496813 -91.895811
13866 14 1 1.551978 -78.727334 -92.650365
13867 14 1 0.861520 -78.840414 -93.364845
13868 14 1 1.174153 -79.789846 -93.393802
13869 14 1 0.237336 -79.753451 -93.741722
13870 14 1 0.958745 -80.381240 -94.034040
13871 14 1 1.411657 -80.795064 -93.244343
13872 14 1 1.667035 -81.144148 -94.145965
13873 14 1 2.422831 -81.021264 -93.502793
13874 14 1 3.349660 -81.106308 -93.137065
13875 14 1 3.750366 -81.235292 -92.229983
13876 14 1 3.820450 -82.232799 -92.238252
13877 14 1 4.295679 -82.632715 -93.021978
13878 14 1 4.016010 -83.592181 -92.987196
13879 14 1 4.371044 -83.220871 -92.129245
13880 14 1 3.996060 -82.535581 -91.504933
13881 14 1 4.825867 -82.029999 -91.268700
13882 14 1 5.133976 -82.662057 -91.979735
13883 14 1 4.731434 -82.044517 -92.655460
13884 14 1 5.122645 -81.160899 -92.912702
13885 14 1 6.013272 -81.613550 -92.956176
13886 14 1 6.097150 -81.886526 -93.914533
13887 14 1 6.190699 -82.872928 -94.049664
13888 14 1 6.454129 -83.310228 -94.909532
13889 14 1 7.395968 -83.012833 -95.066044
13890 14 1 8.336292 -82.944677 -95.399426
13891 14 1 7.589351 -82.713504 -96.022834
13892 14 1 7.343767 -83.430979 -96.674692
13893 14 1 6.912176 -83.457040 -97.576384
13894 14 1 6.053682 -83.236961 -97.113185
13895 14 1 5.421698 -82.685695 -96.568481
13896 14 1 6.225685 -83.110688 -96.152564
13897 14 1 5.578441 -83.535180 -95.519412
13898 14 1 5.587928 -84.403770 -96.014852
13899 14 1 5.957070 -84.934310 -95.251791
13900 14 1 6.186382 -85.884891 -95.042479
13901 14 1 5.910923 -86.834316 -95.193194
13902 14 1 5.306222 -86.302445 -95.786026
13903 14 1 5.494554 -86.209148 -96.763690
13904 14 1 5.854568 -85.278299 -96.826223
13905 14 1 6.746968 -85.295593 -96.375309
13906 14 1 7.663797 -85.670618 -96.238266
13907 14 1 7.654742 -86.017497 -97.176132
13908 14 1 7.605583 -86.012868 -98.174912
13909 14 1 6.943936 -85.682349 -98.847950
13910 14 1 7.209747 -86.615452 -99.090154
13911 14 1 7.861313 -87.322858 -98.816222
13912 14 1 7.033235 -87.448620 -98.269899
13913 14 1 6.567510 -87.205828 -97.418927
13914 14 1 6.837735 -86.287717 -97.708843
13915 14 1 6.874126 -86.323234 -96.710137
13916 14 1 6.688904 -86.349422 -95.727789
13917 14 1 7.433306 -86.226737 -95.071424
13918 14 1 7.824410 -86.039372 -94.170352
13919 14 1 8.498071 -85.918080 -93.441332
13920 14 1 8.763269 -86.065610 -94.394173
13921 14 1 9.411099 -85.320048 -94.237794
13922 14 1 8.851029 -84.491606 -94.235464
13923 14 1 8.400888 -83.605440 -94.345383
13924 14 1 7.986011 -82.710320 -94.508593
13925 14 1 8.265955 -82.187413 -93.703485
13926 14 1 7.952479 -82.683515 -92.893784
13927 14 1 8.185092 -83.647259 -93.024508
13928 14 1 8.815127 -83.259507 -92.351675
13929 14 1 8.835833 -82.407403 -91.828712
13930 14 1 9.695520 -82.748298 -92.209143
13931 14 1 9.498174 -81.819761 -91.894699
13932 14 1 9.247191 -81.010870 -91.363003
13933 14 1 9.110457 -80.392587 -92.136974
13934 14 1 9.490756 -80.225501 -93.046619
13935 14 1 9.968812 -81.058968 -92.769501
13936 14 1 8.971760 -81.013609 -92.831374
13937 14 1 8.427063 -80.241368 -93.158405
13938 14 1 7.485780 -79.938236 -93.009754
13939 14 1 6.846074 -79.222307 -93.289436
13940 14 1 6.838676 -80.089924 -93.786613
13941 14 1 6.995784 -80.762340 -93.063306
13942 14 1 7.698733 -81.019460 -93.726444
13943 14 1 8.072597 -80.433246 -94.445178
13944 14 1 8.646513 -80.143299 -95.211044
13945 14 1 8.400431 -80.201289 -96.178557
13946 14 1 7.516772 -80.036420 -95.740419
13947 14 1 7.002443 -80.892301 -95.686259
13948 14 1 6.021274 -80.704337 -95.730725
13949 14 1 5.289992 -80.386969 -96.334467
13950 14 1 4.777597 -79.950510 -95.594903
13951 14 1 4.708971 -80.457498 -94.735686
13952 14 1 4.342205 -81.135436 -95.372774
13953 14 1 3.372803 -81.343084 -95.241844
13954 14 1 3.047848 -80.442636 -95.530976
13955 14 1 2.930572 -81.360608 -95.909886
13956 14 1 2.489570 -81.632298 -95.054490
13957 14 1 1.528042 -81.460084 -95.268511
13958 14 1 1.365378 -81.156584 -96.207356
13959 14 1 0.541751 -81.356514 -96.738077
13960 14 1 1.042204 -82.067189 -97.232535
13961 14 1 0.159087 -82.052364 -97.701455
13962 14 1 -0.181986 -81.720167 -98.580837
13963 14 1 0.449294 -80.944686 -98.591569
13964 14 1 0.623763 -80.857430 -99.572358
13965 14 1 1.019667 -80.063675 -99.110608
13966 14 1 0.988682 -79.066638 -99.181019
13967 14 1 0.224871 -79.450510 -99.699898
13968 14 1 -0.715641 -79.593500 -99.391694
13969 14 1 -0.103627 -80.300591 -99.745900
13970 14 1 -1.082695 -80.372692 -99.555564
13971 14 1 -0.691648 -80.428804 -98.636905
13972 14 1 -0.909967 -80.500523 -97.663667
13973 14 1 0.036797 -80.373516 -97.367852
13974 14 1 0.973097 -80.129761 -97.115015
13975 14 1 1.677654 -80.599534 -97.646910
13976 14 1 0.870315 -80.319744 -98.166451
13977 14 1 1.436995 -79.597137 -97.770581
13978 14 1 1.134677 -78.670805 -97.995331
13979 14 1 0.731464 -77.919128 -97.473412
13980 14 1 0.603193 -78.546519 -96.705344
13981 14 1 0.008745 -78.037739 -96.082629
13982 14 1 0.439435 -77.139504 -95.994989
13983 14 1 0.786025 -76.245224 -96.278075
13984 14 1 1.250371 -75.444951 -95.898672
13985 14 1 0.263860 -75.377058 -95.749722
13986 14 1 -0.428946 -74.709173 -95.477784
13987 14 1 -1.159326 -74.798280 -94.800580
13988 14 1 -1.715655 -75.458620 -95.305009
13989 14 1 -2.478609 -76.080869 -95.129770
13990 14 1 -3.404798 -76.334506 -94.850769
13991 14 1 -4.346496 -76.025634 -94.984198
13992 14 1 -4.925763 -76.373269 -95.721490
13993 14 1 -5.567000 -76.776141 -96.374567
13994 14 1 -4.633308 -77.008596 -96.646934
13995 14 1 -4.758761 -76.110788 -97.069074
13996 14 1 -3.911926 -75.796383 -96.640099
13997 14 1 -4.018207 -75.862635 -97.632225
13998 14 1 -4.778555 -76.324684 -98.088714
13999 14 1 -5.312393 -75.480433 -98.136225
14000 14 1 -4.958426 -74.594330 -97.837011
14001 15 1 35.449016 50.214402 61.759194
14002 15 1 34.724050 50.718720 61.290059
14003 15 1 34.808345 50.488586 60.320558
14004 15 1 34.313278 51.342939 60.478638
14005 15 1 34.180526 51.143663 59.507728
14006 15 1 33.635545 51.767505 60.067923
14007 15 1 33.014729 50.990498 60.172072
14008 15 1 32.798144 51.761899 59.573714
14009 15 1 32.398009 52.669307 59.702176
14010 15 1 32.284224 53.641497 59.906870
14011 15 1 31.834568 53.774549 60.790106
14012 15 1 31.873529 54.579612 60.198197
14013 15 1 32.723004 55.048499 59.956252
14014 15 1 33.237448 55.864374 60.220251
14015 15 1 33.617676 56.056143 59.315458
14016 15 1 34.119301 55.638380 58.557931
14017 15 1 34.230982 55.041899 59.352751
14018 15 1 34.425953 54.774759 58.409023
14019 15 1 34.693566 54.178240 59.165692
14020 15 1 35.568162 53.709108 59.043228
14021 15 1 35.126017 53.316074 58.236982
14022 15 1 34.586417 53.232688 57.399201
14023 15 1 35.187280 53.034417 56.624829
14024 15 1 34.236377 52.739034 56.532465
14025 15 1 34.322834 52.386579 55.600639
14026 15 1 35.275175 52.134484 55.772382
14027 15 1 35.686775 52.379459 56.650205
14028 15 1 34.817744 51.935491 56.868557
14029 15 1 35.179421 52.396198 57.679074
14030 15 1 34.326227 51.946604 57.943509
14031 15 1 33.740621 51.407694 58.549018
14032 15 1 33.857357 52.399762 58.502390
14033 15 1 33.413086 52.394504 57.606513
14034 15 1 33.261158 53.050034 56.866785
14035 15 1 32.870253 53.964437 56.761612
14036 15 1 33.242760 54.680995 56.171882
14037 15 1 32.619976 55.392199 55.845802
14038 15 1 31.737141 55.467336 55.382166
14039 15 1 31.743147 56.143419 54.645365
14040 15 1 31.262947 56.215916 55.519523
14041 15 1 31.813272 56.998644 55.228868
14042 15 1 31.612281 57.429174 56.108781
14043 15 1 31.768260 56.659495 56.727865
14044 15 1 31.973766 56.027461 55.980669
14045 15 1 31.837759 55.139519 56.420055
14046 15 1 31.376385 54.779508 57.230936
14047 15 1 31.082558 55.359992 57.990346
14048 15 1 31.623531 55.923697 57.366180
14049 15 1 31.969037 56.102679 58.287370
14050 15 1 31.353753 56.817834 57.955739
14051 15 1 31.517697 57.799473 58.053246
14052 15 1 31.591372 57.491558 59.001803
14053 15 1 32.188053 56.903095 58.456201
14054 15 1 31.533426 56.354734 58.976550
14055 15 1 31.440279 55.751396 59.768577
14056 15 1 31.008566 54.859307 59.902000
14057 15 1 30.790519 53.898923 59.728452
14058 15 1 30.548533 53.469869 58.858190
14059 15 1 31.475071 53.534836 59.228739
14060 15 1 32.061759 52.911143 58.712208
14061 15 1 32.495297 53.724807 58.324916
14062 15 1 33.062376 53.659046 57.503882
14063 15 1 32.780123 54.613809 57.410291
14064 15 1 32.920677 55.432126 57.967608
14065 15 1 33.007301 54.591658 58.502499
14066 15 1 33.400516 53.714305 58.777517
14067 15 1 33.419741 54.471341 59.430608
14068 15 1 33.655294 54.253798 60.377809
14069 15 1 34.540674 54.480464 59.971947
14070 15 1 34.826192 54.634167 60.917915
14071 15 1 35.466734 54.295849 60.228533
14072 15 1 36.462613 54.209255 60.255468
14073 15 1 36.003618 55.096806 60.215762
14074 15 1 36.279766 54.541909 61.000511
14075 15 1 36.549528 55.124803 61.766973
14076 15 1 35.598423 54.975447 62.037329
14077 15 1 34.805126 54.372272 61.954505
14078 15 1 34.858465 53.830021 61.115984
14079 15 1 34.614486 53.110527 61.766217
14080 15 1 35.130057 52.255506 61.710318
14081 15 1 34.863579 52.244644 60.746539
14082 15 1 35.533887 52.831231 60.292002
14083 15 1 36.217442 52.141921 60.051994
14084 15 1 37.023590 51.884774 59.519077
14085 15 1 36.409731 51.110220 59.366617
14086 15 1 37.216385 50.609037 59.053368
14087 15 1 36.954691 49.957746 59.765644
14088 15 1 36.712854 49.021414 59.511091
14089 15 1 37.661295 49.142270 59.218082
14090 15 1 38.036889 49.062576 60.141433
14091 15 1 37.610768 48.211767 59.833953
14092 15 1 36.782113 48.011699 59.311168
14093 15 1 36.031922 48.484895 59.773013
14094 15 1 35.063623 48.383355 60.001237
14095 15 1 34.523748 49.220255 60.091422
14096 15 1 34.586624 49.335289 59.100052
14097 15 1 35.505293 48.944236 59.044159
14098 15 1 35.609793 48.627117 58.101548
14099 15 1 35.410011 47.653813 58.214534
14100 15 1 34.536336 47.530363 58.685122
14101 15 1 34.583305 47.968755 57.787567
14102 15 1 34.672334 48.964130 57.751467
14103 15 1 33.712659 49.238542 57.690458
14104 15 1 33.146744 49.892452 58.192597
14105 15 1 32.433170 49.748761 58.878282
14106 15 1 31.715174 49.199527 58.450702
14107 15 1 31.203107 48.362233 58.259063
14108 15 1 31.703663 48.435572 57.396471
14109 15 1 30.833110 48.558304 56.919948
14110 15 1 30.542490 48.508130 55.964426
14111 15 1 30.518190 49.301119 56.573178
14112 15 1 30.019280 49.663481 55.785916
14113 15 1 29.240312 49.739229 55.163444
14114 15 1 29.603686 48.815946 55.287980
14115 15 1 28.656025 49.013933 55.538459
14116 15 1 28.023174 48.378655 55.981088
14117 15 1 27.872638 48.361487 54.992633
14118 15 1 27.613548 47.720712 54.269943
14119 15 1 26.857615 47.144095 54.579905
14120 15 1 26.278983 46.901384 53.801268
14121 15 1 26.649257 47.782495 54.095444
14122 15 1 26.817068 48.387944 54.873436
14123 15 1 26.379223 49.249917 54.617907
14124 15 1 26.228220 48.905530 55.544512
14125 15 1 26.476591 47.985862 55.848687
14126 15 1 26.185506 47.069051 56.122049
14127 15 1 25.188681 47.054981 56.200417
14128 15 1 24.938955 46.794060 55.267917
14129 15 1 24.012878 47.137790 55.112257
14130 15 1 23.989129 47.582798 56.007469
14131 15 1 24.155750 47.136094 56.886499
14132 15 1 24.361564 46.646566 57.733850
14133 15 1 24.969835 45.887899 57.500544
14134 15 1 24.304145 45.168130 57.303593
14135 15 1 24.833773 45.576667 56.560228
14136 15 1 24.026316 46.025629 56.177546
14137 15 1 23.432231 45.384547 56.663423
14138 15 1 23.454229 44.611549 56.029397
14139 15 1 22.651041 44.611692 55.433671
14140 15 1 21.992682 45.346346 55.597521
14141 15 1 21.592776 45.703479 56.441637
14142 15 1 22.559813 45.927753 56.562216
14143 15 1 22.665088 45.983988 55.569364
14144 15 1 22.682436 46.909294 55.948187
14145 15 1 23.147785 47.605529 56.494729
14146 15 1 22.687890 47.964648 57.306844
14147 15 1 23.442375 47.323154 57.445546
14148 15 1 23.613216 47.814711 58.299470
14149 15 1 24.382375 48.273151 57.854242
14150 15 1 23.594660 48.188911 57.243990
14151 15 1 23.006132 48.952186 57.510535
14152 15 1 22.265233 48.505552 58.012119
14153 15 1 22.305659 47.523614 58.196952
14154 15 1 22.358757 46.664784 58.706453
14155 15 1 22.046622 46.810351 59.645273
14156 15 1 21.440571 46.288143 59.045271
14157 15 1 20.586093 45.798846 58.870754
14158 15 1 19.753743 45.794342 58.316523
14159 15 1 19.693535 44.837456 58.032370
14160 15 1 20.680621 44.741594 58.160717
14161 15 1 20.320215 44.668706 59.090660
14162 15 1 19.893213 45.095093 59.888071
14163 15 1 18.958998 45.323542 59.614110
14164 15 1 18.517470 45.134461 60.491208
14165 15 1 18.102404 46.042584 60.546282
14166 15 1 18.338660 46.736871 61.226097
14167 15 1 18.195915 47.610378 60.760684
14168 15 1 17.460275 47.709528 60.090606
14169 15 1 17.270678 47.202099 59.250030
14170 15 1 16.307345 47.259491 59.512127
14171 15 1 16.897579 46.873615 60.221158
14172 15 1 16.757349 45.941993 60.556445
14173 15 1 16.184970 45.913881 61.375952
14174 15 1 16.211232 46.828604 61.779180
14175 15 1 15.642892 46.600609 60.988606
14176 15 1 15.620400 47.279655 60.254855
14177 15 1 15.660529 46.280460 60.254750
14178 15 1 15.051858 45.547032 60.557410
14179 15 1 14.493471 45.332249 59.756116
14180 15 1 14.888835 45.286762 58.838719
14181 15 1 15.240067 44.978307 57.954699
14182 15 1 15.806604 44.225951 58.290848
14183 15 1 15.966381 43.464407 58.918957
14184 15 1 15.207209 43.392910 59.565908
14185 15 1 14.561040 44.151416 59.481434
14186 15 1 14.735167 43.567253 60.274172
14187 15 1 15.155228 44.467140 60.391439
14188 15 1 14.353645 44.169118 60.909751
14189 15 1 13.782538 43.955309 60.117209
14190 15 1 13.611532 43.834259 61.095015
14191 15 1 13.670082 44.792937 60.816611
14192 15 1 13.200346 45.289135 61.546772
14193 15 1 13.607811 46.198879 61.626382
14194 15 1 12.846423 46.516760 61.061370
14195 15 1 13.171407 47.124878 60.337092
14196 15 1 13.540691 48.048970 60.435502
14197 15 1 14.035043 48.480629 61.190012
14198 15 1 14.448018 47.614690 61.472149
14199 15 1 14.322014 47.671201 60.481731
14200 15 1 14.629766 48.606631 60.655683
14201 15 1 15.333816 49.286827 60.859756
14202 15 1 15.593094 48.322462 60.807082
14203 15 1 16.333728 48.402008 61.474265
14204 15 1 17.202138 48.376317 61.969447
14205 15 1 17.484398 47.542198 62.443340
14206 15 1 17.128572 47.663118 63.370037
14207 15 1 16.717630 48.243804 62.667235
14208 15 1 15.960608 47.623333 62.872011
14209 15 1 15.955818 46.672052 63.180299
14210 15 1 15.858311 46.328050 64.114192
14211 15 1 15.486087 45.871282 63.306224
14212 15 1 15.878719 46.251012 62.468581
14213 15 1 15.552048 45.460408 61.950671
14214 15 1 14.655486 45.019739 61.995257
14215 15 1 13.754313 44.847633 62.393083
14216 15 1 13.361394 45.579320 62.950084
14217 15 1 14.025555 45.241732 63.617110
14218 15 1 14.248208 46.025395 64.197021
14219 15 1 13.989405 45.369998 64.906581
14220 15 1 14.807655 44.879613 65.206565
14221 15 1 14.363189 45.339571 65.975258
14222 15 1 15.149480 45.490744 66.574335
14223 15 1 15.906303 44.972743 66.972949
14224 15 1 15.386678 45.366047 67.731436
14225 15 1 15.381609 44.409856 67.438736
14226 15 1 14.652529 44.537018 68.111248
14227 15 1 14.132708 43.682967 68.091669
14228 15 1 13.515278 44.466999 68.155494
14229 15 1 13.665181 44.043822 69.049055
14230 15 1 13.536372 43.450987 69.844011
14231 15 1 12.686817 43.335374 69.329338
14232 15 1 11.847648 42.889573 69.017798
14233 15 1 12.001437 42.266581 69.784759
14234 15 1 11.798600 41.379730 69.369606
14235 15 1 11.480579 40.452200 69.565948
14236 15 1 12.416732 40.674704 69.293719
14237 15 1 13.371669 40.962036 69.368113
14238 15 1 13.934171 40.861578 68.547442
14239 15 1 13.700011 41.807058 68.773795
14240 15 1 13.104971 41.515641 68.024793
14241 15 1 12.176040 41.567034 67.658124
14242 15 1 12.226184 42.486843 68.047274
14243 15 1 12.513988 42.877925 67.173075
14244 15 1 12.278844 43.483861 67.933042
14245 15 1 11.854820 43.782429 68.788063
14246 15 1 10.887371 43.533581 68.834077
14247 15 1 9.898911 43.382186 68.828885
14248 15 1 9.595260 44.334936 68.836866
14249 15 1 10.569375 44.534213 68.943586
14250 15 1 10.380721 44.078306 68.073782
14251 15 1 10.281161 43.862877 67.102351
14252 15 1 11.094754 43.329059 66.871907
14253 15 1 11.727296 42.737220 67.371524
14254 15 1 10.730818 42.676648 67.313536
14255 15 1 10.441801 42.112330 66.540223
14256 15 1 9.894144 41.370269 66.153677
14257 15 1 10.692207 40.820688 66.400770
14258 15 1 10.200257 40.132601 65.867365
14259 15 1 10.598901 39.219419 65.782621
14260 15 1 9.656085 39.159470 66.110499
14261 15 1 9.959864 38.907152 65.191775
14262 15 1 10.655576 38.438291 64.647575
14263 15 1 11.169150 38.558845 63.798041
14264 15 1 10.607807 38.565601 62.970485
14265 15 1 10.592183 37.666226 62.533586
14266 15 1 11.587901 37.753946 62.504414
14267 15 1 11.675617 37.157996 63.302630
14268 15 1 11.108606 37.370516 64.098453
14269 15 1 10.396378 38.057995 63.956670
14270 15 1 9.578745 38.018515 64.531055
14271 15 1 8.908868 37.730872 65.215545
14272 15 1 9.641850 37.099644 64.961990
14273 15 1 9.745553 36.535109 65.780858
14274 15 1 10.472785 36.067396 65.278486
14275 15 1 11.014320 35.371889 65.750726
14276 15 1 11.945576 35.733344 65.704773
14277 15 1 11.579883 35.796680 66.633351
14278 15 1 11.871666 35.140039 67.328826
14279 15 1 12.029599 35.017187 68.308604
14280 15 1 11.759291 35.938467 68.029002
14281 15 1 11.912137 35.658298 68.976706
14282 15 1 12.641118 35.946598 69.597568
14283 15 1 13.232095 36.309757 68.877247
14284 15 1 14.142722 36.175866 68.486311
14285 15 1 14.808402 36.914495 68.380022
14286 15 1 15.093537 36.380134 69.175733
14287 15 1 14.970243 35.404923 69.359478
14288 15 1 14.974910 35.665359 68.393998
14289 15 1 14.803052 34.821757 67.885274
14290 15 1 14.983513 34.150253 67.166583
14291 15 1 15.822245 34.105336 67.709272
14292 15 1 15.792422 34.497360 66.789800
14293 15 1 16.191762 35.372507 66.516587
14294 15 1 16.975953 35.215040 65.916381
14295 15 1 17.707684 35.895074 65.962465
14296 15 1 17.118912 36.556226 66.427466
14297 15 1 17.815799 36.841022 65.769256
14298 15 1 17.897877 37.634369 65.166045
14299 15 1 18.798713 38.058351 65.072586
14300 15 1 19.153912 38.122257 66.005190
14301 15 1 19.116955 37.574951 66.841306
14302 15 1 19.515884 37.065157 67.603517
14303 15 1 19.794758 37.996706 67.370184
14304 15 1 20.455230 37.449619 66.855915
14305 15 1 19.900127 37.730426 66.072966
14306 15 1 19.482242 36.824451 66.005272
14307 15 1 19.178282 36.442734 65.132403
14308 15 1 20.008074 36.126827 64.672350
14309 15 1 20.140281 36.478184 63.745490
14310 15 1 20.395736 37.366093 64.128061
14311 15 1 20.773483 37.412363 65.052813
14312 15 1 21.568082 37.231187 64.473339
14313 15 1 22.518100 37.506044 64.325291
14314 15 1 22.558357 37.700990 63.345303
14315 15 1 22.269938 38.643863 63.512048
14316 15 1 22.892536 38.612027 62.730153
14317 15 1 22.226639 39.353057 62.643802
14318 15 1 21.593041 39.283011 63.414287
14319 15 1 21.267369 39.434489 64.347557
14320 15 1 21.626231 39.365769 65.278414
14321 15 1 21.919077 39.529365 66.220475
14322 15 1 21.826340 38.652959 65.747915
14323 15 1 21.182055 38.284188 65.077911
14324 15 1 20.285927 38.285217 65.521705
14325 15 1 20.582788 39.227088 65.679037
14326 15 1 19.662658 39.585413 65.837038
14327 15 1 19.135798 39.794579 66.660851
14328 15 1 18.930374 39.030036 66.049889
14329 15 1 18.681633 39.958543 65.774203
14330 15 1 18.996114 39.688440 64.864177
14331 15 1 18.591297 39.981906 63.998151
14332 15 1 18.654179 39.575704 63.086534
14333 15 1 19.311927 38.908203 62.737521
14334 15 1 18.577741 38.332510 62.377593
14335 15 1 18.665694 37.965117 63.303491
14336 15 1 18.584777 37.440371 64.150895
14337 15 1 19.230879 38.202685 64.113083
14338 15 1 19.592334 38.947369 63.552015
14339 15 1 20.101279 39.760457 63.834614
14340 15 1 20.480126 40.482164 64.413937
14341 15 1 21.056951 40.623610 63.609408
14342 15 1 20.758287 40.754235 62.664032
14343 15 1 20.313731 41.528319 62.213295
14344 15 1 19.841817 40.693997 62.498255
14345 15 1 19.240862 41.410107 62.853274
14346 15 1 19.966453 40.983319 63.393060
14347 15 1 19.342813 41.053865 64.171582
14348 15 1 19.149750 41.861084 63.613797
14349 15 1 18.684914 40.998636 63.413520
14350 15 1 18.705440 40.700336 62.459269
14351 15 1 17.814475 41.066107 62.190209
14352 15 1 18.120301 40.152046 62.456598
14353 15 1 17.264957 39.710419 62.727435
14354 15 1 16.671993 39.981353 63.485715
14355 15 1 17.221562 39.197708 63.775323
14356 15 1 17.731217 39.549931 64.560301
14357 15 1 18.146766 38.725806 64.945185
14358 15 1 17.589521 38.335933 65.678313
14359 15 1 17.393184 39.196391 65.208139
14360 15 1 16.734160 39.820500 64.788408
14361 15 1 16.527750 38.848136 64.897507
14362 15 1 16.325657 39.250137 64.004449
14363 15 1 16.186745 38.737062 63.157420
14364 15 1 15.894206 39.435134 62.503879
14365 15 1 14.963617 39.465125 62.139045
14366 15 1 14.441946 38.638862 61.926559
14367 15 1 14.373082 37.641393 61.908890
14368 15 1 14.785600 37.146313 62.673563
14369 15 1 15.444124 36.394777 62.712809
14370 15 1 16.168417 35.705739 62.737813
14371 15 1 15.305175 35.409305 62.329230
14372 15 1 14.329114 35.193597 62.357073
14373 15 1 14.522466 35.262585 63.335774
14374 15 1 15.133695 34.624569 62.867443
14375 15 1 16.106793 34.741241 62.668776
14376 15 1 16.575297 34.917751 63.534425
14377 15 1 16.512780 33.932309 63.692523
14378 15 1 16.589272 33.493422 62.797242
14379 15 1 17.192470 33.789765 62.056747
14380 15 1 18.154799 33.552680 61.923652
14381 15 1 17.961358 33.265449 60.985527
14382 15 1 18.193471 33.383489 60.020027
14383 15 1 17.886729 33.990045 59.286542
14384 15 1 17.429230 34.512582 60.006020
14385 15 1 17.197505 33.701795 60.543541
14386 15 1 16.302948 33.309915 60.328606
14387 15 1 16.177422 32.563188 59.675428
14388 15 1 15.596971 32.053383 60.310388
14389 15 1 15.716868 32.207138 61.291196
14390 15 1 15.160009 31.758267 61.990070
14391 15 1 15.339566 30.900927 62.472488
14392 15 1 15.631692 30.486989 63.334647
14393 15 1 15.224516 31.194966 63.911688
14394 15 1 14.607632 31.939041 64.168218
14395 15 1 15.482407 32.278854 63.822824
14396 15 1 15.772838 33.001382 63.195446
14397 15 1 15.146042 33.768846 63.060812
14398 15 1 15.212368 33.941989 62.078151
14399 15 1 14.947032 33.038977 61.740264
14400 15 1 15.708218 32.674775 62.276877
14401 15 1 16.295328 31.872717 62.386440
14402 15 1 15.727367 31.582321 63.156564
14403 15 1 14.806822 31.198195 63.227577
14404 15 1 14.285861 30.902151 62.426979
14405 15 1 13.994074 31.840533 62.612179
14406 15 1 13.832582 32.500280 61.878248
14407 15 1 13.184060 33.141087 62.289084
14408 15 1 13.978934 33.343488 62.861105
14409 15 1 13.355229 32.570048 62.974168
14410 15 1 13.622767 31.829969 63.591182
14411 15 1 12.785166 31.411469 63.240067
14412 15 1 13.143322 30.541389 63.578717
14413 15 1 12.320606 30.888575 64.028827
14414 15 1 12.776528 31.457552 64.713225
14415 15 1 12.977725 30.484589 64.826641
14416 15 1 13.798500 30.490519 64.255420
14417 15 1 13.302568 29.681982 64.572153
14418 15 1 13.084518 29.082495 63.802043
14419 15 1 13.341256 28.988438 62.840150
14420 15 1 13.423956 29.950136 62.578811
14421 15 1 14.421265 29.891824 62.623238
14422 15 1 14.529076 29.352835 61.787853
14423 15 1 15.407172 29.566570 61.359760
14424 15 1 15.423432 28.568219 61.304698
14425 15 1 14.922213 27.723308 61.491526
14426 15 1 14.896457 26.871168 60.968846
14427 15 1 14.381345 26.455723 61.718556
14428 15 1 14.734903 25.784477 61.067076
14429 15 1 15.304170 25.609773 61.870453
14430 15 1 14.567880 25.959828 62.449537
14431 15 1 13.877120 25.615394 63.085317
14432 15 1 13.754649 24.754116 62.592163
14433 15 1 14.605346 24.694770 62.069868
14434 15 1 15.058903 24.394336 61.230806
14435 15 1 14.540734 23.594820 61.534576
14436 15 1 15.436526 23.303233 61.199115
14437 15 1 15.116689 22.408992 60.886007
14438 15 1 16.109295 22.503615 60.962028
14439 15 1 16.952253 22.534386 60.424929
14440 15 1 17.557630 21.840717 60.815238
14441 15 1 18.118408 22.641792 60.605937
14442 15 1 18.037627 23.590911 60.910318
14443 15 1 17.732740 23.061545 61.702035
14444 15 1 16.834611 23.218291 62.112881
14445 15 1 17.166285 22.366235 61.707921
14446 15 1 16.932080 22.600349 62.651498
14447 15 1 17.235574 22.644347 63.603315
14448 15 1 17.480888 21.852859 63.043523
14449 15 1 17.489663 20.898777 62.744106
14450 15 1 16.613028 20.878359 62.263383
14451 15 1 16.431868 21.842201 62.458806
14452 15 1 16.273471 22.527068 61.747563
14453 15 1 15.781496 22.453807 62.615084
14454 15 1 14.819134 22.672673 62.453971
14455 15 1 15.353820 23.432307 62.083744
14456 15 1 15.044449 23.725227 62.988447
14457 15 1 15.991551 23.969208 63.196948
14458 15 1 16.897297 23.838764 63.600196
14459 15 1 17.844551 24.136476 63.718843
14460 15 1 18.320488 23.724617 62.941761
14461 15 1 18.865892 23.813558 63.775202
14462 15 1 18.443590 23.781564 64.681092
14463 15 1 19.273554 23.695070 65.232162
14464 15 1 19.013703 22.730807 65.180458
14465 15 1 18.308116 23.382536 65.458663
14466 15 1 17.750432 22.571095 65.283869
14467 15 1 17.894781 22.701890 66.264713
14468 15 1 16.904206 22.720622 66.129029
14469 15 1 16.806236 23.543791 65.569749
14470 15 1 17.652925 23.892194 65.971912
14471 15 1 18.459244 24.365390 65.617041
14472 15 1 18.286487 25.341439 65.749267
14473 15 1 18.804264 25.781434 66.482965
14474 15 1 19.695484 25.943201 66.059223
14475 15 1 19.890133 26.889555 65.801294
14476 15 1 19.094622 26.475657 65.358744
14477 15 1 18.186657 26.498613 64.940326
14478 15 1 18.784454 27.222102 65.285582
14479 15 1 19.690635 27.094203 64.882497
14480 15 1 19.842431 28.052052 64.638608
14481 15 1 19.128282 27.424097 64.329315
14482 15 1 18.721786 28.207960 63.859932
14483 15 1 18.288273 27.310522 63.778259
14484 15 1 18.546876 26.427040 64.168880
14485 15 1 19.035941 25.651816 63.769077
14486 15 1 18.725287 25.561082 64.715259
14487 15 1 19.525626 25.697632 65.299051
14488 15 1 19.613933 25.270654 64.399111
14489 15 1 19.853017 24.315703 64.574916
14490 15 1 19.305043 24.861429 65.208877
14491 15 1 19.483508 24.363402 66.057476
14492 15 1 20.187619 25.073491 66.058832
14493 15 1 20.570447 25.948099 65.761339
14494 15 1 21.066077 26.589083 65.175258
14495 15 1 21.051186 26.541378 66.174009
14496 15 1 21.587425 27.373955 66.035214
14497 15 1 21.048587 28.200195 65.870956
14498 15 1 21.075064 28.478104 64.910714
14499 15 1 21.446218 29.310781 64.499745
14500 15 1 22.183656 28.637641 64.555140
14501 15 1 21.572769 29.034386 65.240276
14502 15 1 21.346304 29.574173 66.051043
14503 15 1 21.488511 28.663601 66.439162
14504 15 1 22.159821 29.377811 66.241050
14505 15 1 22.784441 30.152116 66.342542
14506 15 1 22.939089 30.762130 65.565390
14507 15 1 23.633277 31.457364 65.378969
14508 15 1 24.144363 32.236866 65.016797
14509 15 1 24.374209 32.206120 64.044056
14510 15 1 24.400777 31.209040 64.115652
14511 15 1 24.928536 31.714320 63.432891
14512 15 1 24.850285 31.728018 62.436051
14513 15 1 25.176266 31.349398 61.569804
14514 15 1 25.280644 30.808028 60.735524
14515 15 1 25.262994 30.672565 59.744899
14516 15 1 24.603748 30.686865 58.993108
14517 15 1 24.201934 29.775980 59.087098
14518 15 1 25.158522 29.523405 58.941687
14519 15 1 24.817720 28.603076 59.133645
14520 15 1 24.347278 28.558851 60.014966
14521 15 1 24.807253 28.563854 60.902884
14522 15 1 24.592978 27.628714 61.185018
14523 15 1 24.250112 26.829490 61.678661
14524 15 1 24.758863 26.301757 62.358861
14525 15 1 25.674602 26.691387 62.260828
14526 15 1 26.553234 27.164381 62.326271
14527 15 1 25.662400 27.586352 62.494664
14528 15 1 26.494640 27.865067 62.973929
14529 15 1 27.184473 27.392311 63.522228
14530 15 1 28.029084 26.967062 63.196963
14531 15 1 27.590830 26.105436 62.940966
14532 15 1 28.355047 26.125548 62.296320
14533 15 1 29.281954 26.235256 62.655219
14534 15 1 29.615252 26.433833 63.576891
14535 15 1 30.398635 25.931720 63.943217
14536 15 1 30.974722 26.352109 64.644214
14537 15 1 30.322578 26.933514 64.157720
14538 15 1 29.578011 26.625211 64.749809
14539 15 1 29.143175 27.436037 65.141573
14540 15 1 29.032656 28.223320 64.534967
14541 15 1 28.818483 28.963436 63.897504
14542 15 1 28.693337 29.899946 64.225051
14543 15 1 28.282855 29.349465 64.952014
14544 15 1 29.235551 29.312569 64.650338
14545 15 1 29.823684 29.534520 65.428051
14546 15 1 28.977016 29.132099 65.776206
14547 15 1 28.088104 29.293552 66.204887
14548 15 1 27.123021 29.034382 66.166850
14549 15 1 26.532059 29.083871 66.972030
14550 15 1 26.236327 29.456892 67.851460
14551 15 1 25.410607 29.132689 67.389855
14552 15 1 24.789396 28.447344 67.769854
14553 15 1 24.886354 29.076972 68.540677
14554 15 1 24.162864 29.761398 68.630798
14555 15 1 23.330851 29.484753 69.111653
14556 15 1 23.359512 28.623392 68.604470
14557 15 1 23.655988 27.894042 67.987907
14558 15 1 23.989187 28.693258 67.487675
14559 15 1 24.554635 29.342402 66.978871
14560 15 1 23.896325 29.268449 66.229766
14561 15 1 23.473128 29.290653 65.324000
14562 15 1 23.678139 30.126663 64.815023
14563 15 1 24.198176 30.713804 65.435368
14564 15 1 23.652092 29.998390 65.871230
14565 15 1 24.410326 30.068992 66.519378
14566 15 1 25.193514 29.533755 66.202932
14567 15 1 26.073748 29.981550 66.359992
14568 15 1 26.270429 30.116386 65.388840
14569 15 1 26.425489 30.857975 64.736152
14570 15 1 25.854361 30.929578 65.553883
14571 15 1 25.484022 31.081226 64.637449
14572 15 1 25.732509 30.447610 63.904792
14573 15 1 25.633643 29.595179 64.418199
14574 15 1 24.749235 29.281558 64.072562
14575 15 1 24.217690 30.117115 63.933625
14576 15 1 24.709237 29.810034 64.748537
14577 15 1 23.951265 29.298565 64.343720
14578 15 1 23.783222 29.641900 63.419662
14579 15 1 22.974795 30.192487 63.211576
14580 15 1 22.312323 30.917621 63.023660
14581 15 1 22.145927 31.900077 62.939445
14582 15 1 23.100770 32.126977 62.747634
14583 15 1 22.881831 31.793445 61.830671
14584 15 1 21.971950 31.622658 62.208755
14585 15 1 22.518130 31.055778 61.592043
14586 15 1 22.119739 31.921225 61.288258
14587 15 1 21.889644 32.393060 60.437125
14588 15 1 22.574958 32.535585 59.722959
14589 15 1 21.590072 32.484481 59.557465
14590 15 1 21.270105 31.791046 58.911889
14591 15 1 20.414947 31.276410 58.973982
14592 15 1 20.320732 31.403132 59.961436
14593 15 1 20.024977 30.843726 60.735770
14594 15 1 20.406338 31.238492 61.571667
14595 15 1 19.625724 31.417953 62.170362
14596 15 1 20.309087 31.428712 62.900362
14597 15 1 20.973145 31.433555 62.152696
14598 15 1 20.737830 31.986667 61.353513
14599 15 1 20.709668 32.515563 62.201733
14600 15 1 20.664805 32.545710 63.200271
14601 15 1 21.409488 31.896903 63.356788
14602 15 1 21.425937 32.723875 63.918791
14603 15 1 21.911488 33.236932 63.210968
14604 15 1 22.657807 33.089227 63.859960
14605 15 1 23.540732 33.548590 63.762853
14606 15 1 24.313759 33.007080 63.432403
14607 15 1 25.084296 32.614155 62.930524
14608 15 1 25.752682 33.112696 63.482535
14609 15 1 25.720712 34.088167 63.700328
14610 15 1 26.385824 33.753121 63.032967
14611 15 1 27.011694 34.532983 63.022877
14612 15 1 27.273628 34.573454 62.058640
14613 15 1 27.053969 34.819776 61.114672
14614 15 1 27.195745 34.760884 60.126527
14615 15 1 27.495327 34.437478 59.228942
14616 15 1 28.409935 34.802575 59.402716
14617 15 1 28.368136 34.896160 58.407982
14618 15 1 28.423232 35.877735 58.590942
14619 15 1 29.208497 36.484014 58.465303
14620 15 1 29.240824 36.620296 57.475160
14621 15 1 29.495833 37.488297 57.049080
14622 15 1 29.475396 36.678455 56.462787
14623 15 1 29.330092 36.375457 55.520938
14624 15 1 29.315985 36.620351 54.551491
14625 15 1 29.793935 35.741987 54.557794
14626 15 1 30.724399 35.986914 54.285310
14627 15 1 31.392990 35.271291 54.487474
14628 15 1 31.203289 34.294659 54.588483
14629 15 1 31.395882 33.931662 55.500153
14630 15 1 30.431890 33.666188 55.515737
14631 15 1 30.235997 33.972843 56.447181
14632 15 1 29.688071 33.468164 57.114322
14633 15 1 29.886674 33.777235 58.044393
14634 15 1 29.556307 34.360608 58.786373
14635 15 1 29.489136 34.890710 59.631642
14636 15 1 29.606735 34.944024 60.623271
14637 15 1 29.007638 35.512301 60.059227
14638 15 1 29.950201 35.809931 60.210856
14639 15 1 30.526666 36.582371 60.477362
14640 15 1 31.115082 35.925020 60.948163
14641 15 1 30.953649 35.346027 60.148972
14642 15 1 31.097713 35.327189 59.159583
14643 15 1 30.197095 35.567241 58.797281
14644 15 1 30.876668 36.184366 58.400622
14645 15 1 31.306686 36.423957 57.530173
14646 15 1 30.618478 36.925818 58.054106
14647 15 1 30.423251 37.871036 57.792477
14648 15 1 31.191950 38.508261 57.847671
14649 15 1 31.632102 39.329320 58.211167
14650 15 1 31.779760 38.802451 59.048189
14651 15 1 31.921763 39.701960 59.461371
14652 15 1 31.591939 40.383758 58.808403
14653 15 1 31.666562 40.939454 59.636432
14654 15 1 31.962747 40.394029 60.420515
14655 15 1 32.221002 41.141064 61.033087
14656 15 1 32.615730 40.894829 61.918275
14657 15 1 32.381785 41.201550 62.840876
14658 15 1 31.673081 40.499773 62.768438
14659 15 1 30.930915 39.835677 62.858807
14660 15 1 31.731602 39.246460 62.967087
14661 15 1 30.916347 38.937449 63.456854
14662 15 1 30.380231 38.175114 63.819380
14663 15 1 30.490213 38.718510 64.651621
14664 15 1 31.488786 38.767722 64.630921
14665 15 1 31.126750 38.033591 65.205361
14666 15 1 30.150825 37.888305 65.042687
14667 15 1 29.593846 37.059983 64.982216
14668 15 1 29.371764 37.588144 64.162627
14669 15 1 29.723644 38.512098 64.312591
14670 15 1 29.289084 37.886563 64.960561
14671 15 1 28.554799 37.220466 64.829643
14672 15 1 28.591441 36.801127 63.922553
14673 15 1 28.447707 37.775996 64.092761
14674 15 1 28.408043 38.048046 63.131296
14675 15 1 27.472218 38.202048 62.814257
14676 15 1 27.477244 37.214155 62.659202
14677 15 1 27.985487 37.705323 61.951781
14678 15 1 28.793879 37.196695 62.248090
14679 15 1 28.833412 37.242226 61.249909
14680 15 1 28.985095 36.264060 61.107838
14681 15 1 28.135397 35.737256 61.085714
14682 15 1 27.921960 36.644769 61.447465
14683 15 1 26.941448 36.470290 61.357167
14684 15 1 26.642254 36.930289 60.521174
14685 15 1 27.218530 37.627588 60.947414
14686 15 1 27.885639 38.370508 61.002505
14687 15 1 28.402990 39.165269 60.685167
14688 15 1 28.168346 38.930052 61.628361
14689 15 1 27.665423 39.559341 61.035855
14690 15 1 28.107802 40.431156 61.246184
14691 15 1 28.221832 40.545118 60.259265
14692 15 1 27.680223 40.293823 59.457074
14693 15 1 27.324039 41.168128 59.786807
14694 15 1 26.325888 41.205800 59.739110
14695 15 1 26.982935 41.045932 59.002408
14696 15 1 26.090072 40.939084 58.564940
14697 15 1 26.130833 41.600300 57.815853
14698 15 1 26.933719 41.145764 58.201560
14699 15 1 27.460205 41.927241 57.866738
14700 15 1 27.536826 41.947165 58.863599
14701 15 1 28.478368 42.228104 58.677664
14702 15 1 28.256477 42.794880 59.471093
14703 15 1 27.647151 42.068246 59.788466
14704 15 1 28.430312 41.513168 59.508202
14705 15 1 28.156797 41.378116 60.460542
14706 15 1 28.233679 41.533548 61.445392
14707 15 1 27.876666 42.434426 61.692295
14708 15 1 28.058450 42.499780 60.711131
14709 15 1 27.412667 41.870928 61.144153
14710 15 1 26.711313 42.207398 61.772557
14711 15 1 25.840832 42.590909 61.464042
14712 15 1 25.061615 42.580235 60.837379
14713 15 1 24.457005 41.898616 60.425259
14714 15 1 23.569936 41.938491 60.885171
14715 15 1 24.051905 42.804548 60.752311
14716 15 1 23.989743 42.369482 61.650561
14717 15 1 24.313062 41.661262 62.278167
14718 15 1 23.343392 41.693394 62.520463
14719 15 1 23.551395 40.760201 62.813527
14720 15 1 24.522528 40.992588 62.759706
14721 15 1 24.930046 40.757268 61.877349
14722 15 1 24.478769 39.877940 61.725256
14723 15 1 23.921267 40.703849 61.809319
14724 15 1 24.270689 40.986202 60.915910
14725 15 1 23.360237 40.631767 60.702716
14726 15 1 22.764662 40.119418 60.084016
14727 15 1 23.455469 39.474973 60.411851
14728 15 1 22.652861 39.111944 59.938532
14729 15 1 22.682256 38.669388 59.042273
14730 15 1 23.678210 38.752352 59.007745
14731 15 1 24.485609 38.697946 59.595237
14732 15 1 23.963397 38.621247 60.444597
14733 15 1 23.664069 38.769961 61.387087
14734 15 1 22.956489 38.384282 60.794987
14735 15 1 22.553127 38.109809 61.667893
14736 15 1 21.697436 38.624642 61.720239
14737 15 1 21.106655 39.430822 61.752666
14738 15 1 21.790022 40.094508 61.448478
14739 15 1 21.368412 39.662733 60.651098
14740 15 1 20.691322 39.720707 59.917485
14741 15 1 19.883383 39.608045 60.495881
14742 15 1 19.983853 40.194510 59.692162
14743 15 1 19.119011 39.692476 59.688881
14744 15 1 19.799936 39.496676 58.983187
14745 15 1 19.116593 38.893388 58.571987
14746 15 1 18.852742 38.233334 59.275344
14747 15 1 18.538461 38.768947 60.059147
14748 15 1 18.019682 37.924405 60.191880
14749 15 1 18.740034 38.345201 60.743263
14750 15 1 19.648351 38.762470 60.772364
14751 15 1 19.277115 38.293809 59.970778
14752 15 1 20.157442 38.228677 60.440652
14753 15 1 20.190545 37.683967 61.278624
14754 15 1 19.287836 37.393329 61.595872
14755 15 1 19.539222 38.357072 61.685333
14756 15 1 19.436594 37.728809 62.456534
14757 15 1 20.288006 37.366149 62.077621
14758 15 1 20.574181 38.280443 62.364273
14759 15 1 21.167198 38.189367 63.164296
14760 15 1 21.509634 37.775640 62.320751
14761 15 1 21.678459 38.701461 62.658915
14762 15 1 20.787194 39.062453 62.933381
14763 15 1 20.005727 39.630151 62.674483
14764 15 1 19.417858 40.131775 62.039831
14765 15 1 19.203361 40.506861 61.137999
14766 15 1 19.264929 40.663154 60.152209
14767 15 1 19.425413 41.315003 59.411035
14768 15 1 19.631510 42.275326 59.598927
14769 15 1 19.171937 42.886165 60.243652
14770 15 1 18.543806 43.510955 59.779876
14771 15 1 19.320620 44.132130 59.676423
14772 15 1 18.389491 44.355796 59.388372
14773 15 1 17.968825 45.190534 59.743693
14774 15 1 17.804001 44.476239 60.423852
14775 15 1 17.473770 43.931263 59.653171
14776 15 1 16.565018 44.346732 59.613735
14777 15 1 16.015229 43.645616 60.067792
14778 15 1 16.348296 43.304173 60.946702
14779 15 1 17.104493 42.660259 61.063070
14780 15 1 17.522100 43.459840 61.494666
14781 15 1 18.513168 43.328652 61.470734
14782 15 1 19.283893 42.832705 61.870759
14783 15 1 18.939273 41.900399 61.980495
14784 15 1 18.166868 42.042561 62.599511
14785 15 1 17.937270 42.060507 61.626390
14786 15 1 17.988399 42.335453 60.666291
14787 15 1 17.197395 41.772147 60.427543
14788 15 1 17.678095 41.281026 59.701095
14789 15 1 17.097822 41.820802 59.091238
14790 15 1 17.141883 42.801717 59.280620
14791 15 1 16.886476 42.723778 58.316933
14792 15 1 17.878374 42.833985 58.253735
14793 15 1 18.212376 43.582893 57.681390
14794 15 1 18.991357 44.030752 58.120264
14795 15 1 19.127726 43.534405 57.262917
14796 15 1 18.317552 43.168502 56.804950
14797 15 1 19.114629 42.876311 56.276468
14798 15 1 19.490354 42.631746 55.382590
14799 15 1 20.389425 42.225041 55.544647
14800 15 1 20.959879 42.053752 54.741378
14801 15 1 21.102241 41.969146 53.755186
14802 15 1 21.792414 42.690435 53.813523
14803 15 1 22.672807 42.241944 53.659363
14804 15 1 23.116165 41.437777 53.263448
14805 15 1 23.598189 41.378680 54.137611
14806 15 1 24.015612 41.615694 55.014869
14807 15 1 24.051450 42.466313 54.490309
14808 15 1 23.987348 43.244993 53.866171
14809 15 1 23.096435 42.843129 54.077783
14810 15 1 23.293328 43.576287 54.728715
14811 15 1 22.316445 43.405967 54.857912
14812 15 1 22.255118 43.525725 55.848819
14813 15 1 21.392948 43.188157 55.471049
14814 15 1 20.760643 43.841639 55.054936
14815 15 1 20.014576 44.487988 55.214991
14816 15 1 20.710631 44.860220 54.601029
14817 15 1 20.453759 45.202080 55.504991
14818 15 1 19.925126 45.561394 56.274043
14819 15 1 19.029133 45.937924 56.509461
14820 15 1 18.078519 45.628761 56.482043
14821 15 1 17.303820 45.472904 55.869222
14822 15 1 17.388651 44.755142 55.178120
14823 15 1 16.574849 44.607796 54.615968
14824 15 1 16.692575 45.552247 54.922811
14825 15 1 15.754204 45.207032 54.939709
14826 15 1 15.558183 45.843664 54.193871
14827 15 1 14.760962 45.851132 53.590229
14828 15 1 15.589657 45.312262 53.438957
14829 15 1 15.969010 46.048293 52.878290
14830 15 1 16.461788 46.691072 52.291770
14831 15 1 16.113927 47.263511 51.549270
14832 15 1 15.528669 46.452810 51.533892
14833 15 1 15.415348 46.950336 50.673876
14834 15 1 15.135880 46.735288 49.738114
14835 15 1 15.086834 45.962472 50.370845
14836 15 1 14.624513 46.734840 50.806398
14837 15 1 13.908389 47.327109 51.175701
14838 15 1 13.338028 48.001349 50.706566
14839 15 1 13.142266 47.151720 50.216865
14840 15 1 13.684765 46.465370 49.732491
14841 15 1 14.565293 46.004359 49.622306
14842 15 1 14.048578 45.151847 49.701230
14843 15 1 13.277420 44.517926 49.642408
14844 15 1 13.776991 44.656773 48.787335
14845 15 1 12.978952 45.097479 48.376346
14846 15 1 13.654616 45.833323 48.331486
14847 15 1 14.327738 46.562579 48.454334
14848 15 1 13.421900 46.426622 48.855548
14849 15 1 12.823976 46.836170 49.544574
14850 15 1 12.334995 47.152388 50.357534
14851 15 1 12.950121 46.527459 50.838246
14852 15 1 12.261674 45.882556 50.506371
14853 15 1 11.558608 45.546034 49.879911
14854 15 1 10.669080 45.437420 50.323693
14855 15 1 9.923861 45.160108 50.930113
14856 15 1 10.225143 44.221271 50.763339
14857 15 1 11.116263 44.674216 50.736062
14858 15 1 10.715899 44.383589 49.867014
14859 15 1 11.534334 43.817047 49.962899
14860 15 1 11.361597 43.619813 50.927918
14861 15 1 10.876960 44.306563 51.469675
14862 15 1 11.790794 44.641249 51.699661
14863 15 1 12.138270 44.791636 52.625212
14864 15 1 11.784426 45.707399 52.435018
14865 15 1 12.464062 45.376174 51.780507
14866 15 1 13.237179 45.932978 52.084250
14867 15 1 13.083274 45.023432 52.470308
14868 15 1 12.929641 44.080298 52.765086
14869 15 1 12.266510 44.232835 53.497882
14870 15 1 11.809634 43.635716 54.157210
14871 15 1 12.013312 42.662450 54.263366
14872 15 1 12.329281 41.754367 54.538226
14873 15 1 12.195534 40.813668 54.226460
14874 15 1 11.271656 40.891022 54.601247
14875 15 1 10.318511 40.660834 54.404960
14876 15 1 10.692162 40.430176 55.303394
14877 15 1 9.736270 40.427124 55.597098
14878 15 1 9.597198 41.405120 55.752607
14879 15 1 9.553649 42.403977 55.732885
14880 15 1 10.444710 42.791419 55.969311
14881 15 1 9.656983 42.906851 56.574424
14882 15 1 10.253386 42.139543 56.810100
14883 15 1 10.919262 41.785972 57.467060
14884 15 1 11.894199 41.564338 57.486425
14885 15 1 12.459231 40.800179 57.797553
14886 15 1 12.949244 41.332063 58.488196
14887 15 1 13.090971 42.290598 58.240964
14888 15 1 13.816347 42.496845 58.897692
14889 15 1 14.094990 43.260551 58.315358
14890 15 1 13.441959 43.941546 57.984004
14891 15 1 12.454286 43.971141 58.137708
14892 15 1 12.006008 44.548199 58.820388
14893 15 1 11.815118 45.388213 59.328264
14894 15 1 12.422345 45.113985 60.073968
14895 15 1 12.616329 44.157865 59.854414
14896 15 1 11.758500 44.019754 60.349444
14897 15 1 11.709307 43.068261 60.045732
14898 15 1 12.369003 42.435648 60.451444
14899 15 1 11.370446 42.477857 60.484630
14900 15 1 10.452931 42.222966 60.789914
14901 15 1 10.421522 41.360280 60.285151
14902 15 1 10.423743 40.701837 59.532523
14903 15 1 10.373659 40.777733 58.536666
14904 15 1 9.979916 41.680491 58.363478
14905 15 1 10.370673 41.789838 59.277455
14906 15 1 9.557487 42.098411 59.770924
14907 15 1 8.653855 41.961699 59.365019
14908 15 1 7.928728 41.760552 60.023600
14909 15 1 7.863131 41.324830 60.921288
14910 15 1 7.741169 42.075953 61.570086
14911 15 1 7.018571 42.212996 60.892539
14912 15 1 6.278556 42.854383 61.095028
14913 15 1 6.914019 43.111126 60.366831
14914 15 1 7.794973 43.539882 60.166609
14915 15 1 7.103142 43.489561 59.446305
14916 15 1 7.048516 44.471690 59.266200
14917 15 1 6.475351 44.846950 58.537734
14918 15 1 6.601502 43.858696 58.623992
14919 15 1 5.959044 43.743215 57.866422
14920 15 1 5.562460 44.244195 57.097175
14921 15 1 5.413807 45.132101 56.661831
14922 15 1 5.806473 45.931941 56.207882
14923 15 1 6.682603 46.354955 56.439086
14924 15 1 7.249198 47.005058 55.932788
14925 15 1 8.135391 46.808999 55.512999
14926 15 1 9.061229 46.456881 55.650249
14927 15 1 8.500592 46.604993 56.464957
14928 15 1 7.594161 46.774307 56.851887
14929 15 1 8.406279 47.323159 57.049943
14930 15 1 8.399631 48.253894 56.684309
14931 15 1 8.190717 48.960821 56.008580
14932 15 1 7.224711 49.179273 56.146824
14933 15 1 7.296801 49.838132 55.398019
14934 15 1 7.324735 50.404726 54.574496
14935 15 1 6.616946 49.905883 54.074307
14936 15 1 6.127903 49.309601 53.437687
14937 15 1 6.569140 48.797955 52.700444
14938 15 1 6.493198 48.591390 53.675925
14939 15 1 5.703847 47.984703 53.581826
14940 15 1 4.880421 48.302562 53.111790
14941 15 1 5.212637 47.424596 52.767104
14942 15 1 4.583421 47.592609 52.008251
14943 15 1 4.055926 47.431409 52.842376
14944 15 1 3.113312 47.597806 52.552910
14945 15 1 2.545218 46.775548 52.518825
14946 15 1 3.248619 46.524301 53.183732
14947 15 1 4.054377 46.295783 52.637350
14948 15 1 4.711875 45.930801 51.978195
14949 15 1 4.753718 46.827689 52.418469
14950 15 1 4.598087 46.571422 53.372463
14951 15 1 5.369078 47.056887 53.784650
14952 15 1 5.495962 46.065861 53.826717
14953 15 1 4.907831 45.260000 53.895196
14954 15 1 5.875814 45.318915 53.651190
14955 15 1 5.999917 44.452227 53.168023
14956 15 1 6.188717 44.126248 52.241690
14957 15 1 5.435968 43.710944 51.730916
14958 15 1 4.748008 44.035097 52.380251
14959 15 1 4.552192 45.010983 52.476697
14960 15 1 3.888452 45.162658 53.209120
14961 15 1 4.549475 44.435849 53.395660
14962 15 1 3.654174 44.033250 53.205002
14963 15 1 2.809858 43.567296 53.469608
14964 15 1 3.403054 42.766232 53.389513
14965 15 1 4.250505 42.235397 53.383014
14966 15 1 4.217044 41.287492 53.699805
14967 15 1 4.814306 40.493364 53.587383
14968 15 1 5.141914 39.548578 53.580179
14969 15 1 4.439655 39.860866 52.940407
14970 15 1 5.302790 39.633805 52.489363
14971 15 1 4.737933 39.171140 51.806078
14972 15 1 4.269986 39.125078 50.923522
14973 15 1 4.628454 40.052711 50.818657
14974 15 1 4.921730 40.182007 49.871413
14975 15 1 4.102823 39.863190 49.394185
14976 15 1 3.919071 40.389033 48.563688
14977 15 1 3.672071 41.037743 49.283526
14978 15 1 2.980290 41.697705 48.990458
14979 15 1 3.120985 41.832426 48.009614
14980 15 1 2.350346 41.979943 47.389650
14981 15 1 2.820494 42.628175 46.790689
14982 15 1 1.888288 42.936681 46.979938
14983 15 1 1.178977 43.188115 47.638466
14984 15 1 0.313610 43.609884 47.367816
14985 15 1 -0.463112 43.777126 47.975050
14986 15 1 -1.438448 43.567668 47.905431
14987 15 1 -0.858195 44.109374 47.297270
14988 15 1 -1.308433 44.974114 47.519783
14989 15 1 -1.736784 44.308585 48.130999
14990 15 1 -2.718589 44.130519 48.065031
14991 15 1 -3.583716 43.895004 47.622212
14992 15 1 -2.826711 44.249657 47.073428
14993 15 1 -3.122209 43.493732 46.489254
14994 15 1 -2.654187 43.746788 45.642544
14995 15 1 -1.800696 43.616134 45.138082
14996 15 1 -0.993573 43.206903 44.712543
14997 15 1 -1.649197 42.710244 44.143783
14998 15 1 -1.733091 42.107545 44.937329
14999 15 1 -2.324214 42.010301 45.738027
15000 15 1 -2.660332 41.994407 46.679713
15001 16 1 99.741150 75.372585 93.620921
15002 16 1 99.738209 74.716088 92.866597
15003 16 1 99.176826 74.535701 93.674254
15004 16 1 98.890335 75.269606 93.058375
15005 16 1 99.071164 76.169474 92.661464
15006 16 1 99.382243 77.118159 92.604658
15007 16 1 98.400658 77.291181 92.523695
15008 16 1 97.419180 77.380996 92.692911
15009 16 1 96.584449 77.767258 92.300450
15010 16 1 96.950598 78.679103 92.114780
15011 16 1 97.700484 78.912194 91.495636
15012 16 1 97.974600 78.148574 90.911046
15013 16 1 98.667831 78.512180 90.288774
15014 16 1 98.930641 77.712691 90.828912
15015 16 1 99.749385 78.275982 90.717728
15016 16 1 99.670292 78.907680 91.488898
15017 16 1 99.680836 79.887729 91.290423
15018 16 1 99.921646 79.158088 90.650396
15019 16 1 99.882108 78.858264 89.697221
15020 16 1 99.382174 77.993613 89.647780
15021 16 1 99.064265 77.715786 88.741278
15022 16 1 99.382224 76.813421 88.450347
15023 16 1 99.851861 77.531514 87.936748
15024 16 1 99.046597 77.874863 87.453363
15025 16 1 98.049806 77.865748 87.373831
15026 16 1 97.237148 77.521726 87.844188
15027 16 1 96.484839 77.207027 88.422977
15028 16 1 95.561808 76.996925 88.745266
15029 16 1 94.772497 77.281319 88.201108
15030 16 1 94.921892 78.206031 88.551236
15031 16 1 94.049970 77.922068 88.152341
15032 16 1 94.198407 77.202884 88.831120
15033 16 1 93.353157 76.668514 88.829846
15034 16 1 92.467301 76.434673 89.230567
15035 16 1 91.761087 75.735804 89.343899
15036 16 1 92.245725 75.036010 88.819099
15037 16 1 92.779404 75.413940 89.575642
15038 16 1 93.188517 76.307573 89.760158
15039 16 1 93.985813 76.898949 89.880961
15040 16 1 94.028953 76.215302 90.609497
15041 16 1 93.379508 75.571607 91.014317
15042 16 1 93.823044 75.459164 91.903492
15043 16 1 94.628248 75.060282 92.342284
15044 16 1 95.416330 74.544292 92.006602
15045 16 1 95.008620 73.702297 91.653308
15046 16 1 95.709551 73.012017 91.473834
15047 16 1 95.504025 73.715965 90.793968
15048 16 1 96.429842 74.066544 90.652700
15049 16 1 95.925092 73.750762 89.849265
15050 16 1 95.777134 73.693152 88.861950
15051 16 1 96.473985 73.803673 88.153301
15052 16 1 97.420081 73.562089 88.369029
15053 16 1 97.996474 72.959170 88.920628
15054 16 1 98.773442 72.905306 88.293397
15055 16 1 98.818143 73.818071 88.699428
15056 16 1 99.090216 74.238007 87.833616
15057 16 1 98.972778 74.320241 86.843947
15058 16 1 99.209373 75.288065 86.929620
15059 16 1 99.922325 75.783941 87.425409
15060 16 1 99.046168 76.257798 87.337044
15061 16 1 98.246486 76.048158 86.774408
15062 16 1 98.800074 75.476113 86.169177
15063 16 1 97.817645 75.302737 86.238276
15064 16 1 97.431959 76.120834 85.811704
15065 16 1 98.336668 76.529506 85.932074
15066 16 1 99.033375 77.188945 85.649694
15067 16 1 98.826768 77.910095 84.988441
15068 16 1 98.175683 78.592708 85.320296
15069 16 1 98.008570 79.363303 85.935321
15070 16 1 97.503953 80.198264 86.154871
15071 16 1 97.771814 80.181263 85.191563
15072 16 1 97.030944 80.750311 84.834778
15073 16 1 97.625071 81.259293 84.211921
15074 16 1 96.956062 81.995851 84.311463
15075 16 1 97.612488 82.643405 84.698476
15076 16 1 98.540891 82.777834 84.352070
15077 16 1 99.196369 82.245557 83.816317
15078 16 1 99.459982 83.206217 83.728900
15079 16 1 98.581846 83.550313 83.396522
15080 16 1 97.935888 84.154330 83.863321
15081 16 1 97.662086 84.570833 82.996396
15082 16 1 97.150999 83.885215 83.514777
15083 16 1 97.625892 83.580308 84.340312
15084 16 1 98.108711 84.355207 84.748255
15085 16 1 98.926155 83.913887 85.118419
15086 16 1 98.886773 83.526846 86.039640
15087 16 1 99.764628 83.839093 85.676498
15088 16 1 99.609675 83.743442 84.693218
15089 16 1 98.963893 83.103234 85.109271
15090 16 1 99.190361 82.207028 84.727791
15091 16 1 98.726365 81.426244 84.309361
15092 16 1 98.770704 80.551142 84.791264
15093 16 1 98.459241 81.105180 85.563295
15094 16 1 99.140762 81.253497 86.279905
15095 16 1 99.096610 82.199417 85.958526
15096 16 1 99.918295 82.474618 85.459428
15097 16 1 99.859784 81.704237 86.094322
15098 16 1 99.714318 81.378231 87.028431
15099 16 1 99.523134 82.240230 87.497906
15100 16 1 99.253025 83.175636 87.726065
15101 16 1 99.807283 83.690447 88.380105
15102 16 1 99.451697 84.526217 87.961719
15103 16 1 99.340898 85.365202 88.494475
15104 16 1 99.961709 85.760055 89.171737
15105 16 1 99.130027 85.432223 89.619879
15106 16 1 98.679250 84.568127 89.843797
15107 16 1 99.220014 83.768486 90.104849
15108 16 1 98.552453 83.445102 89.434189
15109 16 1 97.919625 82.877231 88.907832
15110 16 1 97.973996 83.113015 87.937549
15111 16 1 98.760861 82.511222 88.074260
15112 16 1 98.153779 81.797946 87.723991
15113 16 1 98.244315 81.088201 88.422608
15114 16 1 97.609226 81.126605 87.651125
15115 16 1 97.432058 82.040279 88.016928
15116 16 1 98.030332 81.873950 88.800766
15117 16 1 98.802279 81.788796 89.430724
15118 16 1 98.760241 80.821824 89.682119
15119 16 1 97.948223 81.268307 90.057991
15120 16 1 98.136227 81.452888 91.022659
15121 16 1 98.920668 82.059624 90.894116
15122 16 1 98.044160 82.395737 90.549497
15123 16 1 97.177735 82.514303 90.064473
15124 16 1 97.518034 83.441197 90.222785
15125 16 1 97.119034 83.460951 89.306047
15126 16 1 97.977478 83.927127 89.092144
15127 16 1 97.807403 84.722535 89.673865
15128 16 1 97.788994 85.551269 90.233205
15129 16 1 98.443649 86.201675 89.847978
15130 16 1 98.615178 86.898059 90.544848
15131 16 1 99.119866 87.671214 90.160763
15132 16 1 99.281367 88.615863 90.446342
15133 16 1 98.425733 88.710268 89.937444
15134 16 1 98.270947 89.053871 90.863714
15135 16 1 98.922109 89.522591 91.460615
15136 16 1 99.484524 90.285204 91.141067
15137 16 1 99.273927 91.203361 91.476682
15138 16 1 99.922002 91.241213 92.237317
15139 16 1 99.769655 90.919036 93.171657
15140 16 1 99.072218 91.530135 92.797304
15141 16 1 98.483084 91.012899 93.418100
15142 16 1 97.528275 91.309882 93.406281
15143 16 1 96.721463 91.288760 93.996712
15144 16 1 96.071677 91.485892 94.730822
15145 16 1 96.866813 90.880257 94.699739
15146 16 1 97.440704 90.688779 93.903507
15147 16 1 97.813206 90.250234 93.085632
15148 16 1 97.022230 89.941835 93.614071
15149 16 1 96.822464 90.584029 92.874017
15150 16 1 97.104446 91.506382 92.609912
15151 16 1 98.090028 91.520384 92.778532
15152 16 1 98.357546 92.464104 92.973022
15153 16 1 99.326862 92.703163 93.030261
15154 16 1 99.960548 92.262752 93.666249
15155 16 1 99.315560 91.617779 94.076126
15156 16 1 99.820726 90.755510 94.040080
15157 16 1 99.720790 90.535595 95.010467
15158 16 1 98.759240 90.363638 95.224596
15159 16 1 98.574748 91.346338 95.240814
15160 16 1 98.572268 92.324793 95.447258
15161 16 1 99.549668 92.471312 95.599647
15162 16 1 99.351170 93.438732 95.442493
15163 16 1 99.388449 94.308636 94.950684
15164 16 1 98.631727 94.578596 95.546077
15165 16 1 97.775097 95.094393 95.557796
15166 16 1 97.486889 94.321006 96.122428
15167 16 1 96.863910 93.544440 96.028395
15168 16 1 96.212687 92.816882 96.244193
15169 16 1 96.083042 91.863380 95.972117
15170 16 1 95.374310 91.549540 96.603943
15171 16 1 94.953931 91.022408 95.865421
15172 16 1 94.320906 90.248880 95.834884
15173 16 1 94.016154 90.819567 96.597408
15174 16 1 94.924189 90.741337 97.008932
15175 16 1 95.359119 91.446978 97.568313
15176 16 1 94.880816 91.815786 98.365311
15177 16 1 95.716581 92.110090 97.901758
15178 16 1 95.501809 93.033472 97.583576
15179 16 1 95.376833 92.886750 98.564827
15180 16 1 96.060948 92.782377 99.286694
15181 16 1 96.578558 92.209937 98.650776
15182 16 1 96.437389 91.378038 98.114104
15183 16 1 96.827249 90.515479 98.436596
15184 16 1 95.937052 90.315172 98.027417
15185 16 1 96.303562 90.707107 97.183582
15186 16 1 96.643589 91.155075 96.356717
15187 16 1 97.454806 91.472995 95.865948
15188 16 1 97.638273 91.055744 96.756027
15189 16 1 97.906485 90.097910 96.859069
15190 16 1 97.298435 89.316242 96.997887
15191 16 1 97.446196 88.709358 97.778822
15192 16 1 97.160429 89.565501 98.209353
15193 16 1 96.600234 89.456416 97.388207
15194 16 1 96.540439 89.947304 96.519039
15195 16 1 96.497535 90.428371 95.643405
15196 16 1 96.587496 90.112191 94.698980
15197 16 1 97.559796 90.017530 94.912689
15198 16 1 98.443472 89.804610 94.495817
15199 16 1 99.017899 89.913068 93.684478
15200 16 1 99.948635 89.679437 93.403148
15201 16 1 99.441669 88.819231 93.458216
15202 16 1 98.868843 88.589341 94.244995
15203 16 1 99.562626 88.596072 94.965147
15204 16 1 99.589999 89.172912 95.781546
15205 16 1 98.971328 89.626049 96.423350
15206 16 1 99.905650 89.910710 96.208852
15207 16 1 99.923919 89.194059 96.906045
15208 16 1 99.803908 89.604145 97.810162
15209 16 1 99.146594 89.895823 98.505045
15210 16 1 99.064348 89.152920 99.169373
15211 16 1 98.335372 89.168090 99.853744
15212 16 1 98.797954 90.053923 99.817431
15213 16 1 98.892284 91.049243 99.838377
15214 16 1 99.609582 90.702149 99.234216
15215 16 1 99.790706 91.557236 98.748396
15216 16 1 99.908208 92.512815 98.478099
15217 16 1 99.699110 92.473403 99.455199
15218 16 1 99.940403 91.563162 99.791709
15219 16 1 99.146722 91.730943 99.206969
15220 16 1 98.941627 92.207294 98.351968
15221 16 1 98.508903 92.960245 98.847765
15222 16 1 98.638836 93.065243 99.833713
15223 16 1 98.042687 93.807603 99.527921
15224 16 1 97.753690 92.850473 99.547525
15225 16 1 97.243146 93.682191 99.329375
15226 16 1 97.082352 92.769237 98.954330
15227 16 1 97.383193 93.512070 98.356256
15228 16 1 97.568922 93.107171 97.460957
15229 16 1 96.763076 92.539947 97.630869
15230 16 1 96.643887 93.503927 97.393094
15231 16 1 96.041563 94.264410 97.150459
15232 16 1 95.867116 93.426381 96.633472
15233 16 1 94.972834 93.695274 96.275761
15234 16 1 94.809468 93.127740 97.082741
15235 16 1 93.836806 92.905008 97.148464
15236 16 1 93.314456 93.726984 97.375414
15237 16 1 94.279934 93.921154 97.201778
15238 16 1 94.511098 94.236328 98.122228
15239 16 1 94.997104 94.888817 97.540803
15240 16 1 95.849838 94.710930 98.031927
15241 16 1 96.188938 95.651056 98.066210
15242 16 1 95.448777 96.107432 97.572365
15243 16 1 94.507017 95.872472 97.812952
15244 16 1 94.756812 96.839586 97.765075
15245 16 1 95.054530 97.772886 97.564289
15246 16 1 95.219923 97.966677 96.597288
15247 16 1 95.706046 98.358005 95.815913
15248 16 1 94.751055 98.075943 95.724083
15249 16 1 94.767079 98.741853 94.978223
15250 16 1 95.093801 99.591281 95.392621
15251 16 1 94.223199 99.411022 95.850397
15252 16 1 94.013350 99.576632 94.886791
15253 16 1 93.318699 99.646304 95.602756
15254 16 1 92.389609 99.397969 95.328673
15255 16 1 92.294641 98.489077 95.734747
15256 16 1 92.541019 97.966239 96.550797
15257 16 1 92.627312 98.360930 97.465550
15258 16 1 92.407203 97.388830 97.384472
15259 16 1 92.091120 96.444569 97.476465
15260 16 1 91.403288 95.959970 96.936048
15261 16 1 90.445067 95.710477 96.796169
15262 16 1 90.623301 96.164607 95.923244
15263 16 1 89.861383 96.640551 96.362513
15264 16 1 89.805032 97.452734 95.781838
15265 16 1 90.730924 97.569196 95.422449
15266 16 1 91.154024 96.965382 96.098018
15267 16 1 91.732889 97.377818 95.394590
15268 16 1 91.677822 98.330038 95.094183
15269 16 1 91.337402 98.908609 95.835379
15270 16 1 91.608126 99.403534 96.661065
15271 16 1 91.278634 98.526545 97.010814
15272 16 1 91.190231 98.260714 97.970772
15273 16 1 91.116261 99.257032 98.014116
15274 16 1 91.615092 98.943407 98.822081
15275 16 1 91.698125 98.467489 99.697643
15276 16 1 92.228424 97.684420 99.372703
15277 16 1 92.479128 97.718210 98.405229
15278 16 1 91.986904 96.848351 98.372650
15279 16 1 92.220727 95.876079 98.369031
15280 16 1 92.968763 95.575048 98.960490
15281 16 1 93.870326 95.311502 99.303604
15282 16 1 94.864409 95.390876 99.377754
15283 16 1 95.749662 94.925841 99.369409
15284 16 1 95.754676 94.145851 98.743637
15285 16 1 96.653510 94.093164 98.308527
15286 16 1 97.342260 94.774879 98.061774
15287 16 1 97.786497 95.369344 98.732047
15288 16 1 97.112141 95.739750 99.370830
15289 16 1 97.171412 96.547345 98.784078
15290 16 1 98.132276 96.468212 99.049554
15291 16 1 97.739823 96.704387 99.938487
15292 16 1 97.647195 97.338427 99.170755
15293 16 1 97.001323 96.703831 99.595180
15294 16 1 96.619015 97.134921 98.777866
15295 16 1 96.476788 97.761644 99.544018
15296 16 1 95.572634 98.187536 99.510520
15297 16 1 95.584379 97.206303 99.702990
15298 16 1 94.947301 97.332773 98.942638
15299 16 1 94.489899 97.435471 99.825948
15300 16 1 93.987202 98.273688 99.614553
15301 16 1 93.032936 98.510749 99.432408
15302 16 1 93.136787 97.563101 99.734365
15303 16 1 93.698204 97.068738 99.070726
15304 16 1 93.528146 97.989828 98.720480
15305 16 1 93.586751 97.872359 97.729134
15306 16 1 94.439159 97.579693 98.162433
15307 16 1 94.307012 98.209760 97.397219
15308 16 1 94.538381 98.379090 98.355236
15309 16 1 94.170992 99.039037 99.010594
15310 16 1 93.530347 99.802418 98.927984
15311 16 1 93.662333 99.344358 98.048915
15312 16 1 94.641434 99.537610 97.985560
15313 16 1 95.376585 99.897912 97.411333
15314 16 1 95.405546 98.945949 97.106490
15315 16 1 95.695105 98.326928 97.836536
15316 16 1 95.668481 99.069680 98.505573
15317 16 1 96.566584 98.681254 98.299329
15318 16 1 96.825981 98.740477 99.263282
15319 16 1 97.666867 98.580130 98.746368
15320 16 1 98.085045 97.741674 98.396913
15321 16 1 99.050758 97.755674 98.137681
15322 16 1 98.869041 98.448552 97.439899
15323 16 1 99.231647 98.321146 96.516707
15324 16 1 99.901105 97.732264 96.969526
15325 16 1 98.985796 97.409558 97.210505
15326 16 1 98.164243 97.486129 96.645538
15327 16 1 97.657294 97.587880 95.789588
15328 16 1 98.622841 97.667407 95.541808
15329 16 1 98.296718 96.795976 95.908212
15330 16 1 98.953440 96.455859 96.581292
15331 16 1 98.006421 96.484959 96.901149
15332 16 1 97.399885 97.072813 97.436445
15333 16 1 98.044358 96.384664 97.769770
15334 16 1 97.528357 95.588010 97.454993
15335 16 1 96.916982 95.005854 96.918975
15336 16 1 97.446018 95.710579 96.446233
15337 16 1 96.749591 96.409017 96.611074
15338 16 1 95.962125 96.665719 96.050716
15339 16 1 96.513170 96.588080 95.219860
15340 16 1 96.551558 96.231218 94.286492
15341 16 1 97.518635 96.100535 94.504857
15342 16 1 97.765796 96.694119 95.270735
15343 16 1 97.094887 97.004131 94.597108
15344 16 1 96.620679 97.595415 93.944796
15345 16 1 95.654588 97.455849 94.162027
15346 16 1 95.573391 97.737002 95.118249
15347 16 1 96.129878 97.472353 95.905829
15348 16 1 96.340948 97.826552 96.816869
15349 16 1 96.349108 97.157103 97.559681
15350 16 1 95.546722 97.307695 98.137174
15351 16 1 95.644237 97.289680 97.142103
15352 16 1 95.009508 96.976141 96.435837
15353 16 1 94.385250 96.319493 96.859058
15354 16 1 93.604146 96.301983 96.234903
15355 16 1 94.520017 95.951276 96.039493
15356 16 1 95.472262 95.665807 96.147833
15357 16 1 95.982104 96.246258 96.782765
15358 16 1 96.136898 95.317714 97.120173
15359 16 1 95.373490 94.746126 96.819345
15360 16 1 94.504188 95.239501 96.789452
15361 16 1 94.732262 94.656934 96.009326
15362 16 1 94.535226 95.435660 95.413707
15363 16 1 93.673484 95.939458 95.353801
15364 16 1 92.889196 95.924893 94.733575
15365 16 1 92.844974 94.931005 94.834725
15366 16 1 92.807962 94.665425 93.871347
15367 16 1 92.257676 93.831829 93.823355
15368 16 1 91.313934 94.156300 93.887148
15369 16 1 91.367186 94.061033 92.893121
15370 16 1 92.139539 93.440432 93.028489
15371 16 1 92.249331 92.668781 92.401991
15372 16 1 92.584338 92.723202 91.461349
15373 16 1 93.539757 92.437045 91.388620
15374 16 1 92.943018 91.669568 91.622888
15375 16 1 92.358114 91.349302 90.877691
15376 16 1 92.875339 92.204469 90.843500
15377 16 1 92.513837 92.413276 89.934811
15378 16 1 92.295271 91.440562 90.012635
15379 16 1 93.066032 91.770323 89.467487
15380 16 1 93.325711 90.808237 89.550907
15381 16 1 93.879314 91.568294 89.210557
15382 16 1 94.036772 90.960428 89.988829
15383 16 1 94.879633 90.857732 90.517070
15384 16 1 95.758001 90.537218 90.162472
15385 16 1 96.677138 90.670008 89.791590
15386 16 1 97.508303 90.746351 90.342350
15387 16 1 97.234803 90.089887 89.639319
15388 16 1 96.802288 89.273422 90.021831
15389 16 1 96.059854 88.610256 90.116720
15390 16 1 96.369698 88.730274 89.173538
15391 16 1 96.021276 87.928702 88.687654
15392 16 1 96.501346 87.671048 89.526192
15393 16 1 97.020233 87.336717 90.312945
15394 16 1 97.316022 87.758378 91.170098
15395 16 1 98.296107 87.828415 90.984281
15396 16 1 97.715222 88.410060 90.414840
15397 16 1 97.408271 89.265909 90.831137
15398 16 1 97.874842 90.130407 91.018097
15399 16 1 98.589419 90.814893 90.873671
15400 16 1 98.789202 90.272154 90.057877
15401 16 1 99.696717 89.853448 90.091083
15402 16 1 99.759097 89.369429 89.218252
15403 16 1 98.974808 88.775222 89.039897
15404 16 1 99.375705 88.039754 88.493666
15405 16 1 99.752178 87.125144 88.641164
15406 16 1 99.332340 86.430815 89.225667
15407 16 1 98.902025 87.238988 88.823568
15408 16 1 98.280735 87.088310 88.054610
15409 16 1 99.215216 87.399942 87.882476
15410 16 1 99.838139 88.151183 87.664291
15411 16 1 99.311248 88.820617 87.140609
15412 16 1 99.688551 89.533929 86.549992
15413 16 1 99.632767 88.968247 85.727257
15414 16 1 99.173673 89.834133 85.925939
15415 16 1 98.259321 89.521058 85.669142
15416 16 1 97.511157 89.582181 86.329835
15417 16 1 98.337936 90.107855 86.530095
15418 16 1 98.392780 89.711552 87.446576
15419 16 1 97.887527 90.498373 87.801022
15420 16 1 96.971705 90.744069 88.118673
15421 16 1 97.841670 90.689838 88.608795
15422 16 1 98.429791 90.059166 89.115120
15423 16 1 99.064314 90.797921 89.342324
15424 16 1 99.344924 90.675439 88.390349
15425 16 1 99.976660 91.334762 87.982669
15426 16 1 99.872288 90.452388 87.523841
15427 16 1 99.183846 90.088819 86.896254
15428 16 1 99.131289 90.684893 86.095047
15429 16 1 98.637718 91.465419 86.478671
15430 16 1 99.372144 91.662513 87.128112
15431 16 1 98.937284 91.609323 88.027038
15432 16 1 97.957659 91.783090 87.926344
15433 16 1 97.568683 92.442673 87.283189
15434 16 1 97.934355 91.563017 86.979069
15435 16 1 97.028413 91.192321 86.774488
15436 16 1 97.861985 90.824156 86.362646
15437 16 1 97.705742 90.860836 85.375609
15438 16 1 98.545096 90.655659 84.872232
15439 16 1 98.068746 91.300429 84.274435
15440 16 1 97.686157 91.705945 83.444265
15441 16 1 98.674911 91.716957 83.593409
15442 16 1 98.579479 91.910663 82.617002
15443 16 1 98.954265 92.834144 82.535041
15444 16 1 98.994124 93.453855 81.751223
15445 16 1 98.411677 94.244484 81.562383
15446 16 1 98.852175 95.096100 81.278287
15447 16 1 99.328544 95.807799 81.794580
15448 16 1 99.431438 95.525520 80.840781
15449 16 1 99.732947 96.096781 80.077398
15450 16 1 99.370968 95.401117 79.456896
15451 16 1 98.629120 94.810396 79.139546
15452 16 1 98.414984 95.750516 78.874366
15453 16 1 97.881745 95.728121 78.028699
15454 16 1 97.035451 95.925765 78.523393
15455 16 1 96.859111 95.141249 77.928886
15456 16 1 96.639084 94.451969 78.619162
15457 16 1 96.157756 93.586922 78.760643
15458 16 1 96.812127 92.830759 78.756743
15459 16 1 96.716584 91.841520 78.645941
15460 16 1 95.873448 91.313283 78.746378
15461 16 1 95.829270 92.238450 79.123358
15462 16 1 96.064386 91.785670 79.983422
15463 16 1 95.747763 92.729189 79.885837
15464 16 1 96.134079 93.641620 80.020854
15465 16 1 95.221615 93.983439 79.795978
15466 16 1 94.825376 93.115658 79.496058
15467 16 1 94.045188 93.093682 78.870900
15468 16 1 94.672337 93.871785 78.835687
15469 16 1 95.572341 94.263232 79.027417
15470 16 1 95.798053 93.981532 78.094840
15471 16 1 95.651284 93.411563 77.286388
15472 16 1 94.828668 92.848472 77.207446
15473 16 1 95.671352 92.757487 76.676781
15474 16 1 95.801333 91.776052 76.535749
15475 16 1 95.763961 90.882019 76.089309
15476 16 1 95.054118 91.458286 75.684290
15477 16 1 95.709708 90.892065 75.184695
15478 16 1 96.629773 90.877082 74.793215
15479 16 1 96.709190 90.705521 75.775182
15480 16 1 96.168030 90.313038 76.518891
15481 16 1 96.272558 90.275001 77.512686
15482 16 1 96.501246 91.119653 77.028676
15483 16 1 95.633048 90.995506 77.509113
15484 16 1 95.259546 91.895687 77.285128
15485 16 1 96.258917 91.931097 77.287003
15486 16 1 95.682559 92.435341 77.930080
15487 16 1 95.374123 93.177429 78.525204
15488 16 1 96.267482 92.971104 78.126030
15489 16 1 97.143303 93.206752 77.704833
15490 16 1 96.937563 92.524525 77.003237
15491 16 1 96.408291 92.879885 76.232788
15492 16 1 97.194490 92.445414 75.793326
15493 16 1 97.997890 93.035643 75.871926
15494 16 1 97.685329 93.626485 76.615708
15495 16 1 97.550702 94.056693 75.723073
15496 16 1 96.592961 94.120073 76.003637
15497 16 1 95.683680 94.532080 76.062447
15498 16 1 96.088679 94.301562 75.177666
15499 16 1 95.563981 95.150875 75.119713
15500 16 1 94.966199 95.897442 75.411767
15501 16 1 94.330274 95.507058 74.746035
15502 16 1 94.035375 94.553053 74.799976
15503 16 1 93.947366 94.322691 73.830859
15504 16 1 93.827723 94.607128 72.879659
15505 16 1 92.900856 94.571049 73.253311
15506 16 1 93.114824 94.388428 74.212930
15507 16 1 92.997168 93.402243 74.096324
15508 16 1 92.628312 93.715193 73.221106
15509 16 1 92.101991 93.182625 73.883946
15510 16 1 91.116777 93.106212 74.037289
15511 16 1 91.299566 93.386254 74.979714
15512 16 1 92.193036 93.809304 75.130509
15513 16 1 91.554384 94.425879 75.590898
15514 16 1 91.369245 94.832924 74.696450
15515 16 1 90.854476 95.561048 75.149052
15516 16 1 90.008067 95.844644 75.599790
15517 16 1 89.801375 95.590536 74.654958
15518 16 1 90.045336 95.832090 73.715738
15519 16 1 89.471505 95.133961 73.287562
15520 16 1 88.652107 95.461263 72.816968
15521 16 1 88.581282 96.413024 73.115524
15522 16 1 89.165992 96.097999 72.367946
15523 16 1 89.629434 96.948154 72.118029
15524 16 1 90.622876 97.060648 72.097578
15525 16 1 91.010144 96.700607 72.946338
15526 16 1 91.192351 96.501591 73.909247
15527 16 1 91.489678 95.567511 74.106962
15528 16 1 91.844151 95.271020 73.220147
15529 16 1 91.207949 94.937456 72.524459
15530 16 1 90.232372 94.880296 72.736548
15531 16 1 89.638338 95.071460 71.955152
15532 16 1 90.134930 94.290701 71.575927
15533 16 1 90.944702 94.183577 70.999044
15534 16 1 91.800909 94.209968 70.483086
15535 16 1 91.808007 95.027902 69.907817
15536 16 1 91.686771 94.136709 69.470692
15537 16 1 92.509305 93.575579 69.563263
15538 16 1 92.581948 92.915902 68.815233
15539 16 1 91.935454 92.166614 68.958802
15540 16 1 91.073229 91.693447 68.778021
15541 16 1 91.202914 92.677548 68.656668
15542 16 1 91.286436 92.167985 67.800298
15543 16 1 92.048423 91.521638 67.840444
15544 16 1 91.559666 90.649321 67.853805
15545 16 1 92.367464 90.724990 67.269223
15546 16 1 93.363814 90.700881 67.351110
15547 16 1 94.105341 90.836291 68.008226
15548 16 1 93.937872 91.346534 68.851794
15549 16 1 94.593066 91.789661 69.463643
15550 16 1 95.421369 91.579634 69.983069
15551 16 1 95.612320 92.541282 70.179974
15552 16 1 96.440850 93.100023 70.143284
15553 16 1 96.113832 94.044349 70.179446
15554 16 1 95.443357 93.452799 69.731639
15555 16 1 95.674228 93.526524 68.761451
15556 16 1 95.599226 93.573422 67.765371
15557 16 1 96.129127 92.954501 68.345149
15558 16 1 95.133797 93.034927 68.398525
15559 16 1 95.667858 92.775458 69.203170
15560 16 1 96.480210 92.246193 68.958297
15561 16 1 95.638952 91.830653 68.612448
15562 16 1 96.432733 91.823654 68.004285
15563 16 1 96.890363 92.698722 67.846707
15564 16 1 97.182719 92.136628 67.073029
15565 16 1 96.951813 92.855663 66.417536
15566 16 1 97.945318 92.824644 66.527013
15567 16 1 98.821477 92.866269 66.046791
15568 16 1 99.186166 93.795486 66.106434
15569 16 1 99.843430 93.190122 66.555364
15570 16 1 99.853500 92.508386 67.286893
15571 16 1 98.861345 92.403827 67.355413
15572 16 1 98.300190 92.275280 68.173081
15573 16 1 97.684647 91.676161 68.685099
15574 16 1 98.323281 91.611075 69.451852
15575 16 1 97.361612 91.782632 69.665770
15576 16 1 97.689017 91.771393 70.610587
15577 16 1 97.722013 91.138689 71.384278
15578 16 1 97.242134 91.492269 72.187209
15579 16 1 96.709531 91.209719 71.389400
15580 16 1 96.104696 91.315125 70.600055
15581 16 1 95.560879 91.807895 71.279349
15582 16 1 95.458416 90.870736 71.612867
15583 16 1 95.599948 90.429854 70.726531
15584 16 1 96.271040 89.938541 70.171331
15585 16 1 96.550095 89.725112 69.235074
15586 16 1 96.870034 88.817855 69.508064
15587 16 1 97.323932 88.655026 68.632014
15588 16 1 97.834373 89.043847 69.399000
15589 16 1 98.718264 89.171666 69.848887
15590 16 1 98.985827 90.010312 70.323315
15591 16 1 99.631053 90.762671 70.456127
15592 16 1 98.823109 91.282410 70.178463
15593 16 1 98.770746 92.280817 70.157449
15594 16 1 99.734667 92.218505 70.416245
15595 16 1 99.538867 91.592275 71.170896
15596 16 1 99.354261 92.568975 71.061454
15597 16 1 98.538334 92.043286 71.302108
15598 16 1 98.972652 92.734724 71.879414
15599 16 1 98.044899 92.365707 71.935107
15600 16 1 97.683756 93.297398 71.896036
15601 16 1 96.737455 93.425057 72.193051
15602 16 1 97.030521 92.799126 71.470332
15603 16 1 97.277319 93.121684 70.556523
15604 16 1 98.256825 92.934751 70.481534
15605 16 1 98.958081 93.544715 70.112502
15606 16 1 98.790939 94.014128 69.245487
15607 16 1 99.626620 94.266381 69.733346
15608 16 1 99.926773 93.620302 70.435123
15609 16 1 99.223982 93.665024 71.145112
15610 16 1 98.396470 93.205949 71.468337
15611 16 1 98.317130 93.218021 72.465111
15612 16 1 98.032444 94.165662 72.320438
15613 16 1 97.651485 93.885437 73.201542
15614 16 1 97.556893 94.212914 74.141654
15615 16 1 97.716823 95.184133 74.318164
15616 16 1 96.928005 95.656109 73.924457
15617 16 1 97.880919 95.946156 74.012933
15618 16 1 97.919419 95.144316 73.416636
15619 16 1 98.750676 95.697875 73.467452
15620 16 1 99.479076 95.168637 73.032319
15621 16 1 99.305919 94.648529 72.195955
15622 16 1 99.821994 93.885327 72.584785
15623 16 1 99.529153 92.939180 72.722810
15624 16 1 99.175525 92.004404 72.756576
15625 16 1 98.635295 92.567847 73.381623
15626 16 1 99.480085 92.499191 73.912298
15627 16 1 99.681048 93.397470 74.303076
15628 16 1 99.572059 94.158993 73.664168
15629 16 1 98.814646 93.698638 74.127201
15630 16 1 99.223758 93.602830 75.034641
15631 16 1 98.250551 93.830754 75.064952
15632 16 1 98.739000 94.622208 75.432399
15633 16 1 99.112263 95.298883 74.797744
15634 16 1 98.362862 95.791841 75.239775
15635 16 1 97.538951 95.886298 75.798567
15636 16 1 97.795330 96.738175 76.255269
15637 16 1 98.306938 96.797714 75.398115
15638 16 1 98.258639 97.408241 76.188637
15639 16 1 98.605295 98.346081 76.205536
15640 16 1 98.442035 98.699006 77.126834
15641 16 1 98.030380 97.941974 77.634222
15642 16 1 97.907535 98.155845 76.665115
15643 16 1 98.872566 98.048587 76.904300
15644 16 1 99.355345 97.217920 77.181643
15645 16 1 98.944875 96.531644 76.581193
15646 16 1 98.206167 96.793960 77.202080
15647 16 1 97.758953 97.235920 77.979686
15648 16 1 98.439764 96.763436 78.539378
15649 16 1 99.113401 96.188585 79.003878
15650 16 1 99.039479 95.489444 78.292726
15651 16 1 99.798702 95.020964 78.744508
15652 16 1 99.987095 94.984232 77.763102
15653 16 1 99.690113 95.282288 76.855928
15654 16 1 99.387045 94.471952 76.354424
15655 16 1 98.921609 93.590922 76.439018
15656 16 1 98.880292 93.628773 77.437446
15657 16 1 98.677671 94.435103 77.993124
15658 16 1 98.372338 94.351357 77.044568
15659 16 1 98.701526 95.279467 77.218487
15660 16 1 97.994141 95.340112 76.514265
15661 16 1 98.950679 95.578876 76.346854
15662 16 1 99.718795 96.089141 75.960036
15663 16 1 99.965857 96.393145 75.039959
15664 16 1 99.366582 96.985810 75.578120
15665 16 1 98.794936 97.695057 75.165580
15666 16 1 99.792442 97.652962 75.108925
15667 16 1 99.190904 98.375169 74.767504
15668 16 1 99.663303 97.906019 74.021356
15669 16 1 99.831174 96.920218 74.025234
15670 16 1 99.063148 97.066484 73.401742
15671 16 1 98.165326 96.692687 73.168953
15672 16 1 97.185732 96.843283 73.302061
15673 16 1 97.801086 97.268194 73.965982
15674 16 1 98.402455 97.509292 73.204256
15675 16 1 98.883591 98.206252 72.672509
15676 16 1 97.889766 98.145181 72.579866
15677 16 1 98.345935 98.668950 73.299294
15678 16 1 98.582425 99.421143 72.684250
15679 16 1 99.398640 98.844753 72.723843
15680 16 1 99.467690 99.723355 72.251305
15681 16 1 98.541875 99.643652 71.881827
15682 16 1 99.337611 99.110121 71.595209
15683 16 1 98.763529 98.311725 71.413564
15684 16 1 97.973994 98.875088 71.170139
15685 16 1 97.754872 99.740702 70.719919
15686 16 1 97.203445 98.950713 70.451880
15687 16 1 97.481171 98.153042 70.987222
15688 16 1 97.847655 97.309583 71.379990
15689 16 1 97.950813 97.062271 72.343419
15690 16 1 97.018489 96.727127 72.479250
15691 16 1 97.325373 97.610922 72.126080
15692 16 1 97.038623 96.792711 71.627777
15693 16 1 96.045607 96.909278 71.609565
15694 16 1 95.302769 96.247168 71.510561
15695 16 1 94.822684 95.691484 70.831788
15696 16 1 95.262592 94.809075 70.998626
15697 16 1 96.114010 95.018271 70.517664
15698 16 1 96.700547 95.221014 71.301801
15699 16 1 97.071005 94.938267 72.186569
15700 16 1 96.468725 94.168748 72.398934
15701 16 1 96.682391 93.749066 73.281099
15702 16 1 96.309920 93.330669 74.109476
15703 16 1 95.888580 93.480451 73.215028
15704 16 1 95.783192 93.245475 72.248757
15705 16 1 95.474983 93.780665 71.462259
15706 16 1 94.838317 93.945066 72.215671
15707 16 1 93.926376 93.713189 72.554191
15708 16 1 94.464049 93.209856 71.877756
15709 16 1 94.863911 93.354138 72.782904
15710 16 1 94.970143 92.943786 73.688623
15711 16 1 94.452026 92.272611 73.158455
15712 16 1 94.130539 91.437665 73.605122
15713 16 1 93.830569 91.286273 74.546981
15714 16 1 93.457320 90.493424 75.028723
15715 16 1 92.707168 90.018500 74.568593
15716 16 1 92.024654 89.457888 74.099670
15717 16 1 91.925130 90.452818 74.085149
15718 16 1 91.281036 90.550830 74.843791
15719 16 1 90.651999 91.149431 75.339763
15720 16 1 90.352595 90.204660 75.473053
15721 16 1 89.468767 90.492293 75.104114
15722 16 1 88.945545 89.750172 75.523035
15723 16 1 89.155141 88.798938 75.296711
15724 16 1 89.779090 88.195676 75.793464
15725 16 1 89.492055 87.772122 74.934271
15726 16 1 88.737085 87.730115 75.588683
15727 16 1 88.683834 86.890521 75.048085
15728 16 1 88.692571 87.751988 74.540346
15729 16 1 87.714082 87.875127 74.374827
15730 16 1 87.267176 88.409395 75.092345
15731 16 1 86.753040 88.032419 75.862770
15732 16 1 86.666093 88.346922 76.808036
15733 16 1 86.341213 88.112182 77.724196
15734 16 1 86.794215 87.691201 78.510049
15735 16 1 87.776281 87.787445 78.347928
15736 16 1 87.836987 86.959864 78.905983
15737 16 1 88.583783 87.294714 79.480589
15738 16 1 89.167440 87.689572 80.190118
15739 16 1 88.609195 88.498680 80.006527
15740 16 1 87.976485 87.825614 79.623565
15741 16 1 87.372414 87.033856 79.714221
15742 16 1 86.758555 87.354221 80.435707
15743 16 1 86.527703 86.393805 80.279795
15744 16 1 87.306671 85.819550 80.027923
15745 16 1 86.774647 85.039279 80.356749
15746 16 1 87.516376 85.039425 79.686049
15747 16 1 88.009636 84.973595 80.553436
15748 16 1 88.427309 85.647183 81.163214
15749 16 1 88.417241 86.639757 81.284436
15750 16 1 87.609966 86.931966 81.797194
15751 16 1 87.621144 85.957178 82.020047
15752 16 1 87.199540 85.121961 81.666971
15753 16 1 86.864675 84.276249 81.251473
15754 16 1 86.436948 83.581181 80.673607
15755 16 1 86.064513 82.959505 81.362672
15756 16 1 85.915781 83.481155 82.202767
15757 16 1 85.871224 82.482149 82.202842
15758 16 1 86.833691 82.433227 82.469795
15759 16 1 87.160952 83.020786 81.729744
15760 16 1 87.796190 82.474800 81.183509
15761 16 1 88.289365 81.693345 81.565748
15762 16 1 88.674383 81.119916 80.842601
15763 16 1 88.046589 81.035222 80.068842
15764 16 1 87.675042 81.058912 79.140731
15765 16 1 88.355896 80.468818 78.706879
15766 16 1 87.710819 80.005465 79.314480
15767 16 1 87.117145 79.716886 80.065661
15768 16 1 86.652739 80.597057 79.967553
15769 16 1 86.584304 81.551466 80.258105
15770 16 1 85.717839 81.351847 80.715697
15771 16 1 85.840801 80.371534 80.561210
15772 16 1 85.300309 79.724944 80.022888
15773 16 1 85.678124 78.865582 80.367494
15774 16 1 86.328244 78.929442 79.610352
15775 16 1 86.052791 78.229407 78.951507
15776 16 1 86.435777 77.338466 78.707487
15777 16 1 86.806017 77.517495 77.795966
15778 16 1 86.347506 77.357406 76.921815
15779 16 1 87.180548 77.759114 76.541458
15780 16 1 87.853420 77.463543 77.219603
15781 16 1 88.231527 78.181951 77.803491
15782 16 1 89.060346 78.725045 77.938056
15783 16 1 89.455145 77.924031 78.388069
15784 16 1 88.644479 77.339345 78.419108
15785 16 1 89.112793 76.948721 77.626583
15786 16 1 89.941385 77.348337 78.018682
15787 16 1 89.690838 76.393562 77.858590
15788 16 1 89.977466 75.445372 77.721545
15789 16 1 90.690180 75.742331 78.357041
15790 16 1 91.344148 76.273514 77.818366
15791 16 1 92.083447 76.940526 77.910732
15792 16 1 93.066519 77.086140 78.021934
15793 16 1 92.797737 76.317032 77.442081
15794 16 1 92.114236 76.056815 76.760089
15795 16 1 91.241462 75.649683 76.490813
15796 16 1 91.492763 76.432405 75.921432
15797 16 1 91.847176 75.938818 75.127226
15798 16 1 92.082644 75.038568 75.493427
15799 16 1 92.795092 75.508838 74.972599
15800 16 1 92.448655 75.880063 75.834093
15801 16 1 92.395964 76.864411 76.002271
15802 16 1 93.062032 76.173856 76.284206
15803 16 1 93.771542 75.961847 75.612157
15804 16 1 93.276556 76.756183 75.259993
15805 16 1 93.169655 77.089715 76.196652
15806 16 1 93.088587 78.068968 76.382368
15807 16 1 94.051495 78.163177 76.129517
15808 16 1 94.667330 78.668498 75.525035
15809 16 1 95.238350 78.210368 76.206250
15810 16 1 95.403974 79.161724 75.946461
15811 16 1 96.045171 78.943349 76.682109
15812 16 1 96.329771 78.751788 75.742797
15813 16 1 96.164326 79.719824 75.931304
15814 16 1 96.919643 80.225550 76.348122
15815 16 1 96.814473 79.442161 76.960690
15816 16 1 96.610029 78.474534 77.108680
15817 16 1 96.864200 77.546409 77.380676
15818 16 1 97.794998 77.197896 77.270433
15819 16 1 98.699846 77.417107 76.905471
15820 16 1 99.323200 76.788541 77.370588
15821 16 1 98.950142 76.983056 78.277777
15822 16 1 98.101592 76.600090 77.912676
15823 16 1 97.525915 77.388334 78.130088
15824 16 1 97.113430 77.089324 78.990581
15825 16 1 96.535371 77.901948 79.064661
15826 16 1 97.223492 78.333518 79.647958
15827 16 1 96.590331 77.777649 80.186583
15828 16 1 96.436323 77.837407 81.172844
15829 16 1 95.491730 78.153372 81.083904
15830 16 1 95.250868 78.818914 80.377477
15831 16 1 94.756413 79.624976 80.702713
15832 16 1 93.798049 79.768667 80.949474
15833 16 1 93.098173 80.482930 80.951126
15834 16 1 92.346006 79.824001 80.943520
15835 16 1 92.704186 79.826144 80.009870
15836 16 1 92.659075 79.279751 79.173557
15837 16 1 92.752660 79.265644 78.178045
15838 16 1 92.605831 79.596458 77.245842
15839 16 1 92.726223 80.519664 77.610805
15840 16 1 92.130277 80.034610 78.250783
15841 16 1 91.474720 79.892214 78.992382
15842 16 1 90.659089 79.822189 79.566700
15843 16 1 90.383836 79.117498 80.220647
15844 16 1 90.182819 78.220955 79.825928
15845 16 1 90.557418 77.440309 80.326195
15846 16 1 89.609668 77.199319 80.535229
15847 16 1 90.261249 77.404657 81.265488
15848 16 1 90.481227 78.111479 81.937807
15849 16 1 90.843138 78.741293 81.250526
15850 16 1 90.344086 78.992072 82.080019
15851 16 1 89.690511 78.583846 82.717350
15852 16 1 89.481515 79.462329 82.287713
15853 16 1 89.254313 78.699894 81.681848
15854 16 1 88.280135 78.484794 81.613225
15855 16 1 88.374436 78.911399 82.512733
15856 16 1 88.415354 77.914861 82.585103
15857 16 1 88.762150 77.440344 83.394156
15858 16 1 89.111217 76.937992 82.603085
15859 16 1 89.511252 76.906039 81.687142
15860 16 1 88.578199 76.633220 81.921621
15861 16 1 88.167817 76.990609 81.082657
15862 16 1 88.856883 76.311999 80.828343
15863 16 1 87.965356 76.281586 80.376397
15864 16 1 87.710539 76.534813 79.443154
15865 16 1 88.136427 77.155382 80.101572
15866 16 1 88.851411 77.854267 80.082695
15867 16 1 88.518669 78.206695 79.208008
15868 16 1 88.556433 78.619080 80.118234
15869 16 1 87.858832 78.721023 79.409037
15870 16 1 88.031012 79.348411 80.168470
15871 16 1 88.773028 79.735542 80.715774
15872 16 1 87.948200 79.508681 81.233647
15873 16 1 86.982913 79.623555 81.468219
15874 16 1 87.575357 78.973210 81.943677
15875 16 1 87.150423 78.157960 82.337122
15876 16 1 87.121536 77.599446 81.508130
15877 16 1 86.273097 77.698885 80.988261
15878 16 1 86.423296 77.868765 81.962212
15879 16 1 85.542832 77.470683 81.704699
15880 16 1 84.632522 77.288919 82.076584
15881 16 1 84.370495 76.333231 82.210754
15882 16 1 83.562931 76.473873 82.783520
15883 16 1 83.544947 77.063774 81.976244
15884 16 1 83.751145 77.905492 81.477252
15885 16 1 83.597514 77.908103 82.465377
15886 16 1 83.298798 78.558129 81.766639
15887 16 1 82.370796 78.765404 81.457044
15888 16 1 82.165645 79.423008 80.732150
15889 16 1 82.766069 80.221266 80.779841
15890 16 1 83.235527 80.459482 81.630054
15891 16 1 82.239845 80.551074 81.614935
15892 16 1 82.377105 80.977674 80.720971
15893 16 1 81.964206 81.720019 80.193298
15894 16 1 81.706643 82.611883 79.821492
15895 16 1 81.563019 82.896586 80.769288
15896 16 1 82.399119 82.604479 81.233627
15897 16 1 81.662687 82.990836 81.788963
15898 16 1 82.120826 83.823643 81.478251
15899 16 1 82.679361 83.863370 80.649722
15900 16 1 82.948387 84.374656 79.833504
15901 16 1 82.976144 83.986996 78.912120
15902 16 1 82.822939 83.001287 78.842077
15903 16 1 83.617751 83.121409 78.247229
15904 16 1 84.432992 83.691300 78.350220
15905 16 1 84.059349 83.673561 77.422817
15906 16 1 84.830268 83.811204 76.800935
15907 16 1 85.513830 83.081415 76.788618
15908 16 1 85.636359 83.696439 77.567548
15909 16 1 86.176914 82.865646 77.434950
15910 16 1 86.802476 82.729560 76.666736
15911 16 1 87.473838 81.990378 76.613037
15912 16 1 87.153698 82.005885 75.665794
15913 16 1 87.677133 81.328394 75.149053
15914 16 1 88.541041 81.589095 75.579980
15915 16 1 89.402025 81.957555 75.930612
15916 16 1 89.648581 81.792612 74.975623
15917 16 1 89.043209 82.525968 75.284999
15918 16 1 88.849625 82.936864 76.175892
15919 16 1 89.748069 82.812803 75.754694
15920 16 1 89.884418 82.704552 74.769965
15921 16 1 90.607360 82.748316 74.080445
15922 16 1 91.164127 82.052782 73.626305
15923 16 1 90.483141 81.404592 73.285559
15924 16 1 89.491712 81.344564 73.401601
15925 16 1 89.209590 82.021430 74.081498
15926 16 1 89.454506 81.098644 74.378956
15927 16 1 88.494886 81.368130 74.459612
15928 16 1 88.688457 80.776615 73.676899
15929 16 1 88.036474 80.618168 72.935406
15930 16 1 87.933004 81.576397 73.202031
15931 16 1 87.836844 82.525429 72.901878
15932 16 1 87.366992 81.985732 73.600424
15933 16 1 86.929250 82.025148 74.498660
15934 16 1 86.419262 82.320518 75.306540
15935 16 1 86.199243 81.543180 75.895893
15936 16 1 85.478841 80.850585 75.859380
15937 16 1 85.102860 81.295787 75.046709
15938 16 1 85.542171 80.923847 74.228988
15939 16 1 85.233193 81.874463 74.199609
15940 16 1 84.929733 82.815988 74.053175
15941 16 1 84.573129 83.604561 74.554160
15942 16 1 84.874628 83.303990 75.459012
15943 16 1 84.015945 83.281865 75.971041
15944 16 1 84.067203 82.323333 75.690702
15945 16 1 84.797370 82.387599 75.010463
15946 16 1 85.629217 82.891413 75.243279
15947 16 1 85.998224 82.656725 76.142587
15948 16 1 86.336559 81.893119 76.692528
15949 16 1 86.106702 81.219389 77.394848
15950 16 1 86.200130 81.879052 78.140581
15951 16 1 86.554769 81.276417 78.855468
15952 16 1 87.126461 81.399481 79.666654
15953 16 1 87.765381 82.128441 79.912415
15954 16 1 88.451633 82.696756 79.458458
15955 16 1 89.161058 82.506533 80.137082
15956 16 1 88.306140 82.155175 80.518739
15957 16 1 88.412988 83.115670 80.775709
15958 16 1 89.375873 83.369694 80.684480
15959 16 1 90.231510 82.853144 80.717079
15960 16 1 91.052818 83.168116 81.192732
15961 16 1 91.285254 82.393099 81.780374
15962 16 1 91.470409 83.353091 81.990453
15963 16 1 90.861386 82.727232 82.477681
15964 16 1 90.369127 83.597252 82.450347
15965 16 1 90.219600 82.763004 81.919619
15966 16 1 89.530119 83.157734 82.526911
15967 16 1 90.043427 82.372850 82.874003
15968 16 1 89.200980 81.834408 82.854907
15969 16 1 89.081326 80.999143 83.391577
15970 16 1 89.908935 80.660706 83.839377
15971 16 1 90.557873 80.631657 84.599663
15972 16 1 90.286595 80.288729 85.499001
15973 16 1 90.503775 80.885160 86.271726
15974 16 1 91.344318 80.661227 85.778430
15975 16 1 92.195669 80.762651 85.263732
15976 16 1 93.010685 80.483742 85.771629
15977 16 1 93.363010 81.183568 86.393006
15978 16 1 93.805488 81.028174 85.509793
15979 16 1 94.026123 81.717653 86.199676
15980 16 1 94.312243 82.080788 87.086394
15981 16 1 93.767234 81.680945 87.823341
15982 16 1 94.758555 81.670298 87.954372
15983 16 1 95.187650 81.520332 88.845095
15984 16 1 94.746795 80.656283 88.602061
15985 16 1 94.888048 80.466246 89.573623
15986 16 1 93.892730 80.371488 89.592676
15987 16 1 94.280193 79.828888 90.337965
15988 16 1 94.369048 80.748318 90.721049
15989 16 1 94.379253 81.746654 90.777800
15990 16 1 93.565342 81.884702 90.213450
15991 16 1 94.169647 82.108260 89.448703
15992 16 1 93.689145 82.916452 89.789208
15993 16 1 93.463444 82.797305 90.756091
15994 16 1 93.787581 82.612100 91.683795
15995 16 1 94.279470 83.478481 91.597607
15996 16 1 94.770775 84.262181 91.217562
15997 16 1 94.486782 84.793436 90.419366
15998 16 1 94.687528 85.200742 91.310322
15999 16 1 94.432796 86.132146 91.050326
16000 16 1 93.733092 86.115393 90.336089
16001 17 2 -16.746877 74.300877 91.369205
16002 17 2 -16.563351 71.386950 92.058661
16003 17 2 -16.774286 74.623001 88.386675
16004 17 2 -14.380208 75.749335 92.509752
16005 17 3 -19.269662 75.444221 92.521732
16006 18 2 -82.334056 29.694750 34.968959
16007 18 3 -81.085919 28.797788 37.545316
16008 18 2 -85.278796 30.101523 35.372745
16009 18 2 -81.892836 27.604266 32.862967
16010 18 2 -81.078672 32.275422 34.094808
16011 19 2 74.421047 30.644336 -85.547599
16012 19 2 75.681992 28.145683 -86.627761
16013 19 2 74.832821 30.769303 -82.578622
16014 19 2 71.482133 30.622063 -86.149507
16015 19 3 75.687241 33.040296 -86.834507
16016 20 2 -66.625363 -66.834264 5.026416
16017 20 2 -69.161148 -67.983290 3.908591
16018 20 3 -64.340049 -67.485281 3.195155
16019 20 2 -66.102782 -68.012203 7.735543
16020 20 2 -66.897472 -63.856282 5.266375
16021 21 2 62.222507 48.267369 -53.968681
16022 21 2 60.067067 46.940743 -55.579315
16023 21 2 64.757366 48.355317 -55.570791
16024 21 3 62.687240 46.711257 -51.446274
16025 21 2 61.378356 51.062157 -53.278345
16026 22 2 74.728343 70.457739 -86.145685
16027 22 3 77.578022 69.669010 -85.638503
16028 22 2 73.104706 69.989044 -83.666949
16029 22 2 73.619568 68.809648 -88.393887
16030 22 2 74.611074 73.363255 -86.883400
16031 23 2 58.155320 68.173871 19.854376
16032 23 2 61.042437 68.772800 20.407402
16033 23 2 56.737873 67.612058 22.438019
16034 23 2 57.956877 65.775716 18.062876
16035 23 3 56.884093 70.534909 18.509207
16036 24 2 -79.175969 -1.132241 30.403936
16037 24 2 -78.423195 -3.891676 31.308840
16038 24 2 -81.746599 -0.315627 31.717329
16039 24 3 -79.526582 -1.117749 27.424530
16040 24 2 -77.007499 0.796087 31.165044
16041 25 2 -71.063622 -65.851725 -44.721338
16042 25 2 -69.210160 -63.878412 -43.428777
16043 25 2 -71.595163 -65.017570 -47.553589
16044 25 2 -73.649213 -65.938401 -43.202389
16045 25 3 -69.799952 -68.572517 -44.700596
16046 26 2 -76.917536 -7.869843 27.095296
16047 26 2 -74.518873 -7.593125 25.314889
16048 26 2 -76.073398 -7.592436 29.960689
16049 26 3 -78.167468 -10.564853 26.677457
16050 26 2 -78.910403 -5.728956 26.428148
16051 27 2 82.288549 -63.848290 -41.361338
16052 27 2 79.907135 -63.017545 -42.985755
16053 27 2 81.508279 -64.045083 -38.471278
16054 27 2 84.470191 -61.812588 -41.671754
16055 27 3 83.268592 -66.517944 -42.316567
16056 28 2 91.776865 -90.870177 -66.520479
16057 28 2 91.799544 -88.157492 -65.239533
16058 28 3 89.017397 -91.476714 -67.529167
16059 28 2 92.579654 -92.937036 -64.499681
16060 28 2 93.710864 -90.909467 -68.813534
16061 29 2 15.677142 -67.238780 47.568847
16062 29 2 16.468948 -66.188030 44.872745
16063 29 2 16.192264 -70.192062 47.681869
16064 29 3 12.759427 -66.714266 48.029092
16065 29 2 17.287928 -65.860761 49.691683
16066 30 2 16.004483 -26.026618 -73.806360
16067 30 2 17.851897 -28.248460 -72.999839
16068 30 2 16.391940 -25.410696 -76.716775
16069 30 2 16.610359 -23.581317 -72.177429
16070 30 3 13.163735 -26.865999 -73.331398
16071 31 2 82.090615 12.604793 -5.050615
16072 31 2 79.164966 11.992007 -5.305703
16073 31 2 83.329022 12.724259 -7.780464
16074 31 3 83.425933 10.454732 -3.439974
16075 31 2 82.442540 15.248173 -3.676319
16076 32 2 -11.440419 -19.291828 92.682546
16077 32 2 -13.753471 -20.980273 91.788710
16078 32 2 -11.206620 -19.417262 95.670790
16079 32 3 -11.889664 -16.449902 91.833053
16080 32 2 -8.911920 -20.319874 91.437630
16081 33 2 -25.731169 64.222240 -5.691338
16082 33 3 -25.493720 61.582226 -4.286366
16083 33 2 -24.619487 66.390171 -3.940841
16084 33 2 -28.619069 64.789169 -6.273251
16085 33 2 -24.192399 64.127394 -8.264894
16086 34 2 9.594000 79.512265 -50.910563
16087 34 2 9.549347 81.529337 -53.130794
16088 34 2 10.216949 80.890518 -48.319742
16089 34 3 11.696790 77.448734 -51.476353
16090 34 2 6.912915 78.180469 -50.715362
16091 35 2 18.910782 -39.637862 89.686079
16092 35 2 17.590445 -37.877831 91.725442
16093 35 2 17.509194 -39.339848 87.050412
16094 35 2 18.757178 -42.496598 90.582759
16095 35 3 21.786311 -38.837170 89.385703
16096 36 2 -38.664279 -14.809818 2.779787
16097 36 2 -36.604017 -16.712260 3.845637
16098 36 2 -41.181154 -16.314055 2.145268
16099 36 3 -37.624673 -13.503504 0.287246
16100 36 2 -39.247273 -12.709454 4.840998
16101 37 2 13.811057 -94.745621 2.315828
16102 37 3 12.141478 -97.193379 2.785922
16103 37 2 13.831153 -94.096194 -0.612968
16104 37 2 16.617175 -95.255307 3.246376
16105 37 2 12.654422 -92.437603 3.843980
16106 38 2 -4.195199 43.628813 -0.241601
16107 38 2 -4.168054 40.808865 -1.264909
16108 38 3 -5.958889 43.797162 2.179361
16109 38 2 -5.247977 45.456641 -2.374839
16110 38 2 -1.405876 44.452583 0.493982
16111 39 2 37.785130 -92.492623 -81.387245
16112 39 2 36.189435 -92.626024 -78.850325
16113 39 2 37.768349 -89.680645 -82.432472
16114 39 3 36.572281 -94.325672 -83.429040
16115 39 2 40.610457 -93.338150 -80.837141
16116 40 2 63.109915 -6.146094 -34.057742
16117 40 2 61.318196 -8.431987 -33.306452
16118 40 3 63.696763 -6.259895 -36.997582
16119 40 2 65.676974 -6.339530 -32.517356
16120 40 2 61.747726 -3.552964 -33.409577
16121 41 2 6.007919 52.500577 -40.115407
16122 41 2 6.991880 53.710161 -37.552454
16123 41 2 6.745194 49.593731 -40.197101
16124 41 3 7.269437 53.917893 -42.439151
16125 41 2 3.025165 52.780523 -40.272923
16126 42 2 -82.743645 -77.602065 -36.400270
16127 42 2 -83.696551 -74.775055 -36.084064
16128 42 2 -85.013333 -79.488519 -35.861931
16129 42 2 -80.520820 -78.131436 -34.456353
16130 42 3 -81.743878 -78.013250 -39.198733
16131 43 2 -40.082427 -48.405091 81.121290
16132 43 3 -37.187744 -48.923319 80.527784
16133 43 2 -41.506977 -47.669350 78.585675
16134 43 2 -40.312112 -46.150960 83.087539
16135 43 2 -41.322876 -50.876733 82.284161
16136 44 2 -90.106681 -1.820176 -28.102832
16137 44 2 -91.780521 -1.616683 -25.621532
16138 44 3 -87.210882 -1.507585 -27.384058
16139 44 2 -90.899342 0.343321 -30.024021
16140 44 2 -90.535977 -4.499758 -29.381717
16141 45 2 -46.968291 21.233955 91.818173
16142 45 3 -45.525474 18.615141 91.573032
16143 45 2 -47.264943 21.944661 94.717637
16144 45 2 -49.683035 21.001359 90.562759
16145 45 2 -45.399712 23.374658 90.419263
16146 46 2 79.647472 -66.196434 -69.994935
16147 46 2 78.324271 -68.531977 -68.655391
16148 46 2 82.075265 -65.388961 -68.428472
16149 46 3 77.726801 -63.895238 -70.119522
16150 46 2 80.463549 -66.969559 -72.776355
16151 47 2 45.597463 76.438086 28.113786
16152 47 2 43.575791 78.568084 27.500635
16153 47 3 46.900632 75.533543 25.567504
16154 47 2 44.230958 74.108670 29.420111
16155 47 2 47.682471 77.542048 29.966894
16156 48 2 -16.104341 -53.338074 59.233619
16157 48 3 -16.219266 -56.335680 59.267521
16158 48 2 -15.438785 -52.331727 61.980308
16159 48 2 -18.766309 -52.244806 58.385864
16160 48 2 -13.993002 -52.440082 57.300782
16161 49 2 73.346797 40.258221 16.705332
16162 49 2 73.501500 42.829181 15.167077
16163 49 3 75.771825 38.593125 16.116522
16164 49 2 70.880539 38.754736 15.894714
16165 49 2 73.233326 40.855841 19.643013
16166 50 2 -86.787129 46.052429 94.433521
16167 50 3 -86.073345 47.889146 92.171447
16168 50 2 -87.329669 43.305004 93.357739
16169 50 2 -89.237227 47.083731 95.824001
16170 50 2 -84.508274 45.931834 96.380899
16171 51 2 -33.479120 -49.507330 89.393116
16172 51 2 -36.111928 -50.864439 89.869117
16173 51 3 -32.924376 -49.406446 86.446579
16174 51 2 -31.299605 -51.042437 90.769038
16175 51 2 -33.580571 -46.716000 90.487731
16176 52 2 -14.522613 71.975562 13.103663
16177 52 2 -13.091434 72.261634 15.724711
16178 52 3 -17.392375 71.258749 13.604305
16179 52 2 -13.219614 69.812744 11.483661
16180 52 2 -14.387029 74.569123 11.601977
16181 53 2 -43.518502 -69.204455 75.150801
16182 53 3 -40.601661 -68.510727 75.254650
16183 53 2 -44.804744 -67.776005 72.847518
16184 53 2 -44.837884 -68.364695 77.710886
16185 53 2 -43.829718 -72.166393 74.790150
16186 54 2 96.498463 0.620556 -88.324935
16187 54 3 95.670121 -2.256196 -88.520255
16188 54 2 96.993781 1.325671 -85.451353
16189 54 2 94.318376 2.365582 -89.421340
16190 54 2 99.011574 1.047166 -89.906793
16191 55 2 -3.780007 95.614312 -18.316514
16192 55 2 -2.798694 94.150279 -20.744194
16193 55 3 -2.533163 94.426084 -15.860197
16194 55 2 -6.764923 95.370814 -18.140481
16195 55 2 -3.023250 98.510073 -18.521184
16196 56 2 54.749901 73.762887 73.667789
16197 56 2 55.416340 70.863075 74.051127
16198 56 3 53.175028 74.746964 76.023923
16199 56 2 53.122892 74.093196 71.169042
16200 56 2 57.285345 75.348314 73.427064
16201 57 2 -16.367605 -52.082134 51.803639
16202 57 3 -13.469517 -52.060648 51.028639
16203 57 2 -16.654055 -53.200975 54.572419
16204 57 2 -17.906561 -53.785750 49.872497
16205 57 2 -17.440287 -49.281165 51.741000
16206 58 2 -70.699301 -45.590548 60.744070
16207 58 3 -69.347766 -48.267675 60.823726
16208 58 2 -71.288528 -44.684146 63.542506
16209 58 2 -73.263985 -45.810558 59.203294
16210 58 2 -68.896925 -43.599814 59.406753
16211 59 2 39.859198 53.793527 -56.032676
16212 59 2 39.174932 51.324711 -57.593677
16213 59 2 39.039225 53.426163 -53.170389
16214 59 3 38.405864 56.146505 -57.195136
16215 59 2 42.816772 54.276730 -56.171501
16216 60 2 -65.937499 26.652423 71.827101
16217 60 3 -65.041127 23.793331 71.678412
16218 60 2 -66.039429 27.520502 74.696953
16219 60 2 -68.666089 26.909702 70.607017
16220 60 2 -64.003352 28.386159 70.326023
16221 61 2 76.301248 -50.700072 12.742234
16222 61 2 74.979502 -48.278734 13.921263
16223 61 2 79.111839 -50.905748 13.770959
16224 61 2 76.345886 -50.458787 9.752286
16225 61 3 74.767764 -53.157021 13.524429
16226 62 2 86.300431 -96.207043 22.439540
16227 62 3 84.824177 -97.455968 24.733196
16228 62 2 85.114404 -97.154923 19.852096
16229 62 2 89.192043 -96.996593 22.562777
16230 62 2 86.071098 -93.220687 22.610089
16231 63 2 -37.321573 91.543046 72.877326
16232 63 2 -37.967225 94.377155 73.619593
16233 63 2 -34.868133 91.495436 71.151533
16234 63 3 -39.627201 90.353846 71.370713
16235 63 2 -36.823734 89.945748 75.367466
16236 64 2 12.169206 71.973254 -89.829071
16237 64 2 10.797323 69.604147 -91.055966
16238 64 2 12.102453 74.274395 -91.752686
16239 64 3 15.019092 71.269073 -89.210786
16240 64 2 10.757954 72.745400 -87.296847
16241 65 2 -44.987764 28.459803 -66.483063
16242 65 2 -42.740486 28.944856 -64.555768
16243 65 2 -43.935229 27.047317 -68.911447
16244 65 3 -46.191846 31.084485 -67.296223
16245 65 2 -47.083496 26.762555 -65.168811
16246 66 2 -81.303581 52.269609 -76.366070
16247 66 2 -84.162468 51.364998 -76.457952
16248 66 2 -80.470561 52.663334 -73.511064
16249 66 3 -81.025757 54.859165 -77.855035
16250 66 2 -79.555537 50.190941 -77.640229
16251 67 2 -5.843895 -74.986832 -57.528335
16252 67 2 -2.957172 -75.709608 -57.148302
16253 67 3 -6.383127 -74.522172 -60.442665
16254 67 2 -6.460549 -72.488346 -55.986483
16255 67 2 -7.574732 -77.227201 -56.535890
16256 68 2 -80.470837 33.954109 65.994358
16257 68 2 -79.307801 31.525903 67.317674
16258 68 2 -83.465713 33.794007 66.065686
16259 68 3 -79.543755 34.080247 63.143989
16260 68 2 -79.566080 36.416277 67.450085
16261 69 2 50.149946 -35.593168 -52.796659
16262 69 2 50.250121 -38.221563 -51.353917
16263 69 2 48.421147 -35.855735 -55.234344
16264 69 3 52.923214 -34.797210 -53.618510
16265 69 2 49.005304 -33.498163 -50.979863
16266 70 2 41.432853 -68.050305 52.454000
16267 70 3 39.151354 -68.630315 50.594335
16268 70 2 40.521335 -66.156686 54.594875
16269 70 2 43.687473 -66.807765 50.913616
16270 70 2 42.371249 -70.606453 53.713174
16271 71 2 -17.050356 -18.906236 -13.812674
16272 71 2 -14.883420 -20.172818 -12.169459
16273 71 2 -16.309109 -16.064589 -14.425531
16274 71 2 -19.628319 -18.958786 -12.279264
16275 71 3 -17.380577 -20.428751 -16.376441
16276 72 2 -10.187751 70.786145 -42.394052
16277 72 3 -11.357707 72.417347 -44.623488
16278 72 2 -7.204190 71.099639 -42.384751
16279 72 2 -10.888415 67.896771 -42.794783
16280 72 2 -11.300692 71.730825 -39.773185
16281 73 2 23.041614 -48.020364 -20.400477
16282 73 2 21.365989 -46.513790 -22.381012
16283 73 2 23.435536 -50.835256 -21.360272
16284 73 2 21.655679 -48.055686 -17.740038
16285 73 3 25.709252 -46.676723 -20.120586
16286 74 2 -60.278616 -66.673414 62.901857
16287 74 3 -61.098641 -64.674352 60.820677
16288 74 2 -60.228355 -65.350712 65.594055
16289 74 2 -57.545461 -67.727192 62.254231
16290 74 2 -62.242005 -68.941400 62.938463
16291 75 2 -90.150031 -90.234118 83.028559
16292 75 3 -92.021182 -92.406163 83.912308
16293 75 2 -90.732459 -89.511976 80.175615
16294 75 2 -87.318631 -91.198785 83.257897
16295 75 2 -90.527851 -87.819548 84.768416
16296 76 2 12.327692 -76.999122 -63.881908
16297 76 2 15.169871 -76.369874 -64.607210
16298 76 2 10.641952 -77.012945 -66.363457
16299 76 2 11.295809 -74.917851 -61.983612
16300 76 3 12.203136 -79.695818 -62.573352
16301 77 2 -37.032153 92.770499 26.285194
16302 77 2 -36.631167 95.697610 25.764399
16303 77 2 -36.925183 92.256469 29.238892
16304 77 3 -34.867582 91.205971 24.918853
16305 77 2 -39.704680 91.921945 25.218632
16306 78 2 -7.898932 82.137692 -91.108137
16307 78 3 -9.226882 82.399264 -88.430801
16308 78 2 -6.914298 84.826514 -92.002973
16309 78 2 -9.872981 81.080467 -93.104485
16310 78 2 -5.581568 80.244522 -90.894288
16311 79 2 -61.404733 72.111396 65.449197
16312 79 2 -60.919618 69.341994 64.402741
16313 79 2 -59.233452 72.843287 67.385657
16314 79 2 -64.059955 72.203056 66.842537
16315 79 3 -61.405907 74.057249 63.165854
16316 80 2 62.860556 17.759460 -73.593269
16317 80 2 60.099513 16.593931 -73.458418
16318 80 2 64.050426 17.202647 -76.290335
16319 80 3 64.575271 16.517270 -71.468013
16320 80 2 62.717013 20.723994 -73.156309
16321 81 2 -34.591170 -31.153811 94.030058
16322 81 2 -34.618008 -29.654677 96.628496
16323 81 2 -36.940657 -30.311787 92.365456
16324 81 2 -34.754990 -34.099648 94.573388
16325 81 3 -32.051022 -30.549133 92.552894
16326 82 2 93.385847 -59.784760 81.370074
16327 82 2 92.798951 -62.726190 81.429599
16328 82 3 93.555192 -58.856264 78.522405
16329 82 2 95.996673 -59.257841 82.750633
16330 82 2 91.192570 -58.298744 82.777660
16331 83 2 -11.470710 51.522862 -18.018718
16332 83 2 -11.463678 48.612925 -18.748251
16333 83 2 -8.972462 52.819945 -19.056182
16334 83 3 -11.578689 51.805268 -15.033992
16335 83 2 -13.868011 52.853308 -19.236446
16336 84 2 -22.589036 -22.535467 -56.346539
16337 84 2 -22.648997 -24.243845 -58.811869
16338 84 2 -22.484012 -19.643228 -57.136427
16339 84 2 -20.163674 -23.215814 -54.717200
16340 84 3 -25.059460 -23.038983 -54.720662
16341 85 2 84.964420 -91.253804 40.834100
16342 85 2 86.469534 -89.608942 42.841352
16343 85 2 86.884862 -92.383342 38.825109
16344 85 3 82.952214 -89.525793 39.432313
16345 85 2 83.551068 -93.497139 42.237626
16346 86 2 -42.414878 -86.612361 81.063358
16347 86 2 -43.443584 -83.833654 81.532991
16348 86 2 -39.434988 -86.531807 80.726065
16349 86 2 -43.671949 -87.738167 78.582968
16350 86 3 -43.108992 -88.345815 83.411409
16351 87 2 52.577788 -56.207457 18.879606
16352 87 2 52.119121 -58.758466 20.390227
16353 87 2 50.600737 -56.006842 16.632158
16354 87 3 55.363214 -56.191984 17.765531
16355 87 2 52.228081 -53.872534 20.730509
16356 88 2 -74.400857 29.094042 74.233075
16357 88 2 -75.583539 26.360871 74.595062
16358 88 3 -75.082243 30.124436 71.499213
16359 88 2 -71.419481 28.940859 74.529612
16360 88 2 -75.518164 30.950005 76.308414
16361 89 2 52.228109 -69.929920 -41.474430
16362 89 2 50.551184 -68.155426 -39.731131
16363 89 2 53.760557 -68.249920 -43.431265
16364 89 3 50.452499 -71.833244 -42.965928
16365 89 2 54.148195 -71.481090 -39.769397
16366 90 2 -17.172270 24.368972 -18.316476
16367 90 2 -14.184597 24.546339 -18.522271
16368 90 3 -18.074770 25.634361 -15.750490
16369 90 2 -18.008300 21.488131 -18.359006
16370 90 2 -18.421413 25.807055 -20.634138
16371 91 2 -85.517648 9.140156 -50.454563
16372 91 3 -85.121835 12.024184 -49.729501
16373 91 2 -83.044245 8.097287 -51.794227
16374 91 2 -87.849309 8.890350 -52.325647
16375 91 2 -86.055204 7.548804 -47.968878
16376 92 2 72.890597 24.298965 -15.709500
16377 92 3 72.732500 24.080688 -18.697369
16378 92 2 70.208904 23.675405 -14.517991
16379 92 2 73.697577 27.087286 -14.951839
16380 92 2 74.923405 22.352483 -14.670802
16381 93 2 49.455322 -48.859401 25.465565
16382 93 2 49.432123 -47.718611 22.691028
16383 93 3 51.467274 -51.079552 25.617157
16384 93 2 46.732660 -49.930157 26.129336
16385 93 2 50.189233 -46.709283 27.424741
16386 94 2 -50.406193 4.614405 1.498846
16387 94 2 -50.885401 1.653658 1.432994
16388 94 2 -50.338345 5.553326 4.347323
16389 94 3 -52.617241 6.018073 0.035637
16390 94 2 -47.783785 5.232562 0.179430
16391 95 2 -92.077973 -10.697489 -43.578413
16392 95 3 -90.447363 -12.523521 -41.844424
16393 95 2 -94.988254 -11.046524 -42.939319
16394 95 2 -91.600311 -11.367556 -46.463348
16395 95 2 -91.275965 -7.852354 -43.066562
16396 96 2 -39.092647 84.858021 -50.201870
16397 96 3 -36.349646 83.679313 -49.907604
16398 96 2 -40.252959 84.042975 -52.845612
16399 96 2 -38.915185 87.849744 -50.067327
16400 96 2 -40.852797 83.860053 -47.986936
16401 97 2 -10.495094 -36.257354 -3.782853
16402 97 2 -13.004777 -34.799566 -3.023678
16403 97 2 -11.193554 -38.643220 -5.462078
16404 97 2 -9.074813 -37.162957 -1.300377
16405 97 3 -8.707233 -34.423674 -5.345277
16406 98 2 -58.376881 41.979924 -17.602365
16407 98 2 -59.489736 43.340922 -15.171473
16408 98 2 -60.632447 41.036042 -19.340614
16409 98 3 -56.713247 39.630130 -16.759280
16410 98 2 -56.672094 43.912600 -19.138094
16411 99 2 -26.439734 -39.996849 -94.684651
16412 99 2 -23.615104 -41.007440 -94.671318
16413 99 2 -27.415390 -39.718030 -91.861469
16414 99 3 -28.188906 -41.936742 -96.160188
16415 99 2 -26.539534 -37.325186 -96.045627
16416 100 2 46.664287 -71.048444 -17.555640
16417 100 3 45.365848 -72.689030 -15.405633
16418 100 2 47.234459 -68.296285 -16.506581
16419 100 2 44.823452 -70.857135 -19.916726
16420 100 2 49.233390 -72.351325 -18.393622
16421 101 2 -50.274948 53.231560 -37.962352
16422 101 2 -51.499085 55.959315 -37.715694
16423 101 2 -50.321528 52.370683 -40.835803
16424 101 2 -51.840947 51.279390 -36.308061
16425 101 3 -47.438231 53.316852 -36.989849
16426 102 2 -2.020763 -20.393333 54.163274
16427 102 2 -0.365124 -22.880933 53.897371
16428 102 3 -0.317317 -17.992022 53.587096
16429 102 2 -3.102223 -20.205564 56.955260
16430 102 2 -4.298387 -20.494812 52.213370
16431 103 2 64.939547 16.692441 60.705929
16432 103 3 63.377796 14.142471 60.463881
16433 103 2 66.529531 17.132959 58.200356
16434 103 2 66.800596 16.506459 63.051543
16435 103 2 63.050267 18.987873 61.107935
16436 104 2 -38.288645 -53.525105 -41.228670
16437 104 2 -38.336178 -56.180575 -42.623740
16438 104 2 -39.994651 -53.659328 -38.764623
16439 104 3 -39.354790 -51.409401 -43.069086
16440 104 2 -35.468960 -52.851115 -40.457230
16441 105 2 -69.711080 35.432740 91.386934
16442 105 2 -68.167154 32.880484 91.067124
16443 105 2 -72.535150 34.800738 92.177634
16444 105 2 -69.711923 36.933180 88.789112
16445 105 3 -68.430095 37.116557 93.513865
16446 106 2 -69.431610 -72.329516 29.500107
16447 106 2 -69.170843 -74.686100 31.338181
16448 106 2 -68.511091 -69.850126 30.916181
16449 106 2 -72.301170 -72.009085 28.685891
16450 106 3 -67.743336 -72.772756 27.060174
16451 107 2 26.108664 20.153719 -72.872542
16452 107 3 28.559692 21.744604 -73.551914
16453 107 2 23.677461 21.568012 -73.916107
16454 107 2 25.896863 19.866307 -69.893862
16455 107 2 26.300639 17.435952 -74.128285
16456 108 2 -16.266577 70.560841 -35.617016
16457 108 3 -15.474017 71.633431 -32.929750
16458 108 2 -15.331728 67.722008 -35.876023
16459 108 2 -15.008262 72.228428 -37.770107
16460 108 2 -19.252301 70.659497 -35.892185
16461 109 2 55.144620 74.020327 17.418470
16462 109 2 54.134115 76.833448 17.163077
16463 109 2 55.044895 73.179355 20.296459
16464 109 2 57.974887 73.881136 16.433474
16465 109 3 53.424584 72.187368 15.780869
16466 110 2 9.024622 -65.126805 15.047057
16467 110 2 10.480236 -65.102170 17.670143
16468 110 2 7.248922 -62.715551 14.866099
16469 110 2 7.357528 -67.613306 14.851829
16470 110 3 11.011800 -65.076194 12.800157
16471 111 2 -26.825382 57.666381 -31.261571
16472 111 2 -27.567872 59.672727 -29.158411
16473 111 3 -28.028060 58.478422 -33.887244
16474 111 2 -27.866556 54.964224 -30.477797
16475 111 2 -23.839041 57.550151 -31.522834
16476 112 2 64.649664 3.343143 57.179055
16477 112 2 61.873378 4.032477 58.082964
16478 112 2 66.641233 4.922161 58.772904
16479 112 3 64.947166 4.006021 54.268370
16480 112 2 65.136880 0.411912 57.591981
16481 113 2 54.121995 -4.008017 -0.628082
16482 113 3 55.050704 -1.158122 -0.752978
16483 113 2 51.518683 -4.276602 -2.094583
16484 113 2 53.743132 -4.811648 2.237340
16485 113 2 56.175462 -5.785694 -1.902105
16486 114 2 49.351051 75.724474 77.674430
16487 114 3 47.321453 73.542121 77.330815
16488 114 2 50.148582 76.781296 74.982392
16489 114 2 51.767873 74.630880 79.075509
16490 114 2 48.166294 77.943599 79.309005
16491 115 2 -83.870160 63.999327 63.235397
16492 115 2 -86.006006 62.690819 61.584346
16493 115 3 -81.769159 65.145236 61.426339
16494 115 2 -82.623234 61.963850 65.052540
16495 115 2 -85.082238 66.197402 64.878361
16496 116 2 -71.209002 79.566921 18.048659
16497 116 2 -69.625267 81.500528 19.707859
16498 116 2 -72.131394 80.925347 15.537908
16499 116 3 -73.591781 78.626983 19.610352
16500 116 2 -69.487566 77.214824 17.338518
16501 117 2 -29.343474 -10.978229 -66.199830
16502 117 2 -30.578783 -13.709639 -66.084020
16503 117 2 -28.688512 -10.058267 -63.420497
16504 117 2 -31.275533 -9.059491 -67.459032
16505 117 3 -26.831068 -11.085520 -67.835771
16506 118 2 35.204479 66.876814 30.853665
16507 118 2 37.090555 65.570827 32.786827
16508 118 2 34.026253 69.332834 32.110546
16509 118 3 33.006106 64.959956 30.151659
16510 118 2 36.695002 67.643638 28.365629
16511 119 2 51.085610 -23.216498 45.963440
16512 119 2 50.480494 -22.551577 43.101322
16513 119 2 50.657801 -20.784493 47.667062
16514 119 2 53.938453 -24.113904 46.199976
16515 119 3 49.265693 -25.416019 46.885398
16516 120 2 -44.661283 60.713691 85.457147
16517 120 3 -41.824237 60.767134 84.483331
16518 120 2 -46.523800 61.057030 83.130530
16519 120 2 -45.087923 62.944347 87.417287
16520 120 2 -45.209171 58.086252 86.797439
16521 121 2 -93.748189 -40.332786 29.055008
16522 121 3 -93.706327 -38.781601 26.487505
16523 121 2 -91.372505 -39.572272 30.721665
16524 121 2 -93.646977 -43.269572 28.450817
16525 121 2 -96.266945 -39.707700 30.560044
16526 122 2 33.505703 -36.264016 -20.867974
16527 122 2 33.536040 -39.048773 -21.983414
16528 122 3 34.268876 -36.340133 -17.967668
16529 122 2 30.752911 -35.104721 -21.147565
16530 122 2 35.464983 -34.562438 -22.373247
16531 123 2 4.707768 -88.709848 -24.099058
16532 123 3 2.472371 -86.718805 -23.902201
16533 123 2 5.845694 -88.664605 -26.874500
16534 123 2 3.658706 -91.454326 -23.493001
16535 123 2 6.854299 -88.001654 -22.126531
16536 124 2 -32.644069 76.161775 -86.426833
16537 124 2 -34.219854 74.019979 -87.815938
16538 124 3 -32.511491 78.597523 -88.173129
16539 124 2 -29.866025 75.167262 -85.885158
16540 124 2 -33.978908 76.862335 -83.833105
16541 125 2 92.872125 -6.036007 85.662395
16542 125 3 95.637526 -5.154505 84.903769
16543 125 2 91.935314 -4.457968 88.035616
16544 125 2 92.907324 -8.955167 86.353238
16545 125 2 91.008338 -5.576388 83.356957
16546 126 2 50.535072 58.303864 -27.962619
16547 126 2 51.152571 55.543969 -28.963456
16548 126 2 51.557514 60.330807 -29.923771
16549 126 3 51.863194 58.724528 -25.305717
16550 126 2 47.567009 58.616153 -27.657534
16551 127 2 6.335076 44.425751 -34.224493
16552 127 3 7.719180 47.079124 -34.015044
16553 127 2 5.673896 43.423009 -31.475430
16554 127 2 8.139924 42.462053 -35.597962
16555 127 2 3.807306 44.738817 -35.809537
16556 128 2 -83.408309 10.423005 -5.945267
16557 128 2 -81.186809 9.893770 -3.999799
16558 128 2 -82.399437 12.173069 -8.163251
16559 128 2 -85.667490 11.801557 -4.532575
16560 128 3 -84.379502 7.823624 -7.085443
16561 129 2 -18.945640 40.179073 47.058217
16562 129 2 -16.123161 40.554815 48.002902
16563 129 3 -20.232576 42.859799 46.661351
16564 129 2 -20.487512 38.623240 49.108100
16565 129 2 -18.939313 38.678436 44.460516
16566 130 2 81.300070 -78.141594 -78.368738
16567 130 2 78.960405 -80.010988 -78.545760
16568 130 2 82.157627 -77.348418 -81.131972
16569 130 3 83.572829 -79.513606 -76.971545
16570 130 2 80.509418 -75.693366 -76.825673
16571 131 2 -7.371721 32.170154 -78.276841
16572 131 3 -5.257354 30.044861 -78.389027
16573 131 2 -9.677214 31.380438 -80.026427
16574 131 2 -6.228329 34.770209 -79.242434
16575 131 2 -8.323987 32.485108 -75.449476
16576 132 2 -46.553368 -25.185828 -45.802141
16577 132 2 -48.291072 -23.249037 -44.309082
16578 132 2 -43.981224 -25.578244 -44.308794
16579 132 2 -45.966517 -24.100288 -48.536589
16580 132 3 -47.974658 -27.815743 -46.054098
16581 133 2 68.087386 64.609614 -15.519169
16582 133 2 68.716125 61.683987 -15.306101
16583 133 3 68.013888 65.408718 -18.409848
16584 133 2 70.201955 66.193016 -14.097397
16585 133 2 65.417577 65.152734 -14.263327
16586 134 2 88.204345 61.096565 -22.228110
16587 134 3 89.763657 60.867894 -19.675414
16588 134 2 87.314648 58.368771 -23.104224
16589 134 2 89.937483 62.313550 -24.353005
16590 134 2 85.801593 62.836046 -21.779795
16591 135 2 22.312065 37.233035 -85.001268
16592 135 2 24.135765 39.595456 -84.696171
16593 135 3 22.402812 36.259375 -87.837418
16594 135 2 19.506420 38.039758 -84.310217
16595 135 2 23.203265 35.037551 -83.161264
16596 136 2 -3.802470 22.456648 -44.120591
16597 136 2 -4.639513 22.354551 -46.999642
16598 136 3 -2.664044 19.800410 -43.315366
16599 136 2 -6.184520 23.084228 -42.408289
16600 136 2 -1.721801 24.587404 -43.759067
16601 137 2 -62.538416 -63.779860 -33.162129
16602 137 2 -60.476248 -65.203910 -34.811233
16603 137 3 -61.183605 -62.273519 -30.949568
16604 137 2 -64.439360 -65.783101 -31.990190
16605 137 2 -64.054451 -61.858911 -34.897523
16606 138 2 -25.731404 77.870102 -90.088327
16607 138 2 -26.908608 78.871814 -92.659468
16608 138 3 -22.917639 76.947396 -90.569305
16609 138 2 -27.373623 75.578704 -89.062360
16610 138 2 -25.725745 80.082495 -88.062176
16611 139 2 4.707110 58.274302 62.233797
16612 139 3 4.458873 59.450144 64.982574
16613 139 2 4.367594 60.439710 60.185447
16614 139 2 2.587445 56.187485 61.843655
16615 139 2 7.414531 57.019870 61.923513
16616 140 2 -40.923076 13.238087 -11.241571
16617 140 2 -39.008874 12.454021 -9.068768
16618 140 3 -43.474251 11.690020 -10.933361
16619 140 2 -39.703349 12.633657 -13.914946
16620 140 2 -41.505829 16.174649 -11.049210
16621 141 2 23.697697 7.163481 -61.034061
16622 141 2 21.215896 7.539048 -62.677111
16623 141 3 26.038476 6.694958 -62.850992
16624 141 2 23.348997 4.797999 -59.222183
16625 141 2 24.187417 9.621921 -59.385957
16626 142 2 -42.798508 -45.495346 -46.258125
16627 142 3 -42.646992 -46.202230 -43.346535
16628 142 2 -41.026859 -47.338276 -47.828116
16629 142 2 -41.890728 -42.662693 -46.648010
16630 142 2 -45.629451 -45.778186 -47.209840
16631 143 2 62.496623 16.898023 -42.940996
16632 143 2 61.568229 14.060667 -43.236802
16633 143 2 63.448754 17.350996 -40.132392
16634 143 3 60.222979 18.761627 -43.538929
16635 143 2 64.746528 17.418800 -44.855863
16636 144 2 -31.402177 -77.557398 91.254814
16637 144 2 -30.426755 -74.733154 91.523508
16638 144 2 -34.343038 -77.547546 90.662158
16639 144 2 -30.903409 -79.035675 93.817221
16640 144 3 -29.935508 -78.913217 89.016369
16641 145 2 64.947108 78.572439 46.328237
16642 145 2 62.407159 77.152779 47.058462
16643 145 3 67.090011 77.869245 48.306489
16644 145 2 64.483133 81.536079 46.367800
16645 145 2 65.808126 77.731652 43.580197
16646 146 2 -66.220172 -35.428813 -36.474047
16647 146 2 -66.776975 -37.169545 -34.095009
16648 146 2 -67.197465 -36.792086 -38.961292
16649 146 2 -63.267016 -34.947774 -36.691914
16650 146 3 -67.639233 -32.805849 -36.147974
16651 147 2 31.397249 40.083007 -10.145853
16652 147 2 31.961583 37.237572 -10.910724
16653 147 3 33.508097 41.868874 -11.309896
16654 147 2 31.410128 40.336350 -7.156597
16655 147 2 28.709186 40.889231 -11.206194
16656 148 2 -24.673536 9.511102 -40.361195
16657 148 2 -21.910819 8.832945 -39.408569
16658 148 3 -25.508389 12.152234 -39.209048
16659 148 2 -26.589330 7.381161 -39.470642
16660 148 2 -24.685606 9.678068 -43.356521
16661 149 2 -23.729495 -68.003094 76.450878
16662 149 2 -24.810178 -69.898905 78.509525
16663 149 2 -23.063449 -69.517725 73.948425
16664 149 3 -21.252536 -66.682736 77.509805
16665 149 2 -25.791819 -65.913010 75.835759
16666 150 2 23.893031 9.400923 -19.000966
16667 150 2 25.645714 11.795103 -19.443693
16668 150 2 21.412718 10.234922 -17.533829
16669 150 2 25.377433 7.361522 -17.376959
16670 150 3 23.136261 8.212145 -21.649381
16671 151 2 -75.602582 6.925961 -72.719799
16672 151 2 -73.530979 8.175052 -70.945472
16673 151 2 -76.033356 8.660928 -75.129016
16674 151 2 -78.180372 6.654049 -71.209480
16675 151 3 -74.665621 4.213817 -73.595227
16676 152 2 -82.111210 49.374038 30.687675
16677 152 2 -84.446360 47.500395 30.878824
16678 152 2 -81.802951 50.301651 27.851390
16679 152 2 -79.614877 47.952123 31.551668
16680 152 3 -82.580651 51.741981 32.468818
16681 153 2 -22.272174 -19.120911 -70.210077
16682 153 2 -24.074901 -17.428140 -71.908519
16683 153 2 -21.937001 -17.836739 -67.519620
16684 153 2 -19.594049 -19.373596 -71.538157
16685 153 3 -23.482745 -21.845168 -69.874013
16686 154 2 20.814033 72.423786 -63.225344
16687 154 2 18.069239 71.263157 -63.570378
16688 154 3 21.714790 72.035544 -60.390225
16689 154 2 20.747490 75.354921 -63.860968
16690 154 2 22.724613 71.041521 -65.079806
16691 155 2 35.576946 18.357876 -78.529987
16692 155 2 34.843371 15.553452 -77.757281
16693 155 3 35.457522 18.636490 -81.514633
16694 155 2 38.357570 18.962099 -77.579700
16695 155 2 33.649322 20.279463 -77.268335
16696 156 2 -84.662267 -6.578417 -82.457411
16697 156 2 -87.659442 -6.458633 -82.406447
16698 156 2 -83.738283 -7.332894 -85.210049
16699 156 3 -83.709755 -8.629086 -80.485743
16700 156 2 -83.541589 -3.893055 -81.727404
16701 157 2 25.668724 -30.613414 23.174938
16702 157 2 25.457586 -27.646444 22.784416
16703 157 2 26.971880 -31.848176 20.771368
16704 157 2 22.924881 -31.772927 23.531103
16705 157 3 27.320551 -31.186109 25.612865
16706 158 2 64.545360 31.556999 56.242233
16707 158 2 62.999320 33.541760 57.876395
16708 158 3 67.148300 32.778178 55.385831
16709 158 2 62.950152 30.799730 53.816979
16710 158 2 65.083668 29.108328 57.889726
16711 159 2 -50.686695 15.531285 -5.481502
16712 159 2 -50.846912 13.878531 -2.982956
16713 159 3 -51.457764 13.850260 -7.843621
16714 159 2 -47.881593 16.532778 -5.839851
16715 159 2 -52.560511 17.863573 -5.259580
16716 160 2 90.156322 71.547052 33.035225
16717 160 2 87.580249 72.752049 32.080328
16718 160 3 91.783633 70.665338 30.674201
16719 160 2 89.566365 69.181062 34.782807
16720 160 2 91.695041 73.589759 34.603566
16721 161 2 4.526077 83.250468 67.290267
16722 161 2 5.118078 84.411270 64.588032
16723 161 2 6.544740 81.125390 67.929833
16724 161 3 1.777355 82.048612 67.281992
16725 161 2 4.664136 85.416600 69.361212
16726 162 2 -67.469659 40.098975 48.562988
16727 162 2 -70.299038 40.882368 49.180166
16728 162 3 -66.926431 37.362494 49.665972
16729 162 2 -65.589606 42.073189 49.815138
16730 162 2 -67.063561 40.077850 45.590676
16731 163 2 -76.044157 -95.071357 -3.663517
16732 163 3 -74.844168 -94.467879 -0.981010
16733 163 2 -77.078748 -97.887229 -3.685581
16734 163 2 -73.950166 -94.758675 -5.788941
16735 163 2 -78.303548 -93.171643 -4.198534
16736 164 2 36.369278 28.460456 87.558558
16737 164 2 35.944249 28.941155 84.627982
16738 164 3 36.860589 31.077603 88.940279
16739 164 2 38.741939 26.665421 87.943697
16740 164 2 33.930335 27.157644 88.722275
16741 165 2 -31.976162 20.742128 -53.219485
16742 165 3 -29.686585 19.013853 -54.097495
16743 165 2 -33.730318 21.351149 -55.575759
16744 165 2 -30.913942 23.303728 -52.074979
16745 165 2 -33.573804 19.299781 -51.129706
16746 166 2 -54.833591 10.080653 41.966025
16747 166 2 -52.536277 10.590053 43.826901
16748 166 2 -57.189052 11.736573 42.808482
16749 166 3 -55.570175 7.173968 42.058899
16750 166 2 -54.038861 10.822019 39.169817
16751 167 2 62.529631 -10.716315 -27.413844
16752 167 2 64.917890 -12.476845 -27.857409
16753 167 3 62.315912 -10.036413 -24.499730
16754 167 2 60.048404 -12.157716 -28.288989
16755 167 2 62.836316 -8.194286 -29.009248
16756 168 2 55.298057 -27.988021 -1.501100
16757 168 2 54.185965 -25.202076 -1.543062
16758 168 3 55.533136 -28.928253 1.338037
16759 168 2 58.008503 -28.002267 -2.786900
16760 168 2 53.464625 -29.819487 -3.012476
16761 169 2 92.637002 35.365718 3.387820
16762 169 2 91.825643 33.136261 1.551733
16763 169 3 90.225753 36.378351 4.857667
16764 169 2 93.839058 37.596438 1.781909
16765 169 2 94.657556 34.351823 5.359972
16766 170 2 -29.260892 49.152361 -87.010210
16767 170 2 -26.953380 49.287189 -85.097827
16768 170 2 -28.222607 48.937696 -89.816610
16769 170 3 -30.924514 51.634875 -86.746605
16770 170 2 -30.943068 46.749682 -86.379797
16771 171 2 69.583675 38.065065 81.326707
16772 171 2 67.153301 38.547834 79.635490
16773 171 2 68.763376 36.790100 83.915447
16774 171 3 70.947333 40.677874 81.886767
16775 171 2 71.470690 36.244453 79.869125
16776 172 2 82.606643 -93.847991 -19.642639
16777 172 2 84.203194 -92.861241 -21.983013
16778 172 2 84.226168 -95.846146 -18.098452
16779 172 3 80.088497 -95.148144 -20.626786
16780 172 2 81.908712 -91.536432 -17.862305
16781 173 2 -42.391457 43.439924 -8.816196
16782 173 2 -40.362169 45.568158 -8.222389
16783 173 2 -43.773781 42.639809 -6.276709
16784 173 3 -41.017604 41.051265 -10.002299
16785 173 2 -44.412273 44.500463 -10.763389
16786 174 2 17.679383 -42.874060 1.433715
16787 174 2 20.217839 -43.664204 2.823647
16788 174 2 17.897922 -40.034638 0.490359
16789 174 2 15.376773 -43.119732 3.340973
16790 174 3 17.224997 -44.677667 -0.920119
16791 175 2 -44.632218 -38.773700 72.866818
16792 175 3 -44.457552 -41.703974 73.485676
16793 175 2 -44.931398 -37.228367 75.420724
16794 175 2 -47.006375 -38.263451 71.105278
16795 175 2 -42.133546 -37.899009 71.455593
16796 176 2 -73.651348 -40.342512 25.376109
16797 176 2 -74.380553 -43.117770 24.500780
16798 176 3 -71.803045 -40.491006 27.734440
16799 176 2 -76.137791 -38.851239 26.146632
16800 176 2 -72.284002 -38.910033 23.122586

Bonds

1 1 1 2
2 1 2 3
3 1 3 4
4 1 4 5
5 1 5 6
6 1 6 7
7 1 7 8
8 1 8 9
9 1 9 10
10 1 10 11
11 1 11 12
12 1 12 13
13 1 13 14
14 1 14 15
15 1 15 16
16 1 16 17
17 1 17 18
18 1 18 19
19 1 19 20
20 1 20 21
21 1 21 22
22 1 22 23
23 1 23 24
24 1 24 25
25 1 25 26
26 1 26 27
27 1 27 28
28 1 28 29
29 1 29 30
30 1 30 31
31 1 31 32
32 1 32 33
33 1 33 34
34 1 34 35
35 1 35 36
36 1 36 37
37 1 37 38
38 1 38 39
39 1 39 40
40 1 40 41
41 1 41 42
42 1 42 43
43 1 43 44
44 1 44 45
45 1 45 46
46 1 46 47
47 1 47 48
48 1 48 49
49 1 49 50
50 1 50 51
51 1 51 52
52 1 52 53
53 1 53 54
54 1 54 55
55 1 55 56
56 1 56 57
57 1 57 58
58 1 58 59
59 1 59 60
60 1 60 61
61 1 61 62
62 1 62 63
63 1 63 64
64 1 64 65
65 1 65 66
66 1 66 67
67 1 67 68
68 1 68 69
69 1 69 70
70 1 70 71
71 1 71 72
72 1 72 73
73 1 73 74
74 1 74 75
75 1 75 76
76 1 76 77
77 1 77 78
78 1 78 79
79 1 79 80
80 1 80 81
81 1 81 82
82 1 82 83
83 1 83 84
84 1 84 85
85 1 85 86
86 1 86 87
87 1 87 88
88 1 88 89
89 1 89 90
90 1 90 91
91 1 91 92
92 1 92 93
93 1 93 94
94 1 94 95
95 1 95 96
96 1 96 97
97 1 97 98
98 1 98 99
99 1 99 100
100 1 100 101
101 1 101 102
102 1 102 103
103 1 103 104
104 1 104 105
105 1 105 106
106 1 106 107
107 1 107 108
108 1 108 109
109 1 109 110
110 1 110 111
111 1 111 112
112 1 112 113
113 1 113 114
114 1 114 115
115 1 115 116
116 1 116 117
117 1 117 118
118 1 118 119
119 1 119 120
120 1 120 121
121 1 121 122
122 1 122 123
123 1 123 124
124 1 124 125
125 1 125 126
126 1 126 127
127 1 127 128
128 1 128 129
129 1 129 130
130 1 130 131
131 1 131 132
132 1 132 133
133 1 133 134
134 1 134 135
135 1 135 136
136 1 136 137
137 1 137 138
138 1 138 139
139 1 139 140
140 1 140 141
141 1 141 142
142 1 142 143
143 1 143 144
144 1 144 145
145 1 145 146
146 1 146 147
147 1 147 148
148 1 148 149
149 1 149 150
150 1 150 151
151 1 151 152
152 1 152 153
153 1 153 154
154 1 154 155
155 1 155 156
156 1 156 157
157 1 157 158
158 1 158 159
159 1 159 160
160 1 160 161
161 1 161 162
162 1 162 163
163 1 163 164
164 1 164 165
165 1 165 166
166 1 166 167
167 1 167 168
168 1 168 169
169 1 169 170
170 1 170 171
171 1 171 172
172 1 172 173
173 1 173 174
174 1 174 175
175 1 175 176
176 1 176 177
177 1 177 178
178 1 178 179
179 1 179 180
180 1 180 181
181 1 181 182
182 1 182 183
183 1 183 184
184 1 184 185
185 1 185 186
186 1 186 187
187 1 187 188
188 1 188 189
189 1 189 190
190 1 190 191
191 1 191 192
192 1 192 193
193 1 193 194
194 1 194 195
195 1 195 196
196 1 196 197
197 1 197 198
198 1 198 199
199 1 199 200
200 1 200 201
201 1 201 202
202 1 202 203
203 1 203 204
204 1 204 205
205 1 205 206
206 1 206 207
207 1 207 208
208 1 208 209
209 1 209 210
210 1 210 211
211 1 211 212
212 1 212 213
213 1 213 214
214 1 214 215
215 1 215 216
216 1 216 217
217 1 217 218
218 1 218 219
219 1 219 220
220 1 220 221
221 1 221 222
222 1 222 223
223 1 223 224
224 1 224 225
225 1 225 226
226 1 226 227
227 1 227 228
228 1 228 229
229 1 229 230
230 1 230 231
231 1 231 232
232 1 232 233
233 1 233 234
234 1 234 235
235 1 235 236
236 1 236 237
237 1 237 238
238 1 238 239
239 1 239 240
240 1 240 241
241 1 241 242
242 1 242 243
243 1 243 244
244 1 244 245
245 1 245 246
246 1 246 247
247 1 247 248
248 1 248 249
249 1 249 250
250 1 250 251
251 1 251 252
252 1 252 253
253 1 253 254
254 1 254 255
255 1 255 256
256 1 256 257
257 1 257 258
258 1 258 259
259 1 259 260
260 1 260 261
261 1 261 262
262 1 262 263
263 1 263 264
264 1 264 265
265 1 265 266
266 1 266 267
267 1 267 268
268 1 268 269
269 1 269 270
270 1 270 271
271 1 271 272
272 1 272 273
273 1 273 274
274 1 274 275
275 1 275 276
276 1 276 277
277 1 277 278
278 1 278 279
279 1 279 280
280 1 280 281
281 1 281 282
282 1 282 283
283 1 283 284
284 1 284 285
285 1 285 286
286 1 286 287
287 1 287 288
288 1 288 289
289 1 289 290
290 1 290 291
291 1 291 292
292 1 292 293
293 1 293 294
294 1 294 295
295 1 295 296
296 1 296 297
297 1 297 298
298 1 298 299
299 1 299 300
300 1 300 301
301 1 301 302
302 1 302 303
303 1 303 304
304 1 304 305
305 1 305 306
306 1 306 307
307 1 307 308
308 1 308 309
309 1 309 310
310 1 310 311
311 1 311 312
312 1 312 313
313 1 313 314
314 1 314 315
315 1 315 316
316 1 316 317
317 1 317 318
318 1 318 319
319 1 319 320
320 1 320 321
321 1 321 322
322 1 322 323
323 1 323 324
324 1 324 325
325 1 325 326
326 1 326 327
327 1 327 328
328 1 328 329
329 1 329 330
330 1 330 331
331 1 331 332
332 1 332 333
333 1 333 334
334 1 334 335
335 1 335 336
336 1 336 337
337 1 337 338
338 1 338 339
339 1 339 340
340 1 340 341
341 1 341 342
342 1 342 343
343 1 343 344
344 1 344 345
345 1 345 346
346 1 346 347
347 1 347 348
348 1 348 349
349 1 349 350
350 1 350 351
351 1 351 352
352 1 352 353
353 1 353 354
354 1 354 355
355 1 355 356
356 1 356 357
357 1 357 358
358 1 358 359
359 1 359 360
360 1 360 361
361 1 361 362
362 1 362 363
363 1 363 364
364 1 364 365
365 1 365 366
366 1 366 367
367 1 367 368
368 1 368 369
369 1 369 370
370 1 370 371
371 1 371 372
372 1 372 373
373 1 373 374
374 1 374 375
375 1 375 376
376 1 376 377
377 1 377 378
378 1 378 379
379 1 379 380
380 1 380 381
381 1 381 382
382 1 382 383
383 1 383 384
384 1 384 385
385 1 385 386
386 1 386 387
387 1 387 388
388 1 388 389
389 1 389 390
390 1 390 391
391 1 391 392
392 1 392 393
393 1 393 394
394 1 394 395
395 1 395 396
396 1 396 397
397 1 397 398
398 1 398 399
399 1 399 400
400 1 400 401
401 1 401 402
402 1 402 403
403 1 403 404
404 1 404 405
405 1 405 406
406 1 406 407
407 1 407 408
408 1 408 409
409 1 409 410
410 1 410 411
411 1 411 412
412 1 412 413
413 1 413 414
414 1 414 415
415 1 415 416
416 1 416 417
417 1 417 418
418 1 418 419
419 1 419 420
420 1 420 421
421 1 421 422
422 1 422 423
423 1 423 424
424 1 424 425
425 1 425 426
426 1 426 427
427 1 427 428
428 1 428 429
429 1 429 430
430 1 430 431
431 1 431 432
432 1 432 433
433 1 433 434
434 1 434 435
435 1 435 436
436 1 436 437
437 1 437 438
438 1 438 439
439 1 439 440
440 1 440 441
441 1 441 442
442 1 442 443
443 1 443 444
444 1 444 445
445 1 445 446
446 1 446 447
447 1 447 448
448 1 448 449
449 1 449 450
450 1 450 451
451 1 451 452
452 1 452 453
453 1 453 454
454 1 454 455
455 1 455 456
456 1 456 457
457 1 457 458
458 1 458 459
459 1 459 460
460 1 460 461
461 1 461 462
462 1 462 463
463 1 463 464
464 1 464 465
465 1 465 466
466 1 466 467
467 1 467 468
468 1 468 469
469 1 469 470
470 1 470 471
471 1 471 472
472 1 472 473
473 1 473 474
474 1 474 475
475 1 475 476
476 1 476 477
477 1 477 478
478 1 478 479
479 1 479 480
480 1 480 481
481 1 481 482
482 1 482 483
483 1 483 484
484 1 484 485
485 1 485 486
486 1 486 487
487 1 487 488
488 1 488 489
489 1 489 490
490 1 490 491
491 1 491 492
492 1 492 493
493 1 493 494
494 1 494 495
495 1 495 496
496 1 496 497
497 1 497 498
498 1 498 499
499 1 499 500
500 1 500 501
501 1 501 502
502 1 502 503
503 1 503 504
504 1 504 505
505 1 505 506
506 1 506 507
507 1 507 508
508 1 508 509
509 1 509 510
510 1 510 511
511 1 511 512
512 1 512 513
513 1 513 514
514 1 514 515
515 1 515 516
516 1 516 517
517 1 517 518
518 1 518 519
519 1 519 520
520 1 520 521
521 1 521 522
522 1 522 523
523 1 523 524
524 1 524 525
525 1 525 526
526 1 526 527
527 1 527 528
528 1 528 529
529 1 529 530
530 1 530 531
531 1 531 532
532 1 532 533
533 1 533 534
534 1 534 535
535 1 535 536
536 1 536 537
537 1 537 538
538 1 538 539
539 1 539 540
540 1 540 541
541 1 541 542
542 1 542 543
543 1 543 544
544 1 544 545
545 1 545 546
546 1 546 547
547 1 547 548
548 1 548 549
549 1 549 550
550 1 550 551
551 1 551 552
552 1 552 553
553 1 553 554
554 1 554 555
555 1 555 556
556 1 556 557
557 1 557 558
558 1 558 559
559 1 559 560
560 1 560 561
561 1 561 562
562 1 562 563
563 1 563 564
564 1 564 565
565 1 565 566
566 1 566 567
567 1 567 568
568 1 568 569
569 1 569 570
570 1 570 571
571 1 571 572
572 1 572 573
573 1 573 574
574 1 574 575
575 1 575 576
576 1 576 577
577 1 577 578
578 1 578 579
579 1 579 580
580 1 580 581
581 1 581 582
582 1 582 583
583 1 583 584
584 1 584 585
585 1 585 586
586 1 586 587
587 1 587 588
588 1 588 589
589 1 589 590
590 1 590 591
591 1 591 592
592 1 592 593
593 1 593 594
594 1 594 595
595 1 595 596
596 1 596 597
597 1 597 598
598 1 598 599
599 1 599 600
600 1 600 601
601 1 601 602
602 1 602 603
603 1 603 604
604 1 604 605
605 1 605 606
606 1 606 607
607 1 607 608
608 1 608 609
609 1 609 610
610 1 610 611
611 1 611 612
612 1 612 613
613 1 613 614
614 1 614 615
615 1 615 616
616 1 616 617
617 1 617 618
618 1 618 619
619 1 619 620
620 1 620 621
621 1 621 622
622 1 622 623
623 1 623 624
624 1 624 625
625 1 625 626
626 1 626 627
627 1 627 628
628 1 628 629
629 1 629 630
630 1 630 631
631 1 631 632
632 1 632 633
633 1 633 634
634 1 634 635
635 1 635 636
636 1 636 637
637 1 637 638
638 1 638 639
639 1 639 640
640 1 640 641
641 1 641 642
642 1 642 643
643 1 643 644
644 1 644 645
645 1 645 646
646 1 646 647
647 1 647 648
648 1 648 649
649 1 649 650
650 1 650 651
651 1 651 652
652 1 652 653
653 1 653 654
654 1 654 655
655 1 655 656
656 1 656 657
657 1 657 658
658 1 658 659
659 1 659 660
660 1 660 661
661 1 661 662
662 1 662 663
663 1 663 664
664 1 664 665
665 1 665 666
666 1 666 667
667 1 667 668
668 1 668 669
669 1 669 670
670 1 670 671
671 1 671 672
672 1 672 673
673 1 673 674
674 1 674 675
675 1 675 676
676 1 676 677
677 1 677 678
678 1 678 679
679 1 679 680
680 1 680 681
681 1 681 682
682 1 682 683
683 1 683 684
684 1 684 685
685 1 685 686
686 1 686 687
687 1 687 688
688 1 688 689
689 1 689 690
690 1 690 691
691 1 691 692
692 1 692 693
693 1 693 694
694 1 694 695
695 1 695 696
696 1 696 697
697 1 697 698
698 1 698 699
699 1 699 700
700 1 700 701
701 1 701 702
702 1 702 703
703 1 703 704
704 1 704 705
705 1 705 706
706 1 706 707
707 1 707 708
708 1 708 709
709 1 709 710
710 1 710 711
711 1 711 712
712 1 712 713
713 1 713 714
714 1 714 715
715 1 715 716
716 1 716 717
717 1 717 718
718 1 718 719
719 1 719 720
720 1 720 721
721 1 721 722
722 1 722 723
723 1 723 724
724 1 724 725
725 1 725 726
726 1 726 727
727 1 727 728
728 1 728 729
729 1 729 730
730 1 730 731
731 1 731 732
732 1 732 733
733 1 733 734
734 1 734 735
735 1 735 736
736 1 736 737
737 1 737 738
738 1 738 739
739 1 739 740
740 1 740 741
741 1 741 742
742 1 742 743
743 1 743 744
744 1 744 745
745 1 745 746
746 1 746 747
747 1 747 748
748 1 748 749
749 1 749 750
750 1 750 751
751 1 751 752
752 1 752 753
753 1 753 754
754 1 754 755
755 1 755 756
756 1 756 757
757 1 757 758
758 1 758 759
759 1 759 760
760 1 760 761
761 1 761 762
762 1 762 763
763 1 763 764
764 1 764 765
765 1 765 766
766 1 766 767
767 1 767 768
768 1 768 769
769 1 769 770
770 1 770 771
771 1 771 772
772 1 772 773
773 1 773 774
774 1 774 775
775 1 775 776
776 1 776 777
777 1 777 778
778 1 778 779
779 1 779 780
780 1 780 781
781 1 781 782
782 1 782 783
783 1 783 784
784 1 784 785
785 1 785 786
786 1 786 787
787 1 787 788
788 1 788 789
789 1 789 790
790 1 790 791
791 1 791 792
792 1 792 793
793 1 793 794
794 1 794 795
795 1 795 796
796 1 796 797
797 1 797 798
798 1 798 799
799 1 799 800
800 1 800 801
801 1 801 802
802 1 802 803
803 1 803 804
804 1 804 805
805 1 805 806
806 1 806 807
807 1 807 808
808 1 808 809
809 1 809 810
810 1 810 811
811 1 811 812
812 1 812 813
813 1 813 814
814 1 814 815
815 1 815 816
816 1 816 817
817 1 817 818
818 1 818 819
819 1 819 820
820 1 820 821
821 1 821 822
822 1 822 823
823 1 823 824
824 1 824 825
825 1 825 826
826 1 826 827
827 1 827 828
828 1 828 829
829 1 829 830
830 1 830 831
831 1 831 832
832 1 832 833
833 1 833 834
834 1 834 835
835 1 835 836
836 1 836 837
837 1 837 838
838 1 838 839
839 1 839 840
840 1 840 841
841 1 841 842
842 1 842 843
843 1 843 844
844 1 844 845
845 1 845 846
846 1 846 847
847 1 847 848
848 1 848 849
849 1 849 850
850 1 850 851
851 1 851 852
852 1 852 853
853 1 853 854
854 1 854 855
855 1 855 856
856 1 856 857
857 1 857 858
858 1 858 859
859 1 859 860
860 1 860 861
861 1 861 862
862 1 862 863
863 1 863 864
864 1 864 865
865 1 865 866
866 1 866 867
867 1 867 868
868 1 868 869
869 1 869 870
870 1 870 871
871 1 871 872
872 1 872 873
873 1 873 874
874 1 874 875
875 1 875 876
876 1 876 877
877 1 877 878
878 1 878 879
879 1 879 880
880 1 880 881
881 1 881 882
882 1 882 883
883 1 883 884
884 1 884 885
885 1 885 886
886 1 886 887
887 1 887 888
888 1 888 889
889 1 889 890
890 1 890 891
891 1 891 892
892 1 892 893
893 1 893 894
894 1 894 895
895 1 895 896
896 1 896 897
897 1 897 898
898 1 898 899
899 1 899 900
900 1 900 901
901 1 901 902
902 1 902 903
903 1 903 904
904 1 904 905
905 1 905 906
906 1 906 907
907 1 907 908
908 1 908 909
909 1 909 910
910 1 910 911
911 1 911 912
912 1 912 913
913 1 913 914
914 1 914 915
915 1 915 916
916 1 916 917
917 1 917 918
918 1 918 919
919 1 919 920
920 1 920 921
921 1 921 922
922 1 922 923
923 1 923 924
924 1 924 925
925 1 925 926
926 1 926 927
927 1 927 928
928 1 928 929
929 1 929 930
930 1 930 931
931 1 931 932
932 1 932 933
933 1 933 934
934 1 934 935
935 1 935 936
936 1 936 937
937 1 937 938
938 1 938 939
939 1 939 940
940 1 940 941
941 1 941 942
942 1 942 943
943 1 943 944
944 1 944 945
945 1 945 946
946 1 946 947
947 1 947 948
948 1 948 949
949 1 949 950
950 1 950 951
951 1 951 952
952 1 952 953
953 1 953 954
954 1 954 955
955 1 955 956
956 1 956 957
957 1 957 958
958 1 958 959
959 1 959 960
960 1 960 961
961 1 961 962
962 1 962 963
963 1 963 964
964 1 964 965
965 1 965 966
966 1 966 967
967 1 967 968
968 1 968 969
969 1 969 970
970 1 970 971
971 1 971 972
972 1 972 973
973 1 973 974
974 1 974 975
975 1 975 976
976 1 976 977
977 1 977 978
978 1 978 979
979 1 979 980
980 1 980 981
981 1 981 982
982 1 982 983
983 1 983 984
984 1 984 985
985 1 985 986
986 1 986 987
987 1 987 988
988 1 988 989
989 1 989 990
990 1 990 991
991 1 991 992
992 1 992 993
993 1 993 994
994 1 994 995
995 1 995 996
996 1 996 997
997 1 997 998
998 1 998 999
999 1 999 1000
1000 1 1001 1002
1001 1 1002 1003
1002 1 1003 1004
1003 1 1004 1005
1004 1 1005 1006
1005 1 1006 1007
1006 1 1007 1008
1007 1 1008 1009
1008 1 1009 1010
1009 1 1010 1011
1010 1 1011 1012
1011 1 1012 1013
1012 1 1013 1014
1013 1 1014 1015
1014 1 1015 1016
1015 1 1016 1017
1016 1 1017 1018
1017 1 1018 1019
1018 1 1019 1020
1019 1 1020 1021
1020 1 1021 1022
1021 1 1022 1023
1022 1 1023 1024
1023 1 1024 1025
1024 1 1025 1026
1025 1 1026 1027
1026 1 1027 1028
1027 1 1028 1029
1028 1 1029 1030
1029 1 1030 1031
1030 1 1031 1032
1031 1 1032 1033
1032 1 1033 1034
1033 1 1034 1035
1034 1 1035 1036
1035 1 1036 1037
1036 1 1037 1038
1037 1 1038 1039
1038 1 1039 1040
1039 1 1040 1041
1040 1 1041 1042
1041 1 1042 1043
1042 1 1043 1044
1043 1 1044 1045
1044 1 1045 1046
1045 1 1046 1047
1046 1 1047 1048
1047 1 1048 1049
1048 1 1049 1050
1049 1 1050 1051
1050 1 1051 1052
1051 1 1052 1053
1052 1 1053 1054
1053 1 1054 1055
1054 1 1055 1056
1055 1 1056 1057
1056 1 1057 1058
1057 1 1058 1059
1058 1 1059 1060
1059 1 1060 1061
1060 1 1061 1062
1061 1 1062 1063
1062 1 1063 1064
1063 1 1064 1065
1064 1 1065 1066
1065 1 1066 1067
1066 1 1067 1068
1067 1 1068 1069
1068 1 1069 1070
1069 1 1070 1071
1070 1 1071 1072
1071 1 1072 1073
1072 1 1073 1074
1073 1 1074 1075
1074 1 1075 1076
1075 1 1076 1077
1076 1 1077 1078
1077 1 1078 1079
1078 1 1079 1080
1079 1 1080 1081
1080 1 1081 1082
1081 1 1082 1083
1082 1 1083 1084
1083 1 1084 1085
1084 1 1085 1086
1085 1 1086 1087
1086 1 1087 1088
1087 1 1088 1089
1088 1 1089 1090
1089 1 1090 1091
1090 1 1091 1092
1091 1 1092 1093
1092 1 1093 1094
1093 1 1094 1095
1094 1 1095 1096
1095 1 1096 1097
1096 1 1097 1098
1097 1 1098 1099
1098 1 1099 1100
1099 1 1100 1101
1100 1 1101 1102
1101 1 1102 1103
1102 1 1103 1104
1103 1 1104 1105
1104 1 1105 1106
1105 1 1106 1107
1106 1 1107 1108
1107 1 1108 1109
1108 1 1109 1110
1109 1 1110 1111
1110 1 1111 1112
1111 1 1112 1113
1112 1 1113 1114
1113 1 1114 1115
1114 1 1115 1116
1115 1 1116 1117
1116 1 1117 1118
1117 1 1118 1119
1118 1 1119 1120
1119 1 1120 1121
1120 1 1121 1122
1121 1 1122 1123
1122 1 1123 1124
1123 1 1124 1125
1124 1 1125 1126
1125 1 1126 1127
1126 1 1127 1128
1127 1 1128 1129
1128 1 1129 1130
1129 1 1130 1131
1130 1 1131 1132
1131 1 1132 1133
1132 1 1133 1134
1133 1 1134 1135
1134 1 1135 1136
1135 1 1136 1137
1136 1 1137 1138
1137 1 1138 1139
1138 1 1139 1140
1139 1 1140 1141
1140 1 1141 1142
1141 1 1142 1143
1142 1 1143 1144
1143 1 1144 1145
1144 1 1145 1146
1145 1 1146 1147
1146 1 1147 1148
1147 1 1148 1149
1148 1 1149 1150
1149 1 1150 1151
1150 1 1151 1152
1151 1 1152 1153
1152 1 1153 1154
1153 1 1154 1155
1154 1 1155 1156
1155 1 1156 1157
1156 1 1157 1158
1157 1 1158 1159
1158 1 1159 1160
1159 1 1160 1161
1160 1 1161 1162
1161 1 1162 1163
1162 1 1163 1164
1163 1 1164 1165
1164 1 1165 1166
1165 1 1166 1167
1166 1 1167 1168
1167 1 1168 1169
1168 1 1169 1170
1169 1 1170 1171
1170 1 1171 1172
1171 1 1172 1173
1172 1 1173 1174
1173 1 1174 1175
1174 1 1175 1176
1175 1 1176 1177
1176 1 1177 1178
1177 1 1178 1179
1178 1 1179 1180
1179 1 1180 1181
1180 1 1181 1182
1181 1 1182 1183
1182 1 1183 1184
1183 1 1184 1185
1184 1 1185 1186
1185 1 1186 1187
1186 1 1187 1188
1187 1 1188 1189
1188 1 1189 1190
1189 1 1190 1191
1190 1 1191 1192
1191 1 1192 1193
1192 1 1193 1194
1193 1 1194 1195
1194 1 1195 1196
1195 1 1196 1197
1196 1 1197 1198
1197 1 1198 1199
1198 1 1199 1200
1199 1 1200 1201
1200 1 1201 1202
1201 1 1202 1203
1202 1 1203 1204
1203 1 1204 1205
1204 1 1205 1206
1205 1 1206 1207
1206 1 1207 1208
1207 1 1208 1209
1208 1 1209 1210
1209 1 1210 1211
1210 1 1211 1212
1211 1 1212 1213
1212 1 1213 1214
1213 1 1214 1215
1214 1 1215 1216
1215 1 1216 1217
1216 1 1217 1218
1217 1 1218 1219
1218 1 1219 1220
1219 1 1220 1221
1220 1 1221 1222
1221 1 1222 1223
1222 1 1223 1224
1223 1 1224 1225
1224 1 1225 1226
1225 1 1226 1227
1226 1 1227 1228
1227 1 1228 1229
1228 1 1229 1230
1229 1 1230 1231
1230 1 1231 1232
1231 1 1232 1233
1232 1 1233 1234
1233 1 1234 1235
1234 1 1235 1236
1235 1 1236 1237
1236 1 1237 1238
1237 1 1238 1239
1238 1 1239 1240
1239 1 1240 1241
1240 1 1241 1242
1241 1 1242 1243
1242 1 1243 1244
1243 1 1244 1245
1244 1 1245 1246
1245 1 1246 1247
1246 1 1247 1248
1247 1 1248 1249
1248 1 1249 1250
1249 1 1250 1251
1250 1 1251 1252
1251 1 1252 1253
1252 1 1253 1254
1253 1 1254 1255
1254 1 1255 1256
1255 1 1256 1257
1256 1 1257 1258
1257 1 1258 1259
1258 1 1259 1260
1259 1 1260 1261
1260 1 1261 1262
1261 1 1262 1263
1262 1 1263 1264
1263 1 1264 1265
1264 1 1265 1266
1265 1 1266 1267
1266 1 1267 1268
1267 1 1268 1269
1268 1 1269 1270
1269 1 1270 1271
1270 1 1271 1272
1271 1 1272 1273
1272 1 1273 1274
1273 1 1274 1275
1274 1 1275 1276
1275 1 1276 1277
1276 1 1277 1278
1277 1 1278 1279
1278 1 1279 1280
1279 1 1280 1281
1280 1 1281 1282
1281 1 1282 1283
1282 1 1283 1284
1283 1 1284 1285
1284 1 1285 1286
1285 1 1286 1287
1286 1 1287 1288
1287 1 1288 1289
1288 1 1289 1290
1289 1 1290 1291
1290 1 1291 1292
1291 1 1292 1293
1292 1 1293 1294
1293 1 1294 1295
1294 1 1295 1296
1295 1 1296 1297
1296 1 1297 1298
1297 1 1298 1299
1298 1 1299 1300
1299 1 1300 1301
1300 1 1301 1302
1301 1 1302 1303
1302 1 1303 1304
1303 1 1304 1305
1304 1 1305 1306
1305 1 1306 1307
1306 1 1307 1308
1307 1 1308 1309
1308 1 1309 1310
1309 1 1310 1311
1310 1 1311 1312
1311 1 1312 1313
1312 1 1313 1314
1313 1 1314 1315
1314 1 1315 1316
1315 1 1316 1317
1316 1 1317 1318
1317 1 1318 1319
1318 1 1319 1320
1319 1 1320 1321
1320 1 1321 1322
1321 1 1322 1323
1322 1 1323 1324
1323 1 1324 1325
1324 1 1325 1326
1325 1 1326 1327
1326 1 1327 1328
1327 1 1328 1329
1328 1 1329 1330
1329 1 1330 1331
1330 1 1331 1332
1331 1 1332 1333
1332 1 1333 1334
1333 1 1334 1335
1334 1 1335 1336
1335 1 1336 1337
1336 1 1337 1338
1337 1 1338 1339
1338 1 1339 1340
1339 1 1340 1341
1340 1 1341 1342
1341 1 1342 1343
1342 1 1343 1344
1343 1 1344 1345
1344 1 1345 1346
1345 1 1346 1347
1346 1 1347 1348
1347 1 1348 1349
1348 1 1349 1350
1349 1 1350 1351
1350 1 1351 1352
1351 1 1352 1353
1352 1 1353 1354
1353 1 1354 1355
1354 1 1355 1356
1355 1 1356 1357
1356 1 1357 1358
1357 1 1358 1359
1358 1 1359 1360
1359 1 1360 1361
1360 1 1361 1362
1361 1 1362 1363
1362 1 1363 1364
1363 1 1364 1365
1364 1 1365 1366
1365 1 1366 1367
1366 1 1367 1368
1367 1 1368 1369
1368 1 1369 1370
1369 1 1370 1371
1370 1 1371 1372
1371 1 1372 1373
1372 1 1373 1374
1373 1 1374 1375
1374 1 1375 1376
1375 1 1376 1377
1376 1 1377 1378
1377 1 1378 1379
1378 1 1379 1380
1379 1 1380 1381
1380 1 1381 1382
1381 1 1382 1383
1382 1 1383 1384
1383 1 1384 1385
1384 1 1385 1386
1385 1 1386 1387
1386 1 1387 1388
1387 1 1388 1389
1388 1 1389 1390
1389 1 1390 1391
1390 1 1391 1392
1391 1 1392 1393
1392 1 1393 1394
1393 1 1394 1395
1394 1 1395 1396
1395 1 1396 1397
1396 1 1397 1398
1397 1 1398 1399
1398 1 1399 1400
1399 1 1400 1401
1400 1 1401 1402
1401 1 1402 1403
1402 1 1403 1404
1403 1 1404 1405
1404 1 1405 1406
1405 1 1406 1407
1406 1 1407 1408
1407 1 1408 1409
1408 1 1409 1410
1409 1 1410 1411
1410 1 1411 1412
1411 1 1412 1413
1412 1 1413 1414
1413 1 1414 1415
1414 1 1415 1416
1415 1 1416 1417
1416 1 1417 1418
1417 1 1418 1419
1418 1 1419 1420
1419 1 1420 1421
1420 1 1421 1422
1421 1 1422 1423
1422 1 1423 1424
1423 1 1424 1425
1424 1 1425 1426
1425 1 1426 1427
1426 1 1427 1428
1427 1 1428 1429
1428 1 1429 1430
1429 1 1430 1431
1430 1 1431 1432
1431 1 1432 1433
1432 1 1433 1434
1433 1 1434 1435
1434 1 1435 1436
1435 1 1436 1437
1436 1 1437 1438
1437 1 1438 1439
1438 1 1439 1440
1439 1 1440 1441
1440 1 1441 1442
1441 1 1442 1443
1442 1 1443 1444
1443 1 1444 1445
1444 1 1445 1446
1445 1 1446 1447
1446 1 1447 1448
1447 1 1448 1449
1448 1 1449 1450
1449 1 1450 1451
1450 1 1451 1452
1451 1 1452 1453
1452 1 1453 1454
1453 1 1454 1455
1454 1 1455 1456
1455 1 1456 1457
1456 1 1457 1458
1457 1 1458 1459
1458 1 1459 1460
1459 1 1460 1461
1460 1 1461 1462
1461 1 1462 1463
1462 1 1463 1464
1463 1 1464 1465
1464 1 1465 1466
1465 1 1466 1467
1466 1 1467 1468
1467 1 1468 1469
1468 1 1469 1470
1469 1 1470 1471
1470 1 1471 1472
1471 1 1472 1473
1472 1 1473 1474
1473 1 1474 1475
1474 1 1475 1476
1475 1 1476 1477
1476 1 1477 1478
1477 1 1478 1479
1478 1 1479 1480
1479 1 1480 1481
1480 1 1481 1482
1481 1 1482 1483
1482 1 1483 1484
1483 1 1484 1485
1484 1 1485 1486
1485 1 1486 1487
1486 1 1487 1488
1487 1 1488 1489
1488 1 1489 1490
1489 1 1490 1491
1490 1 1491 1492
1491 1 1492 1493
1492 1 1493 1494
1493 1 1494 1495
1494 1 1495 1496
1495 1 1496 1497
1496 1 1497 1498
1497 1 1498 1499
1498 1 1499 1500
1499 1 1500 1501
1500 1 1501 1502
1501 1 1502 1503
1502 1 1503 1504
1503 1 1504 1505
1504 1 1505 1506
1505 1 1506 1507
1506 1 1507 1508
1507 1 1508 1509
1508 1 1509 1510
1509 1 1510 1511
1510 1 1511 1512
1511 1 1512 1513
1512 1 1513 1514
1513 1 1514 1515
1514 1 1515 1516
1515 1 1516 1517
1516 1 1517 1518
1517 1 1518 1519
1518 1 1519 1520
1519 1 1520 1521
1520 1 1521 1522
1521 1 1522 1523
1522 1 1523 1524
1523 1 1524 1525
1524 1 1525 1526
1525 1 1526 1527
1526 1 1527 1528
1527 1 1528 1529
1528 1 1529 1530
1529 1 1530 1531
1530 1 1531 1532
1531 1 1532 1533
1532 1 1533 1534
1533 1 1534 1535
1534 1 1535 1536
1535 1 1536 1537
1536 1 1537 1538
1537 1 1538 1539
1538 1 1539 1540
1539 1 1540 1541
1540 1 1541 1542
1541 1 1542 1543
1542 1 1543 1544
1543 1 1544 1545
1544 1 1545 1546
1545 1 1546 1547
1546 1 1547 1548
1547 1 1548 1549
1548 1 1549 1550
1549 1 1550 1551
1550 1 1551 1552
1551 1 1552 1553
1552 1 1553 1554
1553 1 1554 1555
1554 1 1555 1556
1555 1 1556 1557
1556 1 1557 1558
1557 1 1558 1559
1558 1 1559 1560
1559 1 1560 1561
1560 1 1561 1562
1561 1 1562 1563
1562 1 1563 1564
1563 1 1564 1565
1564 1 1565 1566
1565 1 1566 1567
1566 1 1567 1568
1567 1 1568 1569
1568 1 1569 1570
1569 1 1570 1571
1570 1 1571 1572
1571 1 1572 1573
1572 1 1573 1574
1573 1 1574 1575
1574 1 1575 1576
1575 1 1576 1577
1576 1 1577 1578
1577 1 1578 1579
1578 1 1579 1580
1579 1 1580 1581
1580 1 1581 1582
1581 1 1582 1583
1582 1 1583 1584
1583 1 1584 1585
1584 1 1585 1586
1585 1 1586 1587
1586 1 1587 1588
1587 1 1588 1589
1588 1 1589 1590
1589 1 1590 1591
1590 1 1591 1592
1591 1 1592 1593
1592 1 1593 1594
1593 1 1594 1595
1594 1 1595 1596
1595 1 1596 1597
1596 1 1597 1598
1597 1 1598 1599
1598 1 1599 1600
1599 1 1600 1601
1600 1 1601 1602
1601 1 1602 1603
1602 1 1603 1604
1603 1 1604 1605
1604 1 1605 1606
1605 1 1606 1607
1606 1 1607 1608
1607 1 1608 1609
1608 1 1609 1610
1609 1 1610 1611
1610 1 1611 1612
1611 1 1612 1613
1612 1 1613 1614
1613 1 1614 1615
1614 1 1615 1616
1615 1 1616 1617
1616 1 1617 1618
1617 1 1618 1619
1618 1 1619 1620
1619 1 1620 1621
1620 1 1621 1622
1621 1 1622 1623
1622 1 1623 1624
1623 1 1624 1625
1624 1 1625 1626
1625 1 1626 1627
1626 1 1627 1628
1627 1 1628 1629
1628 1 1629 1630
1629 1 1630 1631
1630 1 1631 1632
1631 1 1632 1633
1632 1 1633 1634
1633 1 1634 1635
1634 1 1635 1636
1635 1 1636 1637
1636 1 1637 1638
1637 1 1638 1639
1638 1 1639 1640
1639 1 1640 1641
1640 1 1641 1642
1641 1 1642 1643
1642 1 1643 1644
1643 1 1644 1645
1644 1 1645 1646
1645 1 1646 1647
1646 1 1647 1648
1647 1 1648 1649
1648 1 1649 1650
1649 1 1650 1651
1650 1 1651 1652
1651 1 1652 1653
1652 1 1653 1654
1653 1 1654 1655
1654 1 1655 1656
1655 1 1656 1657
1656 1 1657 1658
1657 1 1658 1659
1658 1 1659 1660
1659 1 1660 1661
1660 1 1661 1662
1661 1 1662 1663
1662 1 1663 1664
1663 1 1664 1665
1664 1 1665 1666
1665 1 1666 1667
1666 1 1667 1668
1667 1 1668 1669
1668 1 1669 1670
1669 1 1670 1671
1670 1 1671 1672
1671 1 1672 1673
1672 1 1673 1674
1673 1 1674 1675
1674 1 1675 1676
1675 1 1676 1677
1676 1 1677 1678
1677 1 1678 1679
1678 1 1679 1680
1679 1 1680 1681
1680 1 1681 1682
1681 1 1682 1683
1682 1 1683 1684
1683 1 1684 1685
1684 1 1685 1686
1685 1 1686 1687
1686 1 1687 1688
1687 1 1688 1689
1688 1 1689 1690
1689 1 1690 1691
1690 1 1691 1692
1691 1 1692 1693
1692 1 1693 1694
1693 1 1694 1695
1694 1 1695 1696
1695 1 1696 1697
1696 1 1697 1698
1697 1 1698 1699
1698 1 1699 1700
1699 1 1700 1701
1700 1 1701 1702
1701 1 1702 1703
1702 1 1703 1704
1703 1 1704 1705
1704 1 1705 1706
1705 1 1706 1707
1706 1 1707 1708
1707 1 1708 1709
1708 1 1709 1710
1709 1 1710 1711
1710 1 1711 1712
1711 1 1712 1713
1712 1 1713 1714
1713 1 1714 1715
1714 1 1715 1716
1715 1 1716 1717
1716 1 1717 1718
1717 1 1718 1719
1718 1 1719 1720
1719 1 1720 1721
1720 1 1721 1722
1721 1 1722 1723
1722 1 1723 1724
1723 1 1724 1725
1724 1 1725 1726
1725 1 1726 1727
1726 1 1727 1728
1727 1 1728 1729
1728 1 1729 1730
1729 1 1730 1731
1730 1 1731 1732
1731 1 1732 1733
1732 1 1733 1734
1733 1 1734 1735
1734 1 1735 1736
1735 1 1736 1737
1736 1 1737 1738
1737 1 1738 1739
1738 1 1739 1740
1739 1 1740 1741
1740 1 1741 1742
1741 1 1742 1743
1742 1 1743 1744
1743 1 1744 1745
1744 1 1745 1746
1745 1 1746 1747
1746 1 1747 1748
1747 1 1748 1749
1748 1 1749 1750
1749 1 1750 1751
1750 1 1751 1752
1751 1 1752 1753
1752 1 1753 1754
1753 1 1754 1755
1754 1 1755 1756
1755 1 1756 1757
1756 1 1757 1758
1757 1 1758 1759
1758 1 1759 1760
1759 1 1760 1761
1760 1 1761 1762
1761 1 1762 1763
1762 1 1763 1764
1763 1 1764 1765
1764 1 1765 1766
1765 1 1766 1767
1766 1 1767 1768
1767 1 1768 1769
1768 1 1769 1770
1769 1 1770 1771
1770 1 1771 1772
1771 1 1772 1773
1772 1 1773 1774
1773 1 1774 1775
1774 1 1775 1776
1775 1 1776 1777
1776 1 1777 1778
1777 1 1778 1779
1778 1 1779 1780
1779 1 1780 1781
1780 1 1781 1782
1781 1 1782 1783
1782 1 1783 1784
1783 1 1784 1785
1784 1 1785 1786
1785 1 1786 1787
1786 1 1787 1788
1787 1 1788 1789
1788 1 1789 1790
1789 1 1790 1791
1790 1 1791 1792
1791 1 1792 1793
1792 1 1793 1794
1793 1 1794 1795
1794 1 1795 1796
1795 1 1796 1797
1796 1 1797 1798
1797 1 1798 1799
1798 1 1799 1800
1799 1 1800 1801
1800 1 1801 1802
1801 1 1802 1803
1802 1 1803 1804
1803 1 1804 1805
1804 1 1805 1806
1805 1 1806 1807
1806 1 1807 1808
1807 1 1808 1809
1808 1 1809 1810
1809 1 1810 1811
1810 1 1811 1812
1811 1 1812 1813
1812 1 1813 1814
1813 1 1814 1815
1814 1 1815 1816
1815 1 1816 1817
1816 1 1817 1818
1817 1 1818 1819
1818 1 1819 1820
1819 1 1820 1821
1820 1 1821 1822
1821 1 1822 1823
1822 1 1823 1824
1823 1 1824 1825
1824 1 1825 1826
1825 1 1826 1827
1826 1 1827 1828
1827 1 1828 1829
1828 1 1829 1830
1829 1 1830 1831
1830 1 1831 1832
1831 1 1832 1833
1832 1 1833 1834
1833 1 1834 1835
1834 1 1835 1836
1835 1 1836 1837
1836 1 1837 1838
1837 1 1838 1839
1838 1 1839 1840
1839 1 1840 1841
1840 1 1841 1842
1841 1 1842 1843
1842 1 1843 1844
1843 1 1844 1845
1844 1 1845 1846
1845 1 1846 1847
1846 1 1847 1848
1847 1 1848 1849
1848 1 1849 1850
1849 1 1850 1851
1850 1 1851 1852
1851 1 1852 1853
1852 1 1853 1854
1853 1 1854 1855
1854 1 1855 1856
1855 1 1856 1857
1856 1 1857 1858
1857 1 1858 1859
1858 1 1859 1860
1859 1 1860 1861
1860 1 1861 1862
1861 1 1862 1863
1862 1 1863 1864
1863 1 1864 1865
1864 1 1865 1866
1865 1 1866 1867
1866 1 1867 1868
1867 1 1868 1869
1868 1 1869 1870
1869 1 1870 1871
1870 1 1871 1872
1871 1 1872 1873
1872 1 1873 1874
1873 1 1874 1875
1874 1 1875 1876
1875 1 1876 1877
1876 1 1877 1878
1877 1 1878 1879
1878 1 1879 1880
1879 1 1880 1881
1880 1 1881 1882
1881 1 1882 1883
1882 1 1883 1884
1883 1 1884 1885
1884 1 1885 1886
1885 1 1886 1887
1886 1 1887 1888
1887 1 1888 1889
1888 1 1889 1890
1889 1 1890 1891
1890 1 1891 1892
1891 1 1892 1893
1892 1 1893 1894
1893 1 1894 1895
1894 1 1895 1896
1895 1 1896 1897
1896 1 1897 1898
1897 1 1898 1899
1898 1 1899 1900
1899 1 1900 1901
1900 1 1901 1902
1901 1 1902 1903
1902 1 1903 1904
1903 1 1904 1905
1904 1 1905 1906
1905 1 1906 1907
1906 1 1907 1908
1907 1 1908 1909
1908 1 1909 1910
1909 1 1910 1911
1910 1 1911 1912
1911 1 1912 1913
1912 1 1913 1914
1913 1 1914 1915
1914 1 1915 1916
1915 1 1916 1917
1916 1 1917 1918
1917 1 1918 1919
1918 1 1919 1920
1919 1 1920 1921
1920 1 1921 1922
1921 1 1922 1923
1922 1 1923 1924
1923 1 1924 1925
1924 1 1925 1926
1925 1 1926 1927
1926 1 1927 1928
1927 1 1928 1929
1928 1 1929 1930
1929 1 1930 1931
1930 1 1931 1932
1931 1 1932 1933
1932 1 1933 1934
1933 1 1934 1935
1934 1 1935 1936
1935 1 1936 1937
1936 1 1937 1938
1937 1 1938 1939
1938 1 1939 1940
1939 1 1940 1941
1940 1 1941 1942
1941 1 1942 1943
1942 1 1943 1944
1943 1 1944 1945
1944 1 1945 1946
1945 1 1946 1947
1946 1 1947 1948
1947 1 1948 1949
1948 1 1949 1950
1949 1 1950 1951
1950 1 1951 1952
1951 1 1952 1953
1952 1 1953 1954
1953 1 1954 1955
1954 1 1955 1956
1955 1 1956 1957
1956 1 1957 1958
1957 1 1958 1959
1958 1 1959 1960
1959 1 1960 1961
1960 1 1961 1962
1961 1 1962 1963
1962 1 1963 1964
1963 1 1964 1965
1964 1 1965 1966
1965 1 1966 1967
1966 1 1967 1968
1967 1 1968 1969
1968 1 1969 1970
1969 1 1970 1971
1970 1 1971 1972
1971 1 1972 1973
1972 1 1973 1974
1973 1 1974 1975
1974 1 1975 1976
1975 1 1976 1977
1976 1 1977 1978
1977 1 1978 1979
1978 1 1979 1980
1979 1 1980 1981
1980 1 1981 1982
1981 1 1982 1983
1982 1 1983 1984
1983 1 1984 1985
1984 1 1985 1986
1985 1 1986 1987
1986 1 1987 1988
1987 1 1988 1989
1988 1 1989 1990
1989 1 1990 1991
1990 1 1991 1992
1991 1 1992 1993
1992 1 1993 1994
1993 1 1994 1995
1994 1 1995 1996
1995 1 1996 1997
1996 1 1997 1998
1997 1 1998 1999
1998 1 1999 2000
1999 1 2001 2002
2000 1 2002 2003
2001 1 2003 2004
2002 1 2004 2005
2003 1 2005 2006
2004 1 2006 2007
2005 1 2007 2008
2006 1 2008 2009
2007 1 2009 2010
2008 1 2010 2011
2009 1 2011 2012
2010 1 2012 2013
2011 1 2013 2014
2012 1 2014 2015
2013 1 2015 2016
2014 1 2016 2017
2015 1 2017 2018
2016 1 2018 2019
2017 1 2019 2020
2018 1 2020 2021
2019 1 2021 2022
2020 1 2022 2023
2021 1 2023 2024
2022 1 2024 2025
2023 1 2025 2026
2024 1 2026 2027
2025 1 2027 2028
2026 1 2028 2029
2027 1 2029 2030
2028 1 2030 2031
2029 1 2031 2032
2030 1 2032 2033
2031 1 2033 2034
2032 1 2034 2035
2033 1 2035 2036
2034 1 2036 2037
2035 1 2037 2038
2036 1 2038 2039
2037 1 2039 2040
2038 1 2040 2041
2039 1 2041 2042
2040 1 2042 2043
2041 1 2043 2044
2042 1 2044 2045
2043 1 2045 2046
2044 1 2046 2047
2045 1 2047 2048
2046 1 2048 2049
2047 1 2049 2050
2048 1 2050 2051
2049 1 2051 2052
2050 1 2052 2053
2051 1 2053 2054
2052 1 2054 2055
2053 1 2055 2056
2054 1 2056 2057
2055 1 2057 2058
2056 1 2058 2059
2057 1 2059 2060
2058 1 2060 2061
2059 1 2061 2062
2060 1 2062 2063
2061 1 2063 2064
2062 1 2064 2065
2063 1 2065 2066
2064 1 2066 2067
2065 1 2067 2068
2066 1 2068 2069
2067 1 2069 2070
2068 1 2070 2071
2069 1 2071 2072
2070 1 2072 2073
2071 1 2073 2074
2072 1 2074 2075
2073 1 2075 2076
2074 1 2076 2077
2075 1 2077 2078
2076 1 2078 2079
2077 1 2079 2080
2078 1 2080 2081
2079 1 2081 2082
2080 1 2082 2083
2081 1 2083 2084
2082 1 2084 2085
2083 1 2085 2086
2084 1 2086 2087
2085 1 2087 2088
2086 1 2088 2089
2087 1 2089 2090
2088 1 2090 2091
2089 1 2091 2092
2090 1 2092 2093
2091 1 2093 2094
2092 1 2094 2095
2093 1 2095 2096
2094 1 2096 2097
2095 1 2097 2098
2096 1 2098 2099
2097 1 2099 2100
2098 1 2100 2101
2099 1 2101 2102
2100 1 2102 2103
2101 1 2103 2104
2102 1 2104 2105
2103 1 2105 2106
2104 1 2106 2107
2105 1 2107 2108
2106 1 2108 2109
2107 1 2109 2110
2108 1 2110 2111
2109 1 2111 2112
2110 1 2112 2113
2111 1 2113 2114
2112 1 2114 2115
2113 1 2115 2116
2114 1 2116 2117
2115 1 2117 2118
2116 1 2118 2119
2117 1 2119 2120
2118 1 2120 2121
2119 1 2121 2122
2120 1 2122 2123
2121 1 2123 2124
2122 1 2124 2125
2123 1 2125 2126
2124 1 2126 2127
2125 1 2127 2128
2126 1 2128 2129
2127 1 2129 2130
2128 1 2130 2131
2129 1 2131 2132
2130 1 2132 2133
2131 1 2133 2134
2132 1 2134 2135
2133 1 2135 2136
2134 1 2136 2137
2135 1 2137 2138
2136 1 2138 2139
2137 1 2139 2140
2138 1 2140 2141
2139 1 2141 2142
2140 1 2142 2143
2141 1 2143 2144
2142 1 2144 2145
2143 1 2145 2146
2144 1 2146 2147
2145 1 2147 2148
2146 1 2148 2149
2147 1 2149 2150
2148 1 2150 2151
2149 1 2151 2152
2150 1 2152 2153
2151 1 2153 2154
2152 1 2154 2155
2153 1 2155 2156
2154 1 2156 2157
2155 1 2157 2158
2156 1 2158 2159
2157 1 2159 2160
2158 1 2160 2161
2159 1 2161 2162
2160 1 2162 2163
2161 1 2163 2164
2162 1 2164 2165
2163 1 2165 2166
2164 1 2166 2167
2165 1 2167 2168
2166 1 2168 2169
2167 1 2169 2170
2168 1 2170 2171
2169 1 2171 2172
2170 1 2172 2173
2171 1 2173 2174
2172 1 2174 2175
2173 1 2175 2176
2174 1 2176 2177
2175 1 2177 2178
2176 1 2178 2179
2177 1 2179 2180
2178 1 2180 2181
2179 1 2181 2182
2180 1 2182 2183
2181 1 2183 2184
2182 1 2184 2185
2183 1 2185 2186
2184 1 2186 2187
2185 1 2187 2188
2186 1 2188 2189
2187 1 2189 2190
2188 1 2190 2191
2189 1 2191 2192
2190 1 2192 2193
2191 1 2193 2194
2192 1 2194 2195
2193 1 2195 2196
2194 1 2196 2197
2195 1 2197 2198
2196 1 2198 2199
2197 1 2199 2200
2198 1 2200 2201
2199 1 2201 2202
2200 1 2202 2203
2201 1 2203 2204
2202 1 2204 2205
2203 1 2205 2206
2204 1 2206 2207
2205 1 2207 2208
2206 1 2208 2209
2207 1 2209 2210
2208 1 2210 2211
2209 1 2211 2212
2210 1 2212 2213
2211 1 2213 2214
2212 1 2214 2215
2213 1 2215 2216
2214 1 2216 2217
2215 1 2217 2218
2216 1 2218 2219
2217 1 2219 2220
2218 1 2220 2221
2219 1 2221 2222
2220 1 2222 2223
2221 1 2223 2224
2222 1 2224 2225
2223 1 2225 2226
2224 1 2226 2227
2225 1 2227 2228
2226 1 2228 2229
2227 1 2229 2230
2228 1 2230 2231
2229 1 2231 2232
2230 1 2232 2233
2231 1 2233 2234
2232 1 2234 2235
2233 1 2235 2236
2234 1 2236 2237
2235 1 2237 2238
2236 1 2238 2239
2237 1 2239 2240
2238 1 2240 2241
2239 1 2241 2242
2240 1 2242 2243
2241 1 2243 2244
2242 1 2244 2245
2243 1 2245 2246
2244 1 2246 2247
2245 1 2247 2248
2246 1 2248 2249
2247 1 2249 2250
2248 1 2250 2251
2249 1 2251 2252
2250 1 2252 2253
2251 1 2253 2254
2252 1 2254 2255
2253 1 2255 2256
2254 1 2256 2257
2255 1 2257 2258
2256 1 2258 2259
2257 1 2259 2260
2258 1 2260 2261
2259 1 2261 2262
2260 1 2262 2263
2261 1 2263 2264
2262 1 2264 2265
2263 1 2265 2266
2264 1 2266 2267
2265 1 2267 2268
2266 1 2268 2269
2267 1 2269 2270
2268 1 2270 2271
2269 1 2271 2272
2270 1 2272 2273
2271 1 2273 2274
2272 1 2274 2275
2273 1 2275 2276
2274 1 2276 2277
2275 1 2277 2278
2276 1 2278 2279
2277 1 2279 2280
2278 1 2280 2281
2279 1 2281 2282
2280 1 2282 2283
2281 1 2283 2284
2282 1 2284 2285
2283 1 2285 2286
2284 1 2286 2287
2285 1 2287 2288
2286 1 2288 2289
2287 1 2289 2290
2288 1 2290 2291
2289 1 2291 2292
2290 1 2292 2293
2291 1 2293 2294
2292 1 2294 2295
2293 1 2295 2296
2294 1 2296 2297
2295 1 2297 2298
2296 1 2298 2299
2297 1 2299 2300
2298 1 2300 2301
2299 1 2301 2302
2300 1 2302 2303
2301 1 2303 2304
2302 1 2304 2305
2303 1 2305 2306
2304 1 2306 2307
2305 1 2307 2308
2306 1 2308 2309
2307 1 2309 2310
2308 1 2310 2311
2309 1 2311 2312
2310 1 2312 2313
2311 1 2313 2314
2312 1 2314 2315
2313 1 2315 2316
2314 1 2316 2317
2315 1 2317 2318
2316 1 2318 2319
2317 1 2319 2320
2318 1 2320 2321
2319 1 2321 2322
2320 1 2322 2323
2321 1 2323 2324
2322 1 2324 2325
2323 1 2325 2326
2324 1 2326 2327
2325 1 2327 2328
2326 1 2328 2329
2327 1 2329 2330
2328 1 2330 2331
2329 1 2331 2332
2330 1 2332 2333
2331 1 2333 2334
2332 1 2334 2335
2333 1 2335 2336
2334 1 2336 2337
2335 1 2337 2338
2336 1 2338 2339
2337 1 2339 2340
2338 1 2340 2341
2339 1 2341 2342
2340 1 2342 2343
2341 1 2343 2344
2342 1 2344 2345
2343 1 2345 2346
2344 1 2346 2347
2345 1 2347 2348
2346 1 2348 2349
2347 1 2349 2350
2348 1 2350 2351
2349 1 2351 2352
2350 1 2352 2353
2351 1 2353 2354
2352 1 2354 2355
2353 1 2355 2356
2354 1 2356 2357
2355 1 2357 2358
2356 1 2358 2359
2357 1 2359 2360
2358 1 2360 2361
2359 1 2361 2362
2360 1 2362 2363
2361 1 2363 2364
2362 1 2364 2365
2363 1 2365 2366
2364 1 2366 2367
2365 1 2367 2368
2366 1 2368 2369
2367 1 2369 2370
2368 1 2370 2371
2369 1 2371 2372
2370 1 2372 2373
2371 1 2373 2374
2372 1 2374 2375
2373 1 2375 2376
2374 1 2376 2377
2375 1 2377 2378
2376 1 2378 2379
2377 1 2379 2380
2378 1 2380 2381
2379 1 2381 2382
2380 1 2382 2383
2381 1 2383 2384
2382 1 2384 2385
2383 1 2385 2386
2384 1 2386 2387
2385 1 2387 2388
2386 1 2388 2389
2387 1 2389 2390
2388 1 2390 2391
2389 1 2391 2392
2390 1 2392 2393
2391 1 2393 2394
2392 1 2394 2395
2393 1 2395 2396
2394 1 2396 2397
2395 1 2397 2398
2396 1 2398 2399
2397 1 2399 2400
2398 1 2400 2401
2399 1 2401 2402
2400 1 2402 2403
2401 1 2403 2404
2402 1 2404 2405
2403 1 2405 2406
2404 1 2406 2407
2405 1 2407 2408
2406 1 2408 2409
2407 1 2409 2410
2408 1 2410 2411
2409 1 2411 2412
2410 1 2412 2413
2411 1 2413 2414
2412 1 2414 2415
2413 1 2415 2416
2414 1 2416 2417
2415 1 2417 2418
2416 1 2418 2419
2417 1 2419 2420
2418 1 2420 2421
2419 1 2421 2422
2420 1 2422 2423
2421 1 2423 2424
2422 1 2424 2425
2423 1 2425 2426
2424 1 2426 2427
2425 1 2427 2428
2426 1 2428 2429
2427 1 2429 2430
2428 1 2430 2431
2429 1 2431 2432
2430 1 2432 2433
2431 1 2433 2434
2432 1 2434 2435
2433 1 2435 2436
2434 1 2436 2437
2435 1 2437 2438
2436 1 2438 2439
2437 1 2439 2440
2438 1 2440 2441
2439 1 2441 2442
2440 1 2442 2443
2441 1 2443 2444
2442 1 2444 2445
2443 1 2445 2446
2444 1 2446 2447
2445 1 2447 2448
2446 1 2448 2449
2447 1 2449 2450
2448 1 2450 2451
2449 1 2451 2452
2450 1 2452 2453
2451 1 2453 2454
2452 1 2454 2455
2453 1 2455 2456
2454 1 2456 2457
2455 1 2457 2458
2456 1 2458 2459
2457 1 2459 2460
2458 1 2460 2461
2459 1 2461 2462
2460 1 2462 2463
2461 1 2463 2464
2462 1 2464 2465
2463 1 2465 2466
2464 1 2466 2467
2465 1 2467 2468
2466 1 2468 2469
2467 1 2469 2470
2468 1 2470 2471
2469 1 2471 2472
2470 1 2472 2473
2471 1 2473 2474
2472 1 2474 2475
2473 1 2475 2476
2474 1 2476 2477
2475 1 2477 2478
2476 1 2478 2479
2477 1 2479 2480
2478 1 2480 2481
2479 1 2481 2482
2480 1 2482 2483
2481 1 2483 2484
2482 1 2484 2485
2483 1 2485 2486
2484 1 2486 2487
2485 1 2487 2488
2486 1 2488 2489
2487 1 2489 2490
2488 1 2490 2491
2489 1 2491 2492
2490 1 2492 2493
2491 1 2493 2494
2492 1 2494 2495
2493 1 2495 2496
2494 1 2496 2497
2495 1 2497 2498
2496 1 2498 2499
2497 1 2499 2500
2498 1 2500 2501
2499 1 2501 2502
2500 1 2502 2503
2501 1 2503 2504
2502 1 2504 2505
2503 1 2505 2506
2504 1 2506 2507
2505 1 2507 2508
2506 1 2508 2509
2507 1 2509 2510
2508 1 2510 2511
2509 1 2511 2512
2510 1 2512 2513
2511 1 2513 2514
2512 1 2514 2515
2513 1 2515 2516
2514 1 2516 2517
2515 1 2517 2518
2516 1 2518 2519
2517 1 2519 2520
2518 1 2520 2521
2519 1 2521 2522
2520 1 2522 2523
2521 1 2523 2524
2522 1 2524 2525
2523 1 2525 2526
2524 1 2526 2527
2525 1 2527 2528
2526 1 2528 2529
2527 1 2529 2530
2528 1 2530 2531
2529 1 2531 2532
2530 1 2532 2533
2531 1 2533 2534
2532 1 2534 2535
2533 1 2535 2536
2534 1 2536 2537
2535 1 2537 2538
2536 1 2538 2539
2537 1 2539 2540
2538 1 2540 2541
2539 1 2541 2542
2540 1 2542 2543
2541 1 2543 2544
2542 1 2544 2545
2543 1 2545 2546
2544 1 2546 2547
2545 1 2547 2548
2546 1 2548 2549
2547 1 2549 2550
2548 1 2550 2551
2549 1 2551 2552
2550 1 2552 2553
2551 1 2553 2554
2552 1 2554 2555
2553 1 2555 2556
2554 1 2556 2557
2555 1 2557 2558
2556 1 2558 2559
2557 1 2559 2560
2558 1 2560 2561
2559 1 2561 2562
2560 1 2562 2563
2561 1 2563 2564
2562 1 2564 2565
2563 1 2565 2566
2564 1 2566 2567
2565 1 2567 2568
2566 1 2568 2569
2567 1 2569 2570
2568 1 2570 2571
2569 1 2571 2572
2570 1 2572 2573
2571 1 2573 2574
2572 1 2574 2575
2573 1 2575 2576
2574 1 2576 2577
2575 1 2577 2578
2576 1 2578 2579
2577 1 2579 2580
2578 1 2580 2581
2579 1 2581 2582
2580 1 2582 2583
2581 1 2583 2584
2582 1 2584 2585
2583 1 2585 2586
2584 1 2586 2587
2585 1 2587 2588
2586 1 2588 2589
2587 1 2589 2590
2588 1 2590 2591
2589 1 2591 2592
2590 1 2592 2593
2591 1 2593 2594
2592 1 2594 2595
2593 1 2595 2596
2594 1 2596 2597
2595 1 2597 2598
2596 1 2598 2599
2597 1 2599 2600
2598 1 2600 2601
2599 1 2601 2602
2600 1 2602 2603
2601 1 2603 2604
2602 1 2604 2605
2603 1 2605 2606
2604 1 2606 2607
2605 1 2607 2608
2606 1 2608 2609
2607 1 2609 2610
2608 1 2610 2611
2609 1 2611 2612
2610 1 2612 2613
2611 1 2613 2614
2612 1 2614 2615
2613 1 2615 2616
2614 1 2616 2617
2615 1 2617 2618
2616 1 2618 2619
2617 1 2619 2620
2618 1 2620 2621
2619 1 2621 2622
2620 1 2622 2623
2621 1 2623 2624
2622 1 2624 2625
2623 1 2625 2626
2624 1 2626 2627
2625 1 2627 2628
2626 1 2628 2629
2627 1 2629 2630
2628 1 2630 2631
2629 1 2631 2632
2630 1 2632 2633
2631 1 2633 2634
2632 1 2634 2635
2633 1 2635 2636
2634 1 2636 2637
2635 1 2637 2638
2636 1 2638 2639
2637 1 2639 2640
2638 1 2640 2641
2639 1 2641 2642
2640 1 2642 2643
2641 1 2643 2644
2642 1 2644 2645
2643 1 2645 2646
2644 1 2646 2647
2645 1 2647 2648
2646 1 2648 2649
2647 1 2649 2650
2648 1 2650 2651
2649 1 2651 2652
2650 1 2652 2653
2651 1 2653 2654
2652 1 2654 2655
2653 1 2655 2656
2654 1 2656 2657
2655 1 2657 2658
2656 1 2658 2659
2657 1 2659 2660
2658 1 2660 2661
2659 1 2661 2662
2660 1 2662 2663
2661 1 2663 2664
2662 1 2664 2665
2663 1 2665 2666
2664 1 2666 2667
2665 1 2667 2668
2666 1 2668 2669
2667 1 2669 2670
2668 1 2670 2671
2669 1 2671 2672
2670 1 2672 2673
2671 1 2673 2674
2672 1 2674 2675
2673 1 2675 2676
2674 1 2676 2677
2675 1 2677 2678
2676 1 2678 2679
2677 1 2679 2680
2678 1 2680 2681
2679 1 2681 2682
2680 1 2682 2683
2681 1 2683 2684
2682 1 2684 2685
2683 1 2685 2686
2684 1 2686 2687
2685 1 2687 2688
2686 1 2688 2689
2687 1 2689 2690
2688 1 2690 2691
2689 1 2691 2692
2690 1 2692 2693
2691 1 2693 2694
2692 1 2694 2695
2693 1 2695 2696
2694 1 2696 2697
2695 1 2697 2698
2696 1 2698 2699
2697 1 2699 2700
2698 1 2700 2701
2699 1 2701 2702
2700 1 2702 2703
2701 1 2703 2704
2702 1 2704 2705
2703 1 2705 2706
2704 1 2706 2707
2705 1 2707 2708
2706 1 2708 2709
2707 1 2709 2710
2708 1 2710 2711
2709 1 2711 2712
2710 1 2712 2713
2711 1 2713 2714
2712 1 2714 2715
2713 1 2715 2716
2714 1 2716 2717
2715 1 2717 2718
2716 1 2718 2719
2717 1 2719 2720
2718 1 2720 2721
2719 1 2721 2722
2720 1 2722 2723
2721 1 2723 2724
2722 1 2724 2725
2723 1 2725 2726
2724 1 2726 2727
2725 1 2727 2728
2726 1 2728 2729
2727 1 2729 2730
2728 1 2730 2731
2729 1 2731 2732
2730 1 2732 2733
2731 1 2733 2734
2732 1 2734 2735
2733 1 2735 2736
2734 1 2736 2737
2735 1 2737 2738
2736 1 2738 2739
2737 1 2739 2740
2738 1 2740 2741
2739 1 2741 2742
2740 1 2742 2743
2741 1 2743 2744
2742 1 2744 2745
2743 1 2745 2746
2744 1 2746 2747
2745 1 2747 2748
2746 1 2748 2749
2747 1 2749 2750
2748 1 2750 2751
2749 1 2751 2752
2750 1 2752 2753
2751 1 2753 2754
2752 1 2754 2755
2753 1 2755 2756
2754 1 2756 2757
2755 1 2757 2758
2756 1 2758 2759
2757 1 2759 2760
2758 1 2760 2761
2759 1 2761 2762
2760 1 2762 2763
2761 1 2763 2764
2762 1 2764 2765
2763 1 2765 2766
2764 1 2766 2767
2765 1 2767 2768
2766 1 2768 2769
2767 1 2769 2770
2768 1 2770 2771
2769 1 2771 2772
2770 1 2772 2773
2771 1 2773 2774
2772 1 2774 2775
2773 1 2775 2776
2774 1 2776 2777
2775 1 2777 2778
2776 1 2778 2779
2777 1 2779 2780
2778 1 2780 2781
2779 1 2781 2782
2780 1 2782 2783
2781 1 2783 2784
2782 1 2784 2785
2783 1 2785 2786
2784 1 2786 2787
2785 1 2787 2788
2786 1 2788 2789
2787 1 2789 2790
2788 1 2790 2791
2789 1 2791 2792
2790 1 2792 2793
2791 1 2793 2794
2792 1 2794 2795
2793 1 2795 2796
2794 1 2796 2797
2795 1 2797 2798
2796 1 2798 2799
2797 1 2799 2800
2798 1 2800 2801
2799 1 2801 2802
2800 1 2802 2803
2801 1 2803 2804
2802 1 2804 2805
2803 1 2805 2806
2804 1 2806 2807
2805 1 2807 2808
2806 1 2808 2809
2807 1 2809 2810
2808 1 2810 2811
2809 1 2811 2812
2810 1 2812 2813
2811 1 2813 2814
2812 1 2814 2815
2813 1 2815 2816
2814 1 2816 2817
2815 1 2817 2818
2816 1 2818 2819
2817 1 2819 2820
2818 1 2820 2821
2819 1 2821 2822
2820 1 2822 2823
2821 1 2823 2824
2822 1 2824 2825
2823 1 2825 2826
2824 1 2826 2827
2825 1 2827 2828
2826 1 2828 2829
2827 1 2829 2830
2828 1 2830 2831
2829 1 2831 2832
2830 1 2832 2833
2831 1 2833 2834
2832 1 2834 2835
2833 1 2835 2836
2834 1 2836 2837
2835 1 2837 2838
2836 1 2838 2839
2837 1 2839 2840
2838 1 2840 2841
2839 1 2841 2842
2840 1 2842 2843
2841 1 2843 2844
2842 1 2844 2845
2843 1 2845 2846
2844 1 2846 2847
2845 1 2847 2848
2846 1 2848 2849
2847 1 2849 2850
2848 1 2850 2851
2849 1 2851 2852
2850 1 2852 2853
2851 1 2853 2854
2852 1 2854 2855
2853 1 2855 2856
2854 1 2856 2857
2855 1 2857 2858
2856 1 2858 2859
2857 1 2859 2860
2858 1 2860 2861
2859 1 2861 2862
2860 1 2862 2863
2861 1 2863 2864
2862 1 2864 2865
2863 1 2865 2866
2864 1 2866 2867
2865 1 2867 2868
2866 1 2868 2869
2867 1 2869 2870
2868 1 2870 2871
2869 1 2871 2872
2870 1 2872 2873
2871 1 2873 2874
2872 1 2874 2875
2873 1 2875 2876
2874 1 2876 2877
2875 1 2877 2878
2876 1 2878 2879
2877 1 2879 2880
2878 1 2880 2881
2879 1 2881 2882
2880 1 2882 2883
2881 1 2883 2884
2882 1 2884 2885
2883 1 2885 2886
2884 1 2886 2887
2885 1 2887 2888
2886 1 2888 2889
2887 1 2889 2890
2888 1 2890 2891
2889 1 2891 2892
2890 1 2892 2893
2891 1 2893 2894
2892 1 2894 2895
2893 1 2895 2896
2894 1 2896 2897
2895 1 2897 2898
2896 1 2898 2899
2897 1 2899 2900
2898 1 2900 2901
2899 1 2901 2902
2900 1 2902 2903
2901 1 2903 2904
2902 1 2904 2905
2903 1 2905 2906
2904 1 2906 2907
2905 1 2907 2908
2906 1 2908 2909
2907 1 2909 2910
2908 1 2910 2911
2909 1 2911 2912
2910 1 2912 2913
2911 1 2913 2914
2912 1 2914 2915
2913 1 2915 2916
2914 1 2916 2917
2915 1 2917 2918
2916 1 2918 2919
2917 1 2919 2920
2918 1 2920 2921
2919 1 2921 2922
2920 1 2922 2923
2921 1 2923 2924
2922 1 2924 2925
2923 1 2925 2926
2924 1 2926 2927
2925 1 2927 2928
2926 1 2928 2929
2927 1 2929 2930
2928 1 2930 2931
2929 1 2931 2932
2930 1 2932 2933
2931 1 2933 2934
2932 1 2934 2935
2933 1 2935 2936
2934 1 2936 2937
2935 1 2937 2938
2936 1 2938 2939
2937 1 2939 2940
2938 1 2940 2941
2939 1 2941 2942
2940 1 2942 2943
2941 1 2943 2944
2942 1 2944 2945
2943 1 2945 2946
2944 1 2946 2947
2945 1 2947 2948
2946 1 2948 2949
2947 1 2949 2950
2948 1 2950 2951
2949 1 2951 2952
2950 1 2952 2953
2951 1 2953 2954
2952 1 2954 2955
2953 1 2955 2956
2954 1 2956 2957
2955 1 2957 2958
2956 1 2958 2959
2957 1 2959 2960
2958 1 2960 2961
2959 1 2961 2962
2960 1 2962 2963
2961 1 2963 2964
2962 1 2964 2965
2963 1 2965 2966
2964 1 2966 2967
2965 1 2967 2968
2966 1 2968 2969
2967 1 2969 2970
2968 1 2970 2971
2969 1 2971 2972
2970 1 2972 2973
2971 1 2973 2974
2972 1 2974 2975
2973 1 2975 2976
2974 1 2976 2977
2975 1 2977 2978
2976 1 2978 2979
2977 1 2979 2980
2978 1 2980 2981
2979 1 2981 2982
2980 1 2982 2983
2981 1 2983 2984
2982 1 2984 2985
2983 1 2985 2986
2984 1 2986 2987
2985 1 2987 2988
2986 1 2988 2989
2987 1 2989 2990
2988 1 2990 2991
2989 1 2991 2992
2990 1 2992 2993
2991 1 2993 2994
2992 1 2994 2995
2993 1 2995 2996
2994 1 2996 2997
2995 1 2997 2998
2996 1 2998 2999
2997 1 2999 3000
2998 1 3001 3002
2999 1 3002 3003
3000 1 3003 3004
3001 1 3004 3005
3002 1 3005 3006
3003 1 3006 3007
3004 1 3007 3008
3005 1 3008 3009
3006 1 3009 3010
3007 1 3010 3011
3008 1 3011 3012
3009 1 3012 3013
3010 1 3013 3014
3011 1 3014 3015
3012 1 3015 3016
3013 1 3016 3017
3014 1 3017 3018
3015 1 3018 3019
3016 1 3019 3020
3017 1 3020 3021
3018 1 3021 3022
3019 1 3022 3023
3020 1 3023 3024
3021 1 3024 3025
3022 1 3025 3026
3023 1 3026 3027
3024 1 3027 3028
3025 1 3028 3029
3026 1 3029 3030
3027 1 3030 3031
3028 1 3031 3032
3029 1 3032 3033
3030 1 3033 3034
3031 1 3034 3035
3032 1 3035 3036
3033 1 3036 3037
3034 1 3037 3038
3035 1 3038 3039
3036 1 3039 3040
3037 1 3040 3041
3038 1 3041 3042
3039 1 3042 3043
3040 1 3043 3044
3041 1 3044 3045
3042 1 3045 3046
3043 1 3046 3047
3044 1 3047 3048
3045 1 3048 3049
3046 1 3049 3050
3047 1 3050 3051
3048 1 3051 3052
3049 1 3052 3053
3050 1 3053 3054
3051 1 3054 3055
3052 1 3055 3056
3053 1 3056 3057
3054 1 3057 3058
3055 1 3058 3059
3056 1 3059 3060
3057 1 3060 3061
3058 1 3061 3062
3059 1 3062 3063
3060 1 3063 3064
3061 1 3064 3065
3062 1 3065 3066
3063 1 3066 3067
3064 1 3067 3068
3065 1 3068 3069
3066 1 3069 3070
3067 1 3070 3071
3068 1 3071 3072
3069 1 3072 3073
3070 1 3073 3074
3071 1 3074 3075
3072 1 3075 3076
3073 1 3076 3077
3074 1 3077 3078
3075 1 3078 3079
3076 1 3079 3080
3077 1 3080 3081
3078 1 3081 3082
3079 1 3082 3083
3080 1 3083 3084
3081 1 3084 3085
3082 1 3085 3086
3083 1 3086 3087
3084 1 3087 3088
3085 1 3088 3089
3086 1 3089 3090
3087 1 3090 3091
3088 1 3091 3092
3089 1 3092 3093
3090 1 3093 3094
3091 1 3094 3095
3092 1 3095 3096
3093 1 3096 3097
3094 1 3097 3098
3095 1 3098 3099
3096 1 3099 3100
3097 1 3100 3101
3098 1 3101 3102
3099 1 3102 3103
3100 1 3103 3104
3101 1 3104 3105
3102 1 3105 3106
3103 1 3106 3107
3104 1 3107 3108
3105 1 3108 3109
3106 1 3109 3110
3107 1 3110 3111
3108 1 3111 3112
3109 1 3112 3113
3110 1 3113 3114
3111 1 3114 3115
3112 1 3115 3116
3113 1 3116 3117
3114 1 3117 3118
3115 1 3118 3119
3116 1 3119 3120
3117 1 3120 3121
3118 1 3121 3122
3119 1 3122 3123
3120 1 3123 3124
3121 1 3124 3125
3122 1 3125 3126
3123 1 3126 3127
3124 1 3127 3128
3125 1 3128 3129
3126 1 3129 3130
3127 1 3130 3131
3128 1 3131 3132
3129 1 3132 3133
3130 1 3133 3134
3131 1 3134 3135
3132 1 3135 3136
3133 1 3136 3137
3134 1 3137 3138
3135 1 3138 3139
3136 1 3139 3140
3137 1 3140 3141
3138 1 3141 3142
3139 1 3142 3143
3140 1 3143 3144
3141 1 3144 3145
3142 1 3145 3146
3143 1 3146 3147
3144 1 3147 3148
3145 1 3148 3149
3146 1 3149 3150
3147 1 3150 3151
3148 1 3151 3152
3149 1 3152 3153
3150 1 3153 3154
3151 1 3154 3155
3152 1 3155 3156
3153 1 3156 3157
3154 1 3157 3158
3155 1 3158 3159
3156 1 3159 3160
3157 1 3160 3161
3158 1 3161 3162
3159 1 3162 3163
3160 1 3163 3164
3161 1 3164 3165
3162 1 3165 3166
3163 1 3166 3167
3164 1 3167 3168
3165 1 3168 3169
3166 1 3169 3170
3167 1 3170 3171
3168 1 3171 3172
3169 1 3172 3173
3170 1 3173 3174
3171 1 3174 3175
3172 1 3175 3176
3173 1 3176 3177
3174 1 3177 3178
3175 1 3178 3179
3176 1 3179 3180
3177 1 3180 3181
3178 1 3181 3182
3179 1 3182 3183
3180 1 3183 3184
3181 1 3184 3185
3182 1 3185 3186
3183 1 3186 3187
3184 1 3187 3188
3185 1 3188 3189
3186 1 3189 3190
3187 1 3190 3191
3188 1 3191 3192
3189 1 3192 3193
3190 1 3193 3194
3191 1 3194 3195
3192 1 3195 3196
3193 1 3196 3197
3194 1 3197 3198
3195 1 3198 3199
3196 1 3199 3200
3197 1 3200 3201
3198 1 3201 3202
3199 1 3202 3203
3200 1 3203 3204
3201 1 3204 3205
3202 1 3205 3206
3203 1 3206 3207
3204 1 3207 3208
3205 1 3208 3209
3206 1 3209 3210
3207 1 3210 3211
3208 1 3211 3212
3209 1 3212 3213
3210 1 3213 3214
3211 1 3214 3215
3212 1 3215 3216
3213 1 3216 3217
3214 1 3217 3218
3215 1 3218 3219
3216 1 3219 3220
3217 1 3220 3221
3218 1 3221 3222
3219 1 3222 3223
3220 1 3223 3224
3221 1 3224 3225
3222 1 3225 3226
3223 1 3226 3227
3224 1 3227 3228
3225 1 3228 3229
3226 1 3229 3230
3227 1 3230 3231
3228 1 3231 3232
3229 1 3232 3233
3230 1 3233 3234
3231 1 3234 3235
3232 1 3235 3236
3233 1 3236 3237
3234 1 3237 3238
3235 1 3238 3239
3236 1 3239 3240
3237 1 3240 3241
3238 1 3241 3242
3239 1 3242 3243
3240 1 3243 3244
3241 1 3244 3245
3242 1 3245 3246
3243 1 3246 3247
3244 1 3247 3248
3245 1 3248 3249
3246 1 3249 3250
3247 1 3250 3251
3248 1 3251 3252
3249 1 3252 3253
3250 1 3253 3254
3251 1 3254 3255
3252 1 3255 3256
3253 1 3256 3257
3254 1 3257 3258
3255 1 3258 3259
3256 1 3259 3260
3257 1 3260 3261
3258 1 3261 3262
3259 1 3262 3263
3260 1 3263 3264
3261 1 3264 3265
3262 1 3265 3266
3263 1 3266 3267
3264 1 3267 3268
3265 1 3268 3269
3266 1 3269 3270
3267 1 3270 3271
3268 1 3271 3272
3269 1 3272 3273
3270 1 3273 3274
3271 1 3274 3275
3272 1 3275 3276
3273 1 3276 3277
3274 1 3277 3278
3275 1 3278 3279
3276 1 3279 3280
3277 1 3280 3281
3278 1 3281 3282
3279 1 3282 3283
3280 1 3283 3284
3281 1 3284 3285
3282 1 3285 3286
3283 1 3286 3287
3284 1 3287 3288
3285 1 3288 3289
3286 1 3289 3290
3287 1 3290 3291
3288 1 3291 3292
3289 1 3292 3293
3290 1 3293 3294
3291 1 3294 3295
3292 1 3295 3296
3293 1 3296 3297
3294 1 3297 3298
3295 1 3298 3299
3296 1 3299 3300
3297 1 3300 3301
3298 1 3301 3302
3299 1 3302 3303
3300 1 3303 3304
3301 1 3304 3305
3302 1 3305 3306
3303 1 3306 3307
3304 1 3307 3308
3305 1 3308 3309
3306 1 3309 3310
3307 1 3310 3311
3308 1 3311 3312
3309 1 3312 3313
3310 1 3313 3314
3311 1 3314 3315
3312 1 3315 3316
3313 1 3316 3317
3314 1 3317 3318
3315 1 3318 3319
3316 1 3319 3320
3317 1 3320 3321
3318 1 3321 3322
3319 1 3322 3323
3320 1 3323 3324
3321 1 3324 3325
3322 1 3325 3326
3323 1 3326 3327
3324 1 3327 3328
3325 1 3328 3329
3326 1 3329 3330
3327 1 3330 3331
3328 1 3331 3332
3329 1 3332 3333
3330 1 3333 3334
3331 1 3334 3335
3332 1 3335 3336
3333 1 3336 3337
3334 1 3337 3338
3335 1 3338 3339
3336 1 3339 3340
3337 1 3340 3341
3338 1 3341 3342
3339 1 3342 3343
3340 1 3343 3344
3341 1 3344 3345
3342 1 3345 3346
3343 1 3346 3347
3344 1 3347 3348
3345 1 3348 3349
3346 1 3349 3350
3347 1 3350 3351
3348 1 3351 3352
3349 1 3352 3353
3350 1 3353 3354
3351 1 3354 3355
3352 1 3355 3356
3353 1 3356 3357
3354 1 3357 3358
3355 1 3358 3359
3356 1 3359 3360
3357 1 3360 3361
3358 1 3361 3362
3359 1 3362 3363
3360 1 3363 3364
3361 1 3364 3365
3362 1 3365 3366
3363 1 3366 3367
3364 1 3367 3368
3365 1 3368 3369
3366 1 3369 3370
3367 1 3370 3371
3368 1 3371 3372
3369 1 3372 3373
3370 1 3373 3374
3371 1 3374 3375
3372 1 3375 3376
3373 1 3376 3377
3374 1 3377 3378
3375 1 3378 3379
3376 1 3379 3380
3377 1 3380 3381
3378 1 3381 3382
3379 1 3382 3383
3380 1 3383 3384
3381 1 3384 3385
3382 1 3385 3386
3383 1 3386 3387
3384 1 3387 3388
3385 1 3388 3389
3386 1 3389 3390
3387 1 3390 3391
3388 1 3391 3392
3389 1 3392 3393
3390 1 3393 3394
3391 1 3394 3395
3392 1 3395 3396
3393 1 3396 3397
3394 1 3397 3398
3395 1 3398 3399
3396 1 3399 3400
3397 1 3400 3401
3398 1 3401 3402
3399 1 3402 3403
3400 1 3403 3404
3401 1 3404 3405
3402 1 3405 3406
3403 1 3406 3407
3404 1 3407 3408
3405 1 3408 3409
3406 1 3409 3410
3407 1 3410 3411
3408 1 3411 3412
3409 1 3412 3413
3410 1 3413 3414
3411 1 3414 3415
3412 1 3415 3416
3413 1 3416 3417
3414 1 3417 3418
3415 1 3418 3419
3416 1 3419 3420
3417 1 3420 3421
3418 1 3421 3422
3419 1 3422 3423
3420 1 3423 3424
3421 1 3424 3425
3422 1 3425 3426
3423 1 3426 3427
3424 1 3427 3428
3425 1 3428 3429
3426 1 3429 3430
3427 1 3430 3431
3428 1 3431 3432
3429 1 3432 3433
3430 1 3433 3434
3431 1 3434 3435
3432 1 3435 3436
3433 1 3436 3437
3434 1 3437 3438
3435 1 3438 3439
3436 1 3439 3440
3437 1 3440 3441
3438 1 3441 3442
3439 1 3442 3443
3440 1 3443 3444
3441 1 3444 3445
3442 1 3445 3446
3443 1 3446 3447
3444 1 3447 3448
3445 1 3448 3449
3446 1 3449 3450
3447 1 3450 3451
3448 1 3451 3452
3449 1 3452 3453
3450 1 3453 3454
3451 1 3454 3455
3452 1 3455 3456
3453 1 3456 3457
3454 1 3457 3458
3455 1 3458 3459
3456 1 3459 3460
3457 1 3460 3461
3458 1 3461 3462
3459 1 3462 3463
3460 1 3463 3464
3461 1 3464 3465
3462 1 3465 3466
3463 1 3466 3467
3464 1 3467 3468
3465 1 3468 3469
3466 1 3469 3470
3467 1 3470 3471
3468 1 3471 3472
3469 1 3472 3473
3470 1 3473 3474
3471 1 3474 3475
3472 1 3475 3476
3473 1 3476 3477
3474 1 3477 3478
3475 1 3478 3479
3476 1 3479 3480
3477 1 3480 3481
3478 1 3481 3482
3479 1 3482 3483
3480 1 3483 3484
3481 1 3484 3485
3482 1 3485 3486
3483 1 3486 3487
3484 1 3487 3488
3485 1 3488 3489
3486 1 3489 3490
3487 1 3490 3491
3488 1 3491 3492
3489 1 3492 3493
3490 1 3493 3494
3491 1 3494 3495
3492 1 3495 3496
3493 1 3496 3497
3494 1 3497 3498
3495 1 3498 3499
3496 1 3499 3500
3497 1 3500 3501
3498 1 3501 3502
3499 1 3502 3503
3500 1 3503 3504
3501 1 3504 3505
3502 1 3505 3506
3503 1 3506 3507
3504 1 3507 3508
3505 1 3508 3509
3506 1 3509 3510
3507 1 3510 3511
3508 1 3511 3512
3509 1 3512 3513
3510 1 3513 3514
3511 1 3514 3515
3512 1 3515 3516
3513 1 3516 3517
3514 1 3517 3518
3515 1 3518 3519
3516 1 3519 3520
3517 1 3520 3521
3518 1 3521 3522
3519 1 3522 3523
3520 1 3523 3524
3521 1 3524 3525
3522 1 3525 3526
3523 1 3526 3527
3524 1 3527 3528
3525 1 3528 3529
3526 1 3529 3530
3527 1 3530 3531
3528 1 3531 3532
3529 1 3532 3533
3530 1 3533 3534
3531 1 3534 3535
3532 1 3535 3536
3533 1 3536 3537
3534 1 3537 3538
3535 1 3538 3539
3536 1 3539 3540
3537 1 3540 3541
3538 1 3541 3542
3539 1 3542 3543
3540 1 3543 3544
3541 1 3544 3545
3542 1 3545 3546
3543 1 3546 3547
3544 1 3547 3548
3545 1 3548 3549
3546 1 3549 3550
3547 1 3550 3551
3548 1 3551 3552
3549 1 3552 3553
3550 1 3553 3554
3551 1 3554 3555
3552 1 3555 3556
3553 1 3556 3557
3554 1 3557 3558
3555 1 3558 3559
3556 1 3559 3560
3557 1 3560 3561
3558 1 3561 3562
3559 1 3562 3563
3560 1 3563 3564
3561 1 3564 3565
3562 1 3565 3566
3563 1 3566 3567
3564 1 3567 3568
3565 1 3568 3569
3566 1 3569 3570
3567 1 3570 3571
3568 1 3571 3572
3569 1 3572 3573
3570 1 3573 3574
3571 1 3574 3575
3572 1 3575 3576
3573 1 3576 3577
3574 1 3577 3578
3575 1 3578 3579
3576 1 3579 3580
3577 1 3580 3581
3578 1 3581 3582
3579 1 3582 3583
3580 1 3583 3584
3581 1 3584 3585
3582 1 3585 3586
3583 1 3586 3587
3584 1 3587 3588
3585 1 3588 3589
3586 1 3589 3590
3587 1 3590 3591
3588 1 3591 3592
3589 1 3592 3593
3590 1 3593 3594
3591 1 3594 3595
3592 1 3595 3596
3593 1 3596 3597
3594 1 3597 3598
3595 1 3598 3599
3596 1 3599 3600
3597 1 3600 3601
3598 1 3601 3602
3599 1 3602 3603
3600 1 3603 3604
3601 1 3604 3605
3602 1 3605 3606
3603 1 3606 3607
3604 1 3607 3608
3605 1 3608 3609
3606 1 3609 3610
3607 1 3610 3611
3608 1 3611 3612
3609 1 3612 3613
3610 1 3613 3614
3611 1 3614 3615
3612 1 3615 3616
3613 1 3616 3617
3614 1 3617 3618
3615 1 3618 3619
3616 1 3619 3620
3617 1 3620 3621
3618 1 3621 3622
3619 1 3622 3623
3620 1 3623 3624
3621 1 3624 3625
3622 1 3625 3626
3623 1 3626 3627
3624 1 3627 3628
3625 1 3628 3629
3626 1 3629 3630
3627 1 3630 3631
3628 1 3631 3632
3629 1 3632 3633
3630 1 3633 3634
3631 1 3634 3635
3632 1 3635 3636
3633 1 3636 3637
3634 1 3637 3638
3635 1 3638 3639
3636 1 3639 3640
3637 1 3640 3641
3638 1 3641 3642
3639 1 3642 3643
3640 1 3643 3644
3641 1 3644 3645
3642 1 3645 3646
3643 1 3646 3647
3644 1 3647 3648
3645 1 3648 3649
3646 1 3649 3650
3647 1 3650 3651
3648 1 3651 3652
3649 1 3652 3653
3650 1 3653 3654
3651 1 3654 3655
3652 1 3655 3656
3653 1 3656 3657
3654 1 3657 3658
3655 1 3658 3659
3656 1 3659 3660
3657 1 3660 3661
3658 1 3661 3662
3659 1 3662 3663
3660 1 3663 3664
3661 1 3664 3665
3662 1 3665 3666
3663 1 3666 3667
3664 1 3667 3668
3665 1 3668 3669
3666 1 3669 3670
3667 1 3670 3671
3668 1 3671 3672
3669 1 3672 3673
3670 1 3673 3674
3671 1 3674 3675
3672 1 3675 3676
3673 1 3676 3677
3674 1 3677 3678
3675 1 3678 3679
3676 1 3679 3680
3677 1 3680 3681
3678 1 3681 3682
3679 1 3682 3683
3680 1 3683 3684
3681 1 3684 3685
3682 1 3685 3686
3683 1 3686 3687
3684 1 3687 3688
3685 1 3688 3689
3686 1 3689 3690
3687 1 3690 3691
3688 1 3691 3692
3689 1 3692 3693
3690 1 3693 3694
3691 1 3694 3695
3692 1 3695 3696
3693 1 3696 3697
3694 1 3697 3698
3695 1 3698 3699
3696 1 3699 3700
3697 1 3700 3701
3698 1 3701 3702
3699 1 3702 3703
3700 1 3703 3704
3701 1 3704 3705
3702 1 3705 3706
3703 1 3706 3707
3704 1 3707 3708
3705 1 3708 3709
3706 1 3709 3710
3707 1 3710 3711
3708 1 3711 3712
3709 1 3712 3713
3710 1 3713 3714
3711 1 3714 3715
3712 1 3715 3716
3713 1 3716 3717
3714 1 3717 3718
3715 1 3718 3719
3716 1 3719 3720
3717 1 3720 3721
3718 1 3721 3722
3719 1 3722 3723
3720 1 3723 3724
3721 1 3724 3725
3722 1 3725 3726
3723 1 3726 3727
3724 1 3727 3728
3725 1 3728 3729
3726 1 3729 3730
3727 1 3730 3731
3728 1 3731 3732
3729 1 3732 3733
3730 1 3733 3734
3731 1 3734 3735
3732 1 3735 3736
3733 1 3736 3737
3734 1 3737 3738
3735 1 3738 3739
3736 1 3739 3740
3737 1 3740 3741
3738 1 3741 3742
3739 1 3742 3743
3740 1 3743 3744
3741 1 3744 3745
3742 1 3745 3746
3743 1 3746 3747
3744 1 3747 3748
3745 1 3748 3749
3746 1 3749 3750
3747 1 3750 3751
3748 1 3751 3752
3749 1 3752 3753
3750 1 3753 3754
3751 1 3754 3755
3752 1 3755 3756
3753 1 3756 3757
3754 1 3757 3758
3755 1 3758 3759
3756 1 3759 3760
3757 1 3760 3761
3758 1 3761 3762
3759 1 3762 3763
3760 1 3763 3764
3761 1 3764 3765
3762 1 3765 3766
3763 1 3766 3767
3764 1 3767 3768
3765 1 3768 3769
3766 1 3769 3770
3767 1 3770 3771
3768 1 3771 3772
3769 1 3772 3773
3770 1 3773 3774
3771 1 3774 3775
3772 1 3775 3776
3773 1 3776 3777
3774 1 3777 3778
3775 1 3778 3779
3776 1 3779 3780
3777 1 3780 3781
3778 1 3781 3782
3779 1 3782 3783
3780 1 3783 3784
3781 1 3784 3785
3782 1 3785 3786
3783 1 3786 3787
3784 1 3787 3788
3785 1 3788 3789
3786 1 3789 3790
3787 1 3790 3791
3788 1 3791 3792
3789 1 3792 3793
3790 1 3793 3794
3791 1 3794 3795
3792 1 3795 3796
3793 1 3796 3797
3794 1 3797 3798
3795 1 3798 3799
3796 1 3799 3800
3797 1 3800 3801
3798 1 3801 3802
3799 1 3802 3803
3800 1 3803 3804
3801 1 3804 3805
3802 1 3805 3806
3803 1 3806 3807
3804 1 3807 3808
3805 1 3808 3809
3806 1 3809 3810
3807 1 3810 3811
3808 1 3811 3812
3809 1 3812 3813
3810 1 3813 3814
3811 1 3814 3815
3812 1 3815 3816
3813 1 3816 3817
3814 1 3817 3818
3815 1 3818 3819
3816 1 3819 3820
3817 1 3820 3821
3818 1 3821 3822
3819 1 3822 3823
3820 1 3823 3824
3821 1 3824 3825
3822 1 3825 3826
3823 1 3826 3827
3824 1 3827 3828
3825 1 3828 3829
3826 1 3829 3830
3827 1 3830 3831
3828 1 3831 3832
3829 1 3832 3833
3830 1 3833 3834
3831 1 3834 3835
3832 1 3835 3836
3833 1 3836 3837
3834 1 3837 3838
3835 1 3838 3839
3836 1 3839 3840
3837 1 3840 3841
3838 1 3841 3842
3839 1 3842 3843
3840 1 3843 3844
3841 1 3844 3845
3842 1 3845 3846
3843 1 3846 3847
3844 1 3847 3848
3845 1 3848 3849
3846 1 3849 3850
3847 1 3850 3851
3848 1 3851 3852
3849 1 3852 3853
3850 1 3853 3854
3851 1 3854 3855
3852 1 3855 3856
3853 1 3856 3857
3854 1 3857 3858
3855 1 3858 3859
3856 1 3859 3860
3857 1 3860 3861
3858 1 3861 3862
3859 1 3862 3863
3860 1 3863 3864
3861 1 3864 3865
3862 1 3865 3866
3863 1 3866 3867
3864 1 3867 3868
3865 1 3868 3869
3866 1 3869 3870
3867 1 3870 3871
3868 1 3871 3872
3869 1 3872 3873
3870 1 3873 3874
3871 1 3874 3875
3872 1 3875 3876
3873 1 3876 3877
3874 1 3877 3878
3875 1 3878 3879
3876 1 3879 3880
3877 1 3880 3881
3878 1 3881 3882
3879 1 3882 3883
3880 1 3883 3884
3881 1 3884 3885
3882 1 3885 3886
3883 1 3886 3887
3884 1 3887 3888
3885 1 3888 3889
3886 1 3889 3890
3887 1 3890 3891
3888 1 3891 3892
3889 1 3892 3893
3890 1 3893 3894
3891 1 3894 3895
3892 1 3895 3896
3893 1 3896 3897
3894 1 3897 3898
3895 1 3898 3899
3896 1 3899 3900
3897 1 3900 3901
3898 1 3901 3902
3899 1 3902 3903
3900 1 3903 3904
3901 1 3904 3905
3902 1 3905 3906
3903 1 3906 3907
3904 1 3907 3908
3905 1 3908 3909
3906 1 3909 3910
3907 1 3910 3911
3908 1 3911 3912
3909 1 3912 3913
3910 1 3913 3914
3911 1 3914 3915
3912 1 3915 3916
3913 1 3916 3917
3914 1 3917 3918
3915 1 3918 3919
3916 1 3919 3920
3917 1 3920 3921
3918 1 3921 3922
3919 1 3922 3923
3920 1 3923 3924
3921 1 3924 3925
3922 1 3925 3926
3923 1 3926 3927
3924 1 3927 3928
3925 1 3928 3929
3926 1 3929 3930
3927 1 3930 3931
3928 1 3931 3932
3929 1 3932 3933
3930 1 3933 3934
3931 1 3934 3935
3932 1 3935 3936
3933 1 3936 3937
3934 1 3937 3938
3935 1 3938 3939
3936 1 3939 3940
3937 1 3940 3941
3938 1 3941 3942
3939 1 3942 3943
3940 1 3943 3944
3941 1 3944 3945
3942 1 3945 3946
3943 1 3946 3947
3944 1 3947 3948
3945 1 3948 3949
3946 1 3949 3950
3947 1 3950 3951
3948 1 3951 3952
3949 1 3952 3953
3950 1 3953 3954
3951 1 3954 3955
3952 1 3955 3956
3953 1 3956 3957
3954 1 3957 3958
3955 1 3958 3959
3956 1 3959 3960
3957 1 3960 3961
3958 1 3961 3962
3959 1 3962 3963
3960 1 3963 3964
3961 1 3964 3965
3962 1 3965 3966
3963 1 3966 3967
3964 1 3967 3968
3965 1 3968 3969
3966 1 3969 3970
3967 1 3970 3971
3968 1 3971 3972
3969 1 3972 3973
3970 1 3973 3974
3971 1 3974 3975
3972 1 3975 3976
3973 1 3976 3977
3974 1 3977 3978
3975 1 3978 3979
3976 1 3979 3980
3977 1 3980 3981
3978 1 3981 3982
3979 1 3982 3983
3980 1 3983 3984
3981 1 3984 3985
3982 1 3985 3986
3983 1 3986 3987
3984 1 3987 3988
3985 1 3988 3989
3986 1 3989 3990
3987 1 3990 3991
3988 1 3991 3992
3989 1 3992 3993
3990 1 3993 3994
3991 1 3994 3995
3992 1 3995 3996
3993 1 3996 3997
3994 1 3997 3998
3995 1 3998 3999
3996 1 3999 4000
3997 1 4001 4002
3998 1 4002 4003
3999 1 4003 4004
4000 1 4004 4005
4001 1 4005 4006
4002 1 4006 4007
4003 1 4007 4008
4004 1 4008 4009
4005 1 4009 4010
4006 1 4010 4011
4007 1 4011 4012
4008 1 4012 4013
4009 1 4013 4014
4010 1 4014 4015
4011 1 4015 4016
4012 1 4016 4017
4013 1 4017 4018
4014 1 4018 4019
4015 1 4019 4020
4016 1 4020 4021
4017 1 4021 4022
4018 1 4022 4023
4019 1 4023 4024
4020 1 4024 4025
4021 1 4025 4026
4022 1 4026 4027
4023 1 4027 4028
4024 1 4028 4029
4025 1 4029 4030
4026 1 4030 4031
4027 1 4031 4032
4028 1 4032 4033
4029 1 4033 4034
4030 1 4034 4035
4031 1 4035 4036
4032 1 4036 4037
4033 1 4037 4038
4034 1 4038 4039
4035 1 4039 4040
4036 1 4040 4041
4037 1 4041 4042
4038 1 4042 4043
4039 1 4043 4044
4040 1 4044 4045
4041 1 4045 4046
4042 1 4046 4047
4043 1 4047 4048
4044 1 4048 4049
4045 1 4049 4050
4046 1 4050 4051
4047 1 4051 4052
4048 1 4052 4053
4049 1 4053 4054
4050 1 4054 4055
4051 1 4055 4056
4052 1 4056 4057
4053 1 4057 4058
4054 1 4058 4059
4055 1 4059 4060
4056 1 4060 4061
4057 1 4061 4062
4058 1 4062 4063
4059 1 4063 4064
4060 1 4064 4065
4061 1 4065 4066
4062 1 4066 4067
4063 1 4067 4068
4064 1 4068 4069
4065 1 4069 4070
4066 1 4070 4071
4067 1 4071 4072
4068 1 4072 4073
4069 1 4073 4074
4070 1 4074 4075
4071 1 4075 4076
4072 1 4076 4077
4073 1 4077 4078
4074 1 4078 4079
4075 1 4079 4080
4076 1 4080 4081
4077 1 4081 4082
4078 1 4082 4083
4079 1 4083 4084
4080 1 4084 4085
4081 1 4085 4086
4082 1 4086 4087
4083 1 4087 4088
4084 1 4088 4089
4085 1 4089 4090
4086 1 4090 4091
4087 1 4091 4092
4088 1 4092 4093
4089 1 4093 4094
4090 1 4094 4095
4091 1 4095 4096
4092 1 4096 4097
4093 1 4097 4098
4094 1 4098 4099
4095 1 4099 4100
4096 1 4100 4101
4097 1 4101 4102
4098 1 4102 4103
4099 1 4103 4104
4100 1 4104 4105
4101 1 4105 4106
4102 1 4106 4107
4103 1 4107 4108
4104 1 4108 4109
4105 1 4109 4110
4106 1 4110 4111
4107 1 4111 4112
4108 1 4112 4113
4109 1 4113 4114
4110 1 4114 4115
4111 1 4115 4116
4112 1 4116 4117
4113 1 4117 4118
4114 1 4118 4119
4115 1 4119 4120
4116 1 4120 4121
4117 1 4121 4122
4118 1 4122 4123
4119 1 4123 4124
4120 1 4124 4125
4121 1 4125 4126
4122 1 4126 4127
4123 1 4127 4128
4124 1 4128 4129
4125 1 4129 4130
4126 1 4130 4131
4127 1 4131 4132
4128 1 4132 4133
4129 1 4133 4134
4130 1 4134 4135
4131 1 4135 4136
4132 1 4136 4137
4133 1 4137 4138
4134 1 4138 4139
4135 1 4139 4140
4136 1 4140 4141
4137 1 4141 4142
4138 1 4142 4143
4139 1 4143 4144
4140 1 4144 4145
4141 1 4145 4146
4142 1 4146 4147
4143 1 4147 4148
4144 1 4148 4149
4145 1 4149 4150
4146 1 4150 4151
4147 1 4151 4152
4148 1 4152 4153
4149 1 4153 4154
4150 1 4154 4155
4151 1 4155 4156
4152 1 4156 4157
4153 1 4157 4158
4154 1 4158 4159
4155 1 4159 4160
4156 1 4160 4161
4157 1 4161 4162
4158 1 4162 4163
4159 1 4163 4164
4160 1 4164 4165
4161 1 4165 4166
4162 1 4166 4167
4163 1 4167 4168
4164 1 4168 4169
4165 1 4169 4170
4166 1 4170 4171
4167 1 4171 4172
4168 1 4172 4173
4169 1 4173 4174
4170 1 4174 4175
4171 1 4175 4176
4172 1 4176 4177
4173 1 4177 4178
4174 1 4178 4179
4175 1 4179 4180
4176 1 4180 4181
4177 1 4181 4182
4178 1 4182 4183
4179 1 4183 4184
4180 1 4184 4185
4181 1 4185 4186
4182 1 4186 4187
4183 1 4187 4188
4184 1 4188 4189
4185 1 4189 4190
4186 1 4190 4191
4187 1 4191 4192
4188 1 4192 4193
4189 1 4193 4194
4190 1 4194 4195
4191 1 4195 4196
4192 1 4196 4197
4193 1 4197 4198
4194 1 4198 4199
4195 1 4199 4200
4196 1 4200 4201
4197 1 4201 4202
4198 1 4202 4203
4199 1 4203 4204
4200 1 4204 4205
4201 1 4205 4206
4202 1 4206 4207
4203 1 4207 4208
4204 1 4208 4209
4205 1 4209 4210
4206 1 4210 4211
4207 1 4211 4212
4208 1 4212 4213
4209 1 4213 4214
4210 1 4214 4215
4211 1 4215 4216
4212 1 4216 4217
4213 1 4217 4218
4214 1 4218 4219
4215 1 4219 4220
4216 1 4220 4221
4217 1 4221 4222
4218 1 4222 4223
4219 1 4223 4224
4220 1 4224 4225
4221 1 4225 4226
4222 1 4226 4227
4223 1 4227 4228
4224 1 4228 4229
4225 1 4229 4230
4226 1 4230 4231
4227 1 4231 4232
4228 1 4232 4233
4229 1 4233 4234
4230 1 4234 4235
4231 1 4235 4236
4232 1 4236 4237
4233 1 4237 4238
4234 1 4238 4239
4235 1 4239 4240
4236 1 4240 4241
4237 1 4241 4242
4238 1 4242 4243
4239 1 4243 4244
4240 1 4244 4245
4241 1 4245 4246
4242 1 4246 4247
4243 1 4247 4248
4244 1 4248 4249
4245 1 4249 4250
4246 1 4250 4251
4247 1 4251 4252
4248 1 4252 4253
4249 1 4253 4254
4250 1 4254 4255
4251 1 4255 4256
4252 1 4256 4257
4253 1 4257 4258
4254 1 4258 4259
4255 1 4259 4260
4256 1 4260 4261
4257 1 4261 4262
4258 1 4262 4263
4259 1 4263 4264
4260 1 4264 4265
4261 1 4265 4266
4262 1 4266 4267
4263 1 4267 4268
4264 1 4268 4269
4265 1 4269 4270
4266 1 4270 4271
4267 1 4271 4272
4268 1 4272 4273
4269 1 4273 4274
4270 1 4274 4275
4271 1 4275 4276
4272 1 4276 4277
4273 1 4277 4278
4274 1 4278 4279
4275 1 4279 4280
4276 1 4280 4281
4277 1 4281 4282
4278 1 4282 4283
4279 1 4283 4284
4280 1 4284 4285
4281 1 4285 4286
4282 1 4286 4287
4283 1 4287 4288
4284 1 4288 4289
4285 1 4289 4290
4286 1 4290 4291
4287 1 4291 4292
4288 1 4292 4293
4289 1 4293 4294
4290 1 4294 4295
4291 1 4295 4296
4292 1 4296 4297
4293 1 4297 4298
4294 1 4298 4299
4295 1 4299 4300
4296 1 4300 4301
4297 1 4301 4302
4298 1 4302 4303
4299 1 4303 4304
4300 1 4304 4305
4301 1 4305 4306
4302 1 4306 4307
4303 1 4307 4308
4304 1 4308 4309
4305 1 4309 4310
4306 1 4310 4311
4307 1 4311 4312
4308 1 4312 4313
4309 1 4313 4314
4310 1 4314 4315
4311 1 4315 4316
4312 1 4316 4317
4313 1 4317 4318
4314 1 4318 4319
4315 1 4319 4320
4316 1 4320 4321
4317 1 4321 4322
4318 1 4322 4323
4319 1 4323 4324
4320 1 4324 4325
4321 1 4325 4326
4322 1 4326 4327
4323 1 4327 4328
4324 1 4328 4329
4325 1 4329 4330
4326 1 4330 4331
4327 1 4331 4332
4328 1 4332 4333
4329 1 4333 4334
4330 1 4334 4335
4331 1 4335 4336
4332 1 4336 4337
4333 1 4337 4338
4334 1 4338 4339
4335 1 4339 4340
4336 1 4340 4341
4337 1 4341 4342
4338 1 4342 4343
4339 1 4343 4344
4340 1 4344 4345
4341 1 4345 4346
4342 1 4346 4347
4343 1 4347 4348
4344 1 4348 4349
4345 1 4349 4350
4346 1 4350 4351
4347 1 4351 4352
4348 1 4352 4353
4349 1 4353 4354
4350 1 4354 4355
4351 1 4355 4356
4352 1 4356 4357
4353 1 4357 4358
4354 1 4358 4359
4355 1 4359 4360
4356 1 4360 4361
4357 1 4361 4362
4358 1 4362 4363
4359 1 4363 4364
4360 1 4364 4365
4361 1 4365 4366
4362 1 4366 4367
4363 1 4367 4368
4364 1 4368 4369
4365 1 4369 4370
4366 1 4370 4371
4367 1 4371 4372
4368 1 4372 4373
4369 1 4373 4374
4370 1 4374 4375
4371 1 4375 4376
4372 1 4376 4377
4373 1 4377 4378
4374 1 4378 4379
4375 1 4379 4380
4376 1 4380 4381
4377 1 4381 4382
4378 1 4382 4383
4379 1 4383 4384
4380 1 4384 4385
4381 1 4385 4386
4382 1 4386 4387
4383 1 4387 4388
4384 1 4388 4389
4385 1 4389 4390
4386 1 4390 4391
4387 1 4391 4392
4388 1 4392 4393
4389 1 4393 4394
4390 1 4394 4395
4391 1 4395 4396
4392 1 4396 4397
4393 1 4397 4398
4394 1 4398 4399
4395 1 4399 4400
4396 1 4400 4401
4397 1 4401 4402
4398 1 4402 4403
4399 1 4403 4404
4400 1 4404 4405
4401 1 4405 4406
4402 1 4406 4407
4403 1 4407 4408
4404 1 4408 4409
4405 1 4409 4410
4406 1 4410 4411
4407 1 4411 4412
4408 1 4412 4413
4409 1 4413 4414
4410 1 4414 4415
4411 1 4415 4416
4412 1 4416 4417
4413 1 4417 4418
4414 1 4418 4419
4415 1 4419 4420
4416 1 4420 4421
4417 1 4421 4422
4418 1 4422 4423
4419 1 4423 4424
4420 1 4424 4425
4421 1 4425 4426
4422 1 4426 4427
4423 1 4427 4428
4424 1 4428 4429
4425 1 4429 4430
4426 1 4430 4431
4427 1 4431 4432
4428 1 4432 4433
4429 1 4433 4434
4430 1 4434 4435
4431 1 4435 4436
4432 1 4436 4437
4433 1 4437 4438
4434 1 4438 4439
4435 1 4439 4440
4436 1 4440 4441
4437 1 4441 4442
4438 1 4442 4443
4439 1 4443 4444
4440 1 4444 4445
4441 1 4445 4446
4442 1 4446 4447
4443 1 4447 4448
4444 1 4448 4449
4445 1 4449 4450
4446 1 4450 4451
4447 1 4451 4452
4448 1 4452 4453
4449 1 4453 4454
4450 1 4454 4455
4451 1 4455 4456
4452 1 4456 4457
4453 1 4457 4458
4454 1 4458 4459
4455 1 4459 4460
4456 1 4460 4461
4457 1 4461 4462
4458 1 4462 4463
4459 1 4463 4464
4460 1 4464 4465
4461 1 4465 4466
4462 1 4466 4467
4463 1 4467 4468
4464 1 4468 4469
4465 1 4469 4470
4466 1 4470 4471
4467 1 4471 4472
4468 1 4472 4473
4469 1 4473 4474
4470 1 4474 4475
4471 1 4475 4476
4472 1 4476 4477
4473 1 4477 4478
4474 1 4478 4479
4475 1 4479 4480
4476 1 4480 4481
4477 1 4481 4482
4478 1 4482 4483
4479 1 4483 4484
4480 1 4484 4485
4481 1 4485 4486
4482 1 4486 4487
4483 1 4487 4488
4484 1 4488 4489
4485 1 4489 4490
4486 1 4490 4491
4487 1 4491 4492
4488 1 4492 4493
4489 1 4493 4494
4490 1 4494 4495
4491 1 4495 4496
4492 1 4496 4497
4493 1 4497 4498
4494 1 4498 4499
4495 1 4499 4500
4496 1 4500 4501
4497 1 4501 4502
4498 1 4502 4503
4499 1 4503 4504
4500 1 4504 4505
4501 1 4505 4506
4502 1 4506 4507
4503 1 4507 4508
4504 1 4508 4509
4505 1 4509 4510
4506 1 4510 4511
4507 1 4511 4512
4508 1 4512 4513
4509 1 4513 4514
4510 1 4514 4515
4511 1 4515 4516
4512 1 4516 4517
4513 1 4517 4518
4514 1 4518 4519
4515 1 4519 4520
4516 1 4520 4521
4517 1 4521 4522
4518 1 4522 4523
4519 1 4523 4524
4520 1 4524 4525
4521 1 4525 4526
4522 1 4526 4527
4523 1 4527 4528
4524 1 4528 4529
4525 1 4529 4530
4526 1 4530 4531
4527 1 4531 4532
4528 1 4532 4533
4529 1 4533 4534
4530 1 4534 4535
4531 1 4535 4536
4532 1 4536 4537
4533 1 4537 4538
4534 1 4538 4539
4535 1 4539 4540
4536 1 4540 4541
4537 1 4541 4542
4538 1 4542 4543
4539 1 4543 4544
4540 1 4544 4545
4541 1 4545 4546
4542 1 4546 4547
4543 1 4547 4548
4544 1 4548 4549
4545 1 4549 4550
4546 1 4550 4551
4547 1 4551 4552
4548 1 4552 4553
4549 1 4553 4554
4550 1 4554 4555
4551 1 4555 4556
4552 1 4556 4557
4553 1 4557 4558
4554 1 4558 4559
4555 1 4559 4560
4556 1 4560 4561
4557 1 4561 4562
4558 1 4562 4563
4559 1 4563 4564
4560 1 4564 4565
4561 1 4565 4566
4562 1 4566 4567
4563 1 4567 4568
4564 1 4568 4569
4565 1 4569 4570
4566 1 4570 4571
4567 1 4571 4572
4568 1 4572 4573
4569 1 4573 4574
4570 1 4574 4575
4571 1 4575 4576
4572 1 4576 4577
4573 1 4577 4578
4574 1 4578 4579
4575 1 4579 4580
4576 1 4580 4581
4577 1 4581 4582
4578 1 4582 4583
4579 1 4583 4584
4580 1 4584 4585
4581 1 4585 4586
4582 1 4586 4587
4583 1 4587 4588
4584 1 4588 4589
4585 1 4589 4590
4586 1 4590 4591
4587 1 4591 4592
4588 1 4592 4593
4589 1 4593 4594
4590 1 4594 4595
4591 1 4595 4596
4592 1 4596 4597
4593 1 4597 4598
4594 1 4598 4599
4595 1 4599 4600
4596 1 4600 4601
4597 1 4601 4602
4598 1 4602 4603
4599 1 4603 4604
4600 1 4604 4605
4601 1 4605 4606
4602 1 4606 4607
4603 1 4607 4608
4604 1 4608 4609
4605 1 4609 4610
4606 1 4610 4611
4607 1 4611 4612
4608 1 4612 4613
4609 1 4613 4614
4610 1 4614 4615
4611 1 4615 4616
4612 1 4616 4617
4613 1 4617 4618
4614 1 4618 4619
4615 1 4619 4620
4616 1 4620 4621
4617 1 4621 4622
4618 1 4622 4623
4619 1 4623 4624
4620 1 4624 4625
4621 1 4625 4626
4622 1 4626 4627
4623 1 4627 4628
4624 1 4628 4629
4625 1 4629 4630
4626 1 4630 4631
4627 1 4631 4632
4628 1 4632 4633
4629 1 4633 4634
4630 1 4634 4635
4631 1 4635 4636
4632 1 4636 4637
4633 1 4637 4638
4634 1 4638 4639
4635 1 4639 4640
4636 1 4640 4641
4637 1 4641 4642
4638 1 4642 4643
4639 1 4643 4644
4640 1 4644 4645
4641 1 4645 4646
4642 1 4646 4647
4643 1 4647 4648
4644 1 4648 4649
4645 1 4649 4650
4646 1 4650 4651
4647 1 4651 4652
4648 1 4652 4653
4649 1 4653 4654
4650 1 4654 4655
4651 1 4655 4656
4652 1 4656 4657
4653 1 4657 4658
4654 1 4658 4659
4655 1 4659 4660
4656 1 4660 4661
4657 1 4661 4662
4658 1 4662 4663
4659 1 4663 4664
4660 1 4664 4665
4661 1 4665 4666
4662 1 4666 4667
4663 1 4667 4668
4664 1 4668 4669
4665 1 4669 4670
4666 1 4670 4671
4667 1 4671 4672
4668 1 4672 4673
4669 1 4673 4674
4670 1 4674 4675
4671 1 4675 4676
4672 1 4676 4677
4673 1 4677 4678
4674 1 4678 4679
4675 1 4679 4680
4676 1 4680 4681
4677 1 4681 4682
4678 1 4682 4683
4679 1 4683 4684
4680 1 4684 4685
4681 1 4685 4686
4682 1 4686 4687
4683 1 4687 4688
4684 1 4688 4689
4685 1 4689 4690
4686 1 4690 4691
4687 1 4691 4692
4688 1 4692 4693
4689 1 4693 4694
4690 1 4694 4695
4691 1 4695 4696
4692 1 4696 4697
4693 1 4697 4698
4694 1 4698 4699
4695 1 4699 4700
4696 1 4700 4701
4697 1 4701 4702
4698 1 4702 4703
4699 1 4703 4704
4700 1 4704 4705
4701 1 4705 4706
4702 1 4706 4707
4703 1 4707 4708
4704 1 4708 4709
4705 1 4709 4710
4706 1 4710 4711
4707 1 4711 4712
4708 1 4712 4713
4709 1 4713 4714
4710 1 4714 4715
4711 1 4715 4716
4712 1 4716 4717
4713 1 4717 4718
4714 1 4718 4719
4715 1 4719 4720
4716 1 4720 4721
4717 1 4721 4722
4718 1 4722 4723
4719 1 4723 4724
4720 1 4724 4725
4721 1 4725 4726
4722 1 4726 4727
4723 1 4727 4728
4724 1 4728 4729
4725 1 4729 4730
4726 1 4730 4731
4727 1 4731 4732
4728 1 4732 4733
4729 1 4733 4734
4730 1 4734 4735
4731 1 4735 4736
4732 1 4736 4737
4733 1 4737 4738
4734 1 4738 4739
4735 1 4739 4740
4736 1 4740 4741
4737 1 4741 4742
4738 1 4742 4743
4739 1 4743 4744
4740 1 4744 4745
4741 1 4745 4746
4742 1 4746 4747
4743 1 4747 4748
4744 1 4748 4749
4745 1 4749 4750
4746 1 4750 4751
4747 1 4751 4752
4748 1 4752 4753
4749 1 4753 4754
4750 1 4754 4755
4751 1 4755 4756
4752 1 4756 4757
4753 1 4757 4758
4754 1 4758 4759
4755 1 4759 4760
4756 1 4760 4761
4757 1 4761 4762
4758 1 4762 4763
4759 1 4763 4764
4760 1 4764 4765
4761 1 4765 4766
4762 1 4766 4767
4763 1 4767 4768
4764 1 4768 4769
4765 1 4769 4770
4766 1 4770 4771
4767 1 4771 4772
4768 1 4772 4773
4769 1 4773 4774
4770 1 4774 4775
4771 1 4775 4776
4772 1 4776 4777
4773 1 4777 4778
4774 1 4778 4779
4775 1 4779 4780
4776 1 4780 4781
4777 1 4781 4782
4778 1 4782 4783
4779 1 4783 4784
4780 1 4784 4785
4781 1 4785 4786
4782 1 4786 4787
4783 1 4787 4788
4784 1 4788 4789
4785 1 4789 4790
4786 1 4790 4791
4787 1 4791 4792
4788 1 4792 4793
4789 1 4793 4794
4790 1 4794 4795
4791 1 4795 4796
4792 1 4796 4797
4793 1 4797 4798
4794 1 4798 4799
4795 1 4799 4800
4796 1 4800 4801
4797 1 4801 4802
4798 1 4802 4803
4799 1 4803 4804
4800 1 4804 4805
4801 1 4805 4806
4802 1 4806 4807
4803 1 4807 4808
4804 1 4808 4809
4805 1 4809 4810
4806 1 4810 4811
4807 1 4811 4812
4808 1 4812 4813
4809 1 4813 4814
4810 1 4814 4815
4811 1 4815 4816
4812 1 4816 4817
4813 1 4817 4818
4814 1 4818 4819
4815 1 4819 4820
4816 1 4820 4821
4817 1 4821 4822
4818 1 4822 4823
4819 1 4823 4824
4820 1 4824 4825
4821 1 4825 4826
4822 1 4826 4827
4823 1 4827 4828
4824 1 4828 4829
4825 1 4829 4830
4826 1 4830 4831
4827 1 4831 4832
4828 1 4832 4833
4829 1 4833 4834
4830 1 4834 4835
4831 1 4835 4836
4832 1 4836 4837
4833 1 4837 4838
4834 1 4838 4839
4835 1 4839 4840
4836 1 4840 4841
4837 1 4841 4842
4838 1 4842 4843
4839 1 4843 4844
4840 1 4844 4845
4841 1 4845 4846
4842 1 4846 4847
4843 1 4847 4848
4844 1 4848 4849
4845 1 4849 4850
4846 1 4850 4851
4847 1 4851 4852
4848 1 4852 4853
4849 1 4853 4854
4850 1 4854 4855
4851 1 4855 4856
4852 1 4856 4857
4853 1 4857 4858
4854 1 4858 4859
4855 1 4859 4860
4856 1 4860 4861
4857 1 4861 4862
4858 1 4862 4863
4859 1 4863 4864
4860 1 4864 4865
4861 1 4865 4866
4862 1 4866 4867
4863 1 4867 4868
4864 1 4868 4869
4865 1 4869 4870
4866 1 4870 4871
4867 1 4871 4872
4868 1 4872 4873
4869 1 4873 4874
4870 1 4874 4875
4871 1 4875 4876
4872 1 4876 4877
4873 1 4877 4878
4874 1 4878 4879
4875 1 4879 4880
4876 1 4880 4881
4877 1 4881 4882
4878 1 4882 4883
4879 1 4883 4884
4880 1 4884 4885
4881 1 4885 4886
4882 1 4886 4887
4883 1 4887 4888
4884 1 4888 4889
4885 1 4889 4890
4886 1 4890 4891
4887 1 4891 4892
4888 1 4892 4893
4889 1 4893 4894
4890 1 4894 4895
4891 1 4895 4896
4892 1 4896 4897
4893 1 4897 4898
4894 1 4898 4899
4895 1 4899 4900
4896 1 4900 4901
4897 1 4901 4902
4898 1 4902 4903
4899 1 4903 4904
4900 1 4904 4905
4901 1 4905 4906
4902 1 4906 4907
4903 1 4907 4908
4904 1 4908 4909
4905 1 4909 4910
4906 1 4910 4911
4907 1 4911 4912
4908 1 4912 4913
4909 1 4913 4914
4910 1 4914 4915
4911 1 4915 4916
4912 1 4916 4917
4913 1 4917 4918
4914 1 4918 4919
4915 1 4919 4920
4916 1 4920 4921
4917 1 4921 4922
4918 1 4922 4923
4919 1 4923 4924
4920 1 4924 4925
4921 1 4925 4926
4922 1 4926 4927
4923 1 4927 4928
4924 1 4928 4929
4925 1 4929 4930
4926 1 4930 4931
4927 1 4931 4932
4928 1 4932 4933
4929 1 4933 4934
4930 1 4934 4935
4931 1 4935 4936
4932 1 4936 4937
4933 1 4937 4938
4934 1 4938 4939
4935 1 4939 4940
4936 1 4940 4941
4937 1 4941 4942
4938 1 4942 4943
4939 1 4943 4944
4940 1 4944 4945
4941 1 4945 4946
4942 1 4946 4947
4943 1 4947 4948
4944 1 4948 4949
4945 1 4949 4950
4946 1 4950 4951
4947 1 4951 4952
4948 1 4952 4953
4949 1 4953 4954
4950 1 4954 4955
4951 1 4955 4956
4952 1 4956 4957
4953 1 4957 4958
4954 1 4958 4959
4955 1 4959 4960
4956 1 4960 4961
4957 1 4961 4962
4958 1 4962 4963
4959 1 4963 4964
4960 1 4964 4965
4961 1 4965 4966
4962 1 4966 4967
4963 1 4967 4968
4964 1 4968 4969
4965 1 4969 4970
4966 1 4970 4971
4967 1 4971 4972
4968 1 4972 4973
4969 1 4973 4974
4970 1 4974 4975
4971 1 4975 4976
4972 1 4976 4977
4973 1 4977 4978
4974 1 4978 4979
4975 1 4979 4980
4976 1 4980 4981
4977 1 4981 4982
4978 1 4982 4983
4979 1 4983 4984
4980 1 4984 4985
4981 1 4985 4986
4982 1 4986 4987
4983 1 4987 4988
4984 1 4988 4989
4985 1 4989 4990
4986 1 4990 4991
4987 1 4991 4992
4988 1 4992 4993
4989 1 4993 4994
4990 1 4994 4995
4991 1 4995 4996
4992 1 4996 4997
4993 1 4997 4998
4994 1 4998 4999
4995 1 4999 5000
4996 1 5001 5002
4997 1 5002 5003
4998 1 5003 5004
4999 1 5004 5005
5000 1 5005 5006
5001 1 5006 5007
5002 1 5007 5008
5003 1 5008 5009
5004 1 5009 5010
5005 1 5010 5011
5006 1 5011 5012
5007 1 5012 5013
5008 1 5013 5014
5009 1 5014 5015
5010 1 5015 5016
5011 1 5016 5017
5012 1 5017 5018
5013 1 5018 5019
5014 1 5019 5020
5015 1 5020 5021
5016 1 5021 5022
5017 1 5022 5023
5018 1 5023 5024
5019 1 5024 5025
5020 1 5025 5026
5021 1 5026 5027
5022 1 5027 5028
5023 1 5028 5029
5024 1 5029 5030
5025 1 5030 5031
5026 1 5031 5032
5027 1 5032 5033
5028 1 5033 5034
5029 1 5034 5035
5030 1 5035 5036
5031 1 5036 5037
5032 1 5037 5038
5033 1 5038 5039
5034 1 5039 5040
5035 1 5040 5041
5036 1 5041 5042
5037 1 5042 5043
5038 1 5043 5044
5039 1 5044 5045
5040 1 5045 5046
5041 1 5046 5047
5042 1 5047 5048
5043 1 5048 5049
5044 1 5049 5050
5045 1 5050 5051
5046 1 5051 5052
5047 1 5052 5053
5048 1 5053 5054
5049 1 5054 5055
5050 1 5055 5056
5051 1 5056 5057
5052 1 5057 5058
5053 1 5058 5059
5054 1 5059 5060
5055 1 5060 5061
5056 1 5061 5062
5057 1 5062 5063
5058 1 5063 5064
5059 1 5064 5065
5060 1 5065 5066
5061 1 5066 5067
5062 1 5067 5068
5063 1 5068 5069
5064 1 5069 5070
5065 1 5070 5071
5066 1 5071 5072
5067 1 5072 5073
5068 1 5073 5074
5069 1 5074 5075
5070 1 5075 5076
5071 1 5076 5077
5072 1 5077 5078
5073 1 5078 5079
5074 1 5079 5080
5075 1 5080 5081
5076 1 5081 5082
5077 1 5082 5083
5078 1 5083 5084
5079 1 5084 5085
5080 1 5085 5086
5081 1 5086 5087
5082 1 5087 5088
5083 1 5088 5089
5084 1 5089 5090
5085 1 5090 5091
5086 1 5091 5092
5087 1 5092 5093
5088 1 5093 5094
5089 1 5094 5095
5090 1 5095 5096
5091 1 5096 5097
5092 1 5097 5098
5093 1 5098 5099
5094 1 5099 5100
5095 1 5100 5101
5096 1 5101 5102
5097 1 5102 5103
5098 1 5103 5104
5099 1 5104 5105
5100 1 5105 5106
5101 1 5106 5107
5102 1 5107 5108
5103 1 5108 5109
5104 1 5109 5110
5105 1 5110 5111
5106 1 5111 5112
5107 1 5112 5113
5108 1 5113 5114
5109 1 5114 5115
5110 1 5115 5116
5111 1 5116 5117
5112 1 5117 5118
5113 1 5118 5119
5114 1 5119 5120
5115 1 5120 5121
5116 1 5121 5122
5117 1 5122 5123
5118 1 5123 5124
5119 1 5124 5125
5120 1 5125 5126
5121 1 5126 5127
5122 1 5127 5128
5123 1 5128 5129
5124 1 5129 5130
5125 1 5130 5131
5126 1 5131 5132
5127 1 5132 5133
5128 1 5133 5134
5129 1 5134 5135
5130 1 5135 5136
5131 1 5136 5137
5132 1 5137 5138
5133 1 5138 5139
5134 1 5139 5140
5135 1 5140 5141
5136 1 5141 5142
5137 1 5142 5143
5138 1 5143 5144
5139 1 5144 5145
5140 1 5145 5146
5141 1 5146 5147
5142 1 5147 5148
5143 1 5148 5149
5144 1 5149 5150
5145 1 5150 5151
5146 1 5151 5152
5147 1 5152 5153
5148 1 5153 5154
5149 1 5154 5155
5150 1 5155 5156
5151 1 5156 5157
5152 1 5157 5158
5153 1 5158 5159
5154 1 5159 5160
5155 1 5160 5161
5156 1 5161 5162
5157 1 5162 5163
5158 1 5163 5164
5159 1 5164 5165
5160 1 5165 5166
5161 1 5166 5167
5162 1 5167 5168
5163 1 5168 5169
5164 1 5169 5170
5165 1 5170 5171
5166 1 5171 5172
5167 1 5172 5173
5168 1 5173 5174
5169 1 5174 5175
5170 1 5175 5176
5171 1 5176 5177
5172 1 5177 5178
5173 1 5178 5179
5174 1 5179 5180
5175 1 5180 5181
5176 1 5181 5182
5177 1 5182 5183
5178 1 5183 5184
5179 1 5184 5185
5180 1 5185 5186
5181 1 5186 5187
5182 1 5187 5188
5183 1 5188 5189
5184 1 5189 5190
5185 1 5190 5191
5186 1 5191 5192
5187 1 5192 5193
5188 1 5193 5194
5189 1 5194 5195
5190 1 5195 5196
5191 1 5196 5197
5192 1 5197 5198
5193 1 5198 5199
5194 1 5199 5200
5195 1 5200 5201
5196 1 5201 5202
5197 1 5202 5203
5198 1 5203 5204
5199 1 5204 5205
5200 1 5205 5206
5201 1 5206 5207
5202 1 5207 5208
5203 1 5208 5209
5204 1 5209 5210
5205 1 5210 5211
5206 1 5211 5212
5207 1 5212 5213
5208 1 5213 5214
5209 1 5214 5215
5210 1 5215 5216
5211 1 5216 5217
5212 1 5217 5218
5213 1 5218 5219
5214 1 5219 5220
5215 1 5220 5221
5216 1 5221 5222
5217 1 5222 5223
5218 1 5223 5224
5219 1 5224 5225
5220 1 5225 5226
5221 1 5226 5227
5222 1 5227 5228
5223 1 5228 5229
5224 1 5229 5230
5225 1 5230 5231
5226 1 5231 5232
5227 1 5232 5233
5228 1 5233 5234
5229 1 5234 5235
5230 1 5235 5236
5231 1 5236 5237
5232 1 5237 5238
5233 1 5238 5239
5234 1 5239 5240
5235 1 5240 5241
5236 1 5241 5242
5237 1 5242 5243
5238 1 5243 5244
5239 1 5244 5245
5240 1 5245 5246
5241 1 5246 5247
5242 1 5247 5248
5243 1 5248 5249
5244 1 5249 5250
5245 1 5250 5251
5246 1 5251 5252
5247 1 5252 5253
5248 1 5253 5254
5249 1 5254 5255
5250 1 5255 5256
5251 1 5256 5257
5252 1 5257 5258
5253 1 5258 5259
5254 1 5259 5260
5255 1 5260 5261
5256 1 5261 5262
5257 1 5262 5263
5258 1 5263 5264
5259 1 5264 5265
5260 1 5265 5266
5261 1 5266 5267
5262 1 5267 5268
5263 1 5268 5269
5264 1 5269 5270
5265 1 5270 5271
5266 1 5271 5272
5267 1 5272 5273
5268 1 5273 5274
5269 1 5274 5275
5270 1 5275 5276
5271 1 5276 5277
5272 1 5277 5278
5273 1 5278 5279
5274 1 5279 5280
5275 1 5280 5281
5276 1 5281 5282
5277 1 5282 5283
5278 1 5283 5284
5279 1 5284 5285
5280 1 5285 5286
5281 1 5286 5287
5282 1 5287 5288
5283 1 5288 5289
5284 1 5289 5290
5285 1 5290 5291
5286 1 5291 5292
5287 1 5292 5293
5288 1 5293 5294
5289 1 5294 5295
5290 1 5295 5296
5291 1 5296 5297
5292 1 5297 5298
5293 1 5298 5299
5294 1 5299 5300
5295 1 5300 5301
5296 1 5301 5302
5297 1 5302 5303
5298 1 5303 5304
5299 1 5304 5305
5300 1 5305 5306
5301 1 5306 5307
5302 1 5307 5308
5303 1 5308 5309
5304 1 5309 5310
5305 1 5310 5311
5306 1 5311 5312
5307 1 5312 5313
5308 1 5313 5314
5309 1 5314 5315
5310 1 5315 5316
5311 1 5316 5317
5312 1 5317 5318
5313 1 5318 5319
5314 1 5319 5320
5315 1 5320 5321
5316 1 5321 5322
5317 1 5322 5323
5318 1 5323 5324
5319 1 5324 5325
5320 1 5325 5326
5321 1 5326 5327
5322 1 5327 5328
5323 1 5328 5329
5324 1 5329 5330
5325 1 5330 5331
5326 1 5331 5332
5327 1 5332 5333
5328 1 5333 5334
5329 1 5334 5335
5330 1 5335 5336
5331 1 5336 5337
5332 1 5337 5338
5333 1 5338 5339
5334 1 5339 5340
5335 1 5340 5341
5336 1 5341 5342
5337 1 5342 5343
5338 1 5343 5344
5339 1 5344 5345
5340 1 5345 5346
5341 1 5346 5347
5342 1 5347 5348
5343 1 5348 5349
5344 1 5349 5350
5345 1 5350 5351
5346 1 5351 5352
5347 1 5352 5353
5348 1 5353 5354
5349 1 5354 5355
5350 1 5355 5356
5351 1 5356 5357
5352 1 5357 5358
5353 1 5358 5359
5354 1 5359 5360
5355 1 5360 5361
5356 1 5361 5362
5357 1 5362 5363
5358 1 5363 5364
5359 1 5364 5365
5360 1 5365 5366
5361 1 5366 5367
5362 1 5367 5368
5363 1 5368 5369
5364 1 5369 5370
5365 1 5370 5371
5366 1 5371 5372
5367 1 5372 5373
5368 1 5373 5374
5369 1 5374 5375
5370 1 5375 5376
5371 1 5376 5377
5372 1 5377 5378
5373 1 5378 5379
5374 1 5379 5380
5375 1 5380 5381
5376 1 5381 5382
5377 1 5382 5383
5378 1 5383 5384
5379 1 5384 5385
5380 1 5385 5386
5381 1 5386 5387
5382 1 5387 5388
5383 1 5388 5389
5384 1 5389 5390
5385 1 5390 5391
5386 1 5391 5392
5387 1 5392 5393
5388 1 5393 5394
5389 1 5394 5395
5390 1 5395 5396
5391 1 5396 5397
5392 1 5397 5398
5393 1 5398 5399
5394 1 5399 5400
5395 1 5400 5401
5396 1 5401 5402
5397 1 5402 5403
5398 1 5403 5404
5399 1 5404 5405
5400 1 5405 5406
5401 1 5406 5407
5402 1 5407 5408
5403 1 5408 5409
5404 1 5409 5410
5405 1 5410 5411
5406 1 5411 5412
5407 1 5412 5413
5408 1 5413 5414
5409 1 5414 5415
5410 1 5415 5416
5411 1 5416 5417
5412 1 5417 5418
5413 1 5418 5419
5414 1 5419 5420
5415 1 5420 5421
5416 1 5421 5422
5417 1 5422 5423
5418 1 5423 5424
5419 1 5424 5425
5420 1 5425 5426
5421 1 5426 5427
5422 1 5427 5428
5423 1 5428 5429
5424 1 5429 5430
5425 1 5430 5431
5426 1 5431 5432
5427 1 5432 5433
5428 1 5433 5434
5429 1 5434 5435
5430 1 5435 5436
5431 1 5436 5437
5432 1 5437 5438
5433 1 5438 5439
5434 1 5439 5440
5435 1 5440 5441
5436 1 5441 5442
5437 1 5442 5443
5438 1 5443 5444
5439 1 5444 5445
5440 1 5445 5446
5441 1 5446 5447
5442 1 5447 5448
5443 1 5448 5449
5444 1 5449 5450
5445 1 5450 5451
5446 1 5451 5452
5447 1 5452 5453
5448 1 5453 5454
5449 1 5454 5455
5450 1 5455 5456
5451 1 5456 5457
5452 1 5457 5458
5453 1 5458 5459
5454 1 5459 5460
5455 1 5460 5461
5456 1 5461 5462
5457 1 5462 5463
5458 1 5463 5464
5459 1 5464 5465
5460 1 5465 5466
5461 1 5466 5467
5462 1 5467 5468
5463 1 5468 5469
5464 1 5469 5470
5465 1 5470 5471
5466 1 5471 5472
5467 1 5472 5473
5468 1 5473 5474
5469 1 5474 5475
5470 1 5475 5476
5471 1 5476 5477
5472 1 5477 5478
5473 1 5478 5479
5474 1 5479 5480
5475 1 5480 5481
5476 1 5481 5482
5477 1 5482 5483
5478 1 5483 5484
5479 1 5484 5485
5480 1 5485 5486
5481 1 5486 5487
5482 1 5487 5488
5483 1 5488 5489
5484 1 5489 5490
5485 1 5490 5491
5486 1 5491 5492
5487 1 5492 5493
5488 1 5493 5494
5489 1 5494 5495
5490 1 5495 5496
5491 1 5496 5497
5492 1 5497 5498
5493 1 5498 5499
5494 1 5499 5500
5495 1 5500 5501
5496 1 5501 5502
5497 1 5502 5503
5498 1 5503 5504
5499 1 5504 5505
5500 1 5505 5506
5501 1 5506 5507
5502 1 5507 5508
5503 1 5508 5509
5504 1 5509 5510
5505 1 5510 5511
5506 1 5511 5512
5507 1 5512 5513
5508 1 5513 5514
5509 1 5514 5515
5510 1 5515 5516
5511 1 5516 5517
5512 1 5517 5518
5513 1 5518 5519
5514 1 5519 5520
5515 1 5520 5521
5516 1 5521 5522
5517 1 5522 5523
5518 1 5523 5524
5519 1 5524 5525
5520 1 5525 5526
5521 1 5526 5527
5522 1 5527 5528
5523 1 5528 5529
5524 1 5529 5530
5525 1 5530 5531
5526 1 5531 5532
5527 1 5532 5533
5528 1 5533 5534
5529 1 5534 5535
5530 1 5535 5536
5531 1 5536 5537
5532 1 5537 5538
5533 1 5538 5539
5534 1 5539 5540
5535 1 5540 5541
5536 1 5541 5542
5537 1 5542 5543
5538 1 5543 5544
5539 1 5544 5545
5540 1 5545 5546
5541 1 5546 5547
5542 1 5547 5548
5543 1 5548 5549
5544 1 5549 5550
5545 1 5550 5551
5546 1 5551 5552
5547 1 5552 5553
5548 1 5553 5554
5549 1 5554 5555
5550 1 5555 5556
5551 1 5556 5557
5552 1 5557 5558
5553 1 5558 5559
5554 1 5559 5560
5555 1 5560 5561
5556 1 5561 5562
5557 1 5562 5563
5558 1 5563 5564
5559 1 5564 5565
5560 1 5565 5566
5561 1 5566 5567
5562 1 5567 5568
5563 1 5568 5569
5564 1 5569 5570
5565 1 5570 5571
5566 1 5571 5572
5567 1 5572 5573
5568 1 5573 5574
5569 1 5574 5575
5570 1 5575 5576
5571 1 5576 5577
5572 1 5577 5578
5573 1 5578 5579
5574 1 5579 5580
5575 1 5580 5581
5576 1 5581 5582
5577 1 5582 5583
5578 1 5583 5584
5579 1 5584 5585
5580 1 5585 5586
5581 1 5586 5587
5582 1 5587 5588
5583 1 5588 5589
5584 1 5589 5590
5585 1 5590 5591
5586 1 5591 5592
5587 1 5592 5593
5588 1 5593 5594
5589 1 5594 5595
5590 1 5595 5596
5591 1 5596 5597
5592 1 5597 5598
5593 1 5598 5599
5594 1 5599 5600
5595 1 5600 5601
5596 1 5601 5602
5597 1 5602 5603
5598 1 5603 5604
5599 1 5604 5605
5600 1 5605 5606
5601 1 5606 5607
5602 1 5607 5608
5603 1 5608 5609
5604 1 5609 5610
5605 1 5610 5611
5606 1 5611 5612
5607 1 5612 5613
5608 1 5613 5614
5609 1 5614 5615
5610 1 5615 5616
5611 1 5616 5617
5612 1 5617 5618
5613 1 5618 5619
5614 1 5619 5620
5615 1 5620 5621
5616 1 5621 5622
5617 1 5622 5623
5618 1 5623 5624
5619 1 5624 5625
5620 1 5625 5626
5621 1 5626 5627
5622 1 5627 5628
5623 1 5628 5629
5624 1 5629 5630
5625 1 5630 5631
5626 1 5631 5632
5627 1 5632 5633
5628 1 5633 5634
5629 1 5634 5635
5630 1 5635 5636
5631 1 5636 5637
5632 1 5637 5638
5633 1 5638 5639
5634 1 5639 5640
5635 1 5640 5641
5636 1 5641 5642
5637 1 5642 5643
5638 1 5643 5644
5639 1 5644 5645
5640 1 5645 5646
5641 1 5646 5647
5642 1 5647 5648
5643 1 5648 5649
5644 1 5649 5650
5645 1 5650 5651
5646 1 5651 5652
5647 1 5652 5653
5648 1 5653 5654
5649 1 5654 5655
5650 1 5655 5656
5651 1 5656 5657
5652 1 5657 5658
5653 1 5658 5659
5654 1 5659 5660
5655 1 5660 5661
5656 1 5661 5662
5657 1 5662 5663
5658 1 5663 5664
5659 1 5664 5665
5660 1 5665 5666
5661 1 5666 5667
5662 1 5667 5668
5663 1 5668 5669
5664 1 5669 5670
5665 1 5670 5671
5666 1 5671 5672
5667 1 5672 5673
5668 1 5673 5674
5669 1 5674 5675
5670 1 5675 5676
5671 1 5676 5677
5672 1 5677 5678
5673 1 5678 5679
5674 1 5679 5680
5675 1 5680 5681
5676 1 5681 5682
5677 1 5682 5683
5678 1 5683 5684
5679 1 5684 5685
5680 1 5685 5686
5681 1 5686 5687
5682 1 5687 5688
5683 1 5688 5689
5684 1 5689 5690
5685 1 5690 5691
5686 1 5691 5692
5687 1 5692 5693
5688 1 5693 5694
5689 1 5694 5695
5690 1 5695 5696
5691 1 5696 5697
5692 1 5697 5698
5693 1 5698 5699
5694 1 5699 5700
5695 1 5700 5701
5696 1 5701 5702
5697 1 5702 5703
5698 1 5703 5704
5699 1 5704 5705
5700 1 5705 5706
5701 1 5706 5707
5702 1 5707 5708
5703 1 5708 5709
5704 1 5709 5710
5705 1 5710 5711
5706 1 5711 5712
5707 1 5712 5713
5708 1 5713 5714
5709 1 5714 5715
5710 1 5715 5716
5711 1 5716 5717
5712 1 5717 5718
5713 1 5718 5719
5714 1 5719 5720
5715 1 5720 5721
5716 1 5721 5722
5717 1 5722 5723
5718 1 5723 5724
5719 1 5724 5725
5720 1 5725 5726
5721 1 5726 5727
5722 1 5727 5728
5723 1 5728 5729
5724 1 5729 5730
5725 1 5730 5731
5726 1 5731 5732
5727 1 5732 5733
5728 1 5733 5734
5729 1 5734 5735
5730 1 5735 5736
5731 1 5736 5737
5732 1 5737 5738
5733 1 5738 5739
5734 1 5739 5740
5735 1 5740 5741
5736 1 5741 5742
5737 1 5742 5743
5738 1 5743 5744
5739 1 5744 5745
5740 1 5745 5746
5741 1 5746 5747
5742 1 5747 5748
5743 1 5748 5749
5744 1 5749 5750
5745 1 5750 5751
5746 1 5751 5752
5747 1 5752 5753
5748 1 5753 5754
5749 1 5754 5755
5750 1 5755 5756
5751 1 5756 5757
5752 1 5757 5758
5753 1 5758 5759
5754 1 5759 5760
5755 1 5760 5761
5756 1 5761 5762
5757 1 5762 5763
5758 1 5763 5764
5759 1 5764 5765
5760 1 5765 5766
5761 1 5766 5767
5762 1 5767 5768
5763 1 5768 5769
5764 1 5769 5770
5765 1 5770 5771
5766 1 5771 5772
5767 1 5772 5773
5768 1 5773 5774
5769 1 5774 5775
5770 1 5775 5776
5771 1 5776 5777
5772 1 5777 5778
5773 1 5778 5779
5774 1 5779 5780
5775 1 5780 5781
5776 1 5781 5782
5777 1 5782 5783
5778 1 5783 5784
5779 1 5784 5785
5780 1 5785 5786
5781 1 5786 5787
5782 1 5787 5788
5783 1 5788 5789
5784 1 5789 5790
5785 1 5790 5791
5786 1 5791 5792
5787 1 5792 5793
5788 1 5793 5794
5789 1 5794 5795
5790 1 5795 5796
5791 1 5796 5797
5792 1 5797 5798
5793 1 5798 5799
5794 1 5799 5800
5795 1 5800 5801
5796 1 5801 5802
5797 1 5802 5803
5798 1 5803 5804
5799 1 5804 5805
5800 1 5805 5806
5801 1 5806 5807
5802 1 5807 5808
5803 1 5808 5809
5804 1 5809 5810
5805 1 5810 5811
5806 1 5811 5812
5807 1 5812 5813
5808 1 5813 5814
5809 1 5814 5815
5810 1 5815 5816
5811 1 5816 5817
5812 1 5817 5818
5813 1 5818 5819
5814 1 5819 5820
5815 1 5820 5821
5816 1 5821 5822
5817 1 5822 5823
5818 1 5823 5824
5819 1 5824 5825
5820 1 5825 5826
5821 1 5826 5827
5822 1 5827 5828
5823 1 5828 5829
5824 1 5829 5830
5825 1 5830 5831
5826 1 5831 5832
5827 1 5832 5833
5828 1 5833 5834
5829 1 5834 5835
5830 1 5835 5836
5831 1 5836 5837
5832 1 5837 5838
5833 1 5838 5839
5834 1 5839 5840
5835 1 5840 5841
5836 1 5841 5842
5837 1 5842 5843
5838 1 5843 5844
5839 1 5844 5845
5840 1 5845 5846
5841 1 5846 5847
5842 1 5847 5848
5843 1 5848 5849
5844 1 5849 5850
5845 1 5850 5851
5846 1 5851 5852
5847 1 5852 5853
5848 1 5853 5854
5849 1 5854 5855
5850 1 5855 5856
5851 1 5856 5857
5852 1 5857 5858
5853 1 5858 5859
5854 1 5859 5860
5855 1 5860 5861
5856 1 5861 5862
5857 1 5862 5863
5858 1 5863 5864
5859 1 5864 5865
5860 1 5865 5866
5861 1 5866 5867
5862 1 5867 5868
5863 1 5868 5869
5864 1 5869 5870
5865 1 5870 5871
5866 1 5871 5872
5867 1 5872 5873
5868 1 5873 5874
5869 1 5874 5875
5870 1 5875 5876
5871 1 5876 5877
5872 1 5877 5878
5873 1 5878 5879
5874 1 5879 5880
5875 1 5880 5881
5876 1 5881 5882
5877 1 5882 5883
5878 1 5883 5884
5879 1 5884 5885
5880 1 5885 5886
5881 1 5886 5887
5882 1 5887 5888
5883 1 5888 5889
5884 1 5889 5890
5885 1 5890 5891
5886 1 5891 5892
5887 1 5892 5893
5888 1 5893 5894
5889 1 5894 5895
5890 1 5895 5896
5891 1 5896 5897
5892 1 5897 5898
5893 1 5898 5899
5894 1 5899 5900
5895 1 5900 5901
5896 1 5901 5902
5897 1 5902 5903
5898 1 5903 5904
5899 1 5904 5905
5900 1 5905 5906
5901 1 5906 5907
5902 1 5907 5908
5903 1 5908 5909
5904 1 5909 5910
5905 1 5910 5911
5906 1 5911 5912
5907 1 5912 5913
5908 1 5913 5914
5909 1 5914 5915
5910 1 5915 5916
5911 1 5916 5917
5912 1 5917 5918
5913 1 5918 5919
5914 1 5919 5920
5915 1 5920 5921
5916 1 5921 5922
5917 1 5922 5923
5918 1 5923 5924
5919 1 5924 5925
5920 1 5925 5926
5921 1 5926 5927
5922 1 5927 5928
5923 1 5928 5929
5924 1 5929 5930
5925 1 5930 5931
5926 1 5931 5932
5927 1 5932 5933
5928 1 5933 5934
5929 1 5934 5935
5930 1 5935 5936
5931 1 5936 5937
5932 1 5937 5938
5933 1 5938 5939
5934 1 5939 5940
5935 1 5940 5941
5936 1 5941 5942
5937 1 5942 5943
5938 1 5943 5944
5939 1 5944 5945
5940 1 5945 5946
5941 1 5946 5947
5942 1 5947 5948
5943 1 5948 5949
5944 1 5949 5950
5945 1 5950 5951
5946 1 5951 5952
5947 1 5952 5953
5948 1 5953 5954
5949 1 5954 5955
5950 1 5955 5956
5951 1 5956 5957
5952 1 5957 5958
5953 1 5958 5959
5954 1 5959 5960
5955 1 5960 5961
5956 1 5961 5962
5957 1 5962 5963
5958 1 5963 5964
5959 1 5964 5965
5960 1 5965 5966
5961 1 5966 5967
5962 1 5967 5968
5963 1 5968 5969
5964 1 5969 5970
5965 1 5970 5971
5966 1 5971 5972
5967 1 5972 5973
5968 1 5973 5974
5969 1 5974 5975
5970 1 5975 5976
5971 1 5976 5977
5972 1 5977 5978
5973 1 5978 5979
5974 1 5979 5980
5975 1 5980 5981
5976 1 5981 5982
5977 1 5982 5983
5978 1 5983 5984
5979 1 5984 5985
5980 1 5985 5986
5981 1 5986 5987
5982 1 5987 5988
5983 1 5988 5989
5984 1 5989 5990
5985 1 5990 5991
5986 1 5991 5992
5987 1 5992 5993
5988 1 5993 5994
5989 1 5994 5995
5990 1 5995 5996
5991 1 5996 5997
5992 1 5997 5998
5993 1 5998 5999
5994 1 5999 6000
5995 1 6001 6002
5996 1 6002 6003
5997 1 6003 6004
5998 1 6004 6005
5999 1 6005 6006
6000 1 6006 6007
6001 1 6007 6008
6002 1 6008 6009
6003 1 6009 6010
6004 1 6010 6011
6005 1 6011 6012
6006 1 6012 6013
6007 1 6013 6014
6008 1 6014 6015
6009 1 6015 6016
6010 1 6016 6017
6011 1 6017 6018
6012 1 6018 6019
6013 1 6019 6020
6014 1 6020 6021
6015 1 6021 6022
6016 1 6022 6023
6017 1 6023 6024
6018 1 6024 6025
6019 1 6025 6026
6020 1 6026 6027
6021 1 6027 6028
6022 1 6028 6029
6023 1 6029 6030
6024 1 6030 6031
6025 1 6031 6032
6026 1 6032 6033
6027 1 6033 6034
6028 1 6034 6035
6029 1 6035 6036
6030 1 6036 6037
6031 1 6037 6038
6032 1 6038 6039
6033 1 6039 6040
6034 1 6040 6041
6035 1 6041 6042
6036 1 6042 6043
6037 1 6043 6044
6038 1 6044 6045
6039 1 6045 6046
6040 1 6046 6047
6041 1 6047 6048
6042 1 6048 6049
6043 1 6049 6050
6044 1 6050 6051
6045 1 6051 6052
6046 1 6052 6053
6047 1 6053 6054
6048 1 6054 6055
6049 1 6055 6056
6050 1 6056 6057
6051 1 6057 6058
6052 1 6058 6059
6053 1 6059 6060
6054 1 6060 6061
6055 1 6061 6062
6056 1 6062 6063
6057 1 6063 6064
6058 1 6064 6065
6059 1 6065 6066
6060 1 6066 6067
6061 1 6067 6068
6062 1 6068 6069
6063 1 6069 6070
6064 1 6070 6071
6065 1 6071 6072
6066 1 6072 6073
6067 1 6073 6074
6068 1 6074 6075
6069 1 6075 6076
6070 1 6076 6077
6071 1 6077 6078
6072 1 6078 6079
6073 1 6079 6080
6074 1 6080 6081
6075 1 6081 6082
6076 1 6082 6083
6077 1 6083 6084
6078 1 6084 6085
6079 1 6085 6086
6080 1 6086 6087
6081 1 6087 6088
6082 1 6088 6089
6083 1 6089 6090
6084 1 6090 6091
6085 1 6091 6092
6086 1 6092 6093
6087 1 6093 6094
6088 1 6094 6095
6089 1 6095 6096
6090 1 6096 6097
6091 1 6097 6098
6092 1 6098 6099
6093 1 6099 6100
6094 1 6100 6101
6095 1 6101 6102
6096 1 6102 6103
6097 1 6103 6104
6098 1 6104 6105
6099 1 6105 6106
6100 1 6106 6107
6101 1 6107 6108
6102 1 6108 6109
6103 1 6109 6110
6104 1 6110 6111
6105 1 6111 6112
6106 1 6112 6113
6107 1 6113 6114
6108 1 6114 6115
6109 1 6115 6116
6110 1 6116 6117
6111 1 6117 6118
6112 1 6118 6119
6113 1 6119 6120
6114 1 6120 6121
6115 1 6121 6122
6116 1 6122 6123
6117 1 6123 6124
6118 1 6124 6125
6119 1 6125 6126
6120 1 6126 6127
6121 1 6127 6128
6122 1 6128 6129
6123 1 6129 6130
6124 1 6130 6131
6125 1 6131 6132
6126 1 6132 6133
6127 1 6133 6134
6128 1 6134 6135
6129 1 6135 6136
6130 1 6136 6137
6131 1 6137 6138
6132 1 6138 6139
6133 1 6139 6140
6134 1 6140 6141
6135 1 6141 6142
6136 1 6142 6143
6137 1 6143 6144
6138 1 6144 6145
6139 1 6145 6146
6140 1 6146 6147
6141 1 6147 6148
6142 1 6148 6149
6143 1 6149 6150
6144 1 6150 6151
6145 1 6151 6152
6146 1 6152 6153
6147 1 6153 6154
6148 1 6154 6155
6149 1 6155 6156
6150 1 6156 6157
6151 1 6157 6158
6152 1 6158 6159
6153 1 6159 6160
6154 1 6160 6161
6155 1 6161 6162
6156 1 6162 6163
6157 1 6163 6164
6158 1 6164 6165
6159 1 6165 6166
6160 1 6166 6167
6161 1 6167 6168
6162 1 6168 6169
6163 1 6169 6170
6164 1 6170 6171
6165 1 6171 6172
6166 1 6172 6173
6167 1 6173 6174
6168 1 6174 6175
6169 1 6175 6176
6170 1 6176 6177
6171 1 6177 6178
6172 1 6178 6179
6173 1 6179 6180
6174 1 6180 6181
6175 1 6181 6182
6176 1 6182 6183
6177 1 6183 6184
6178 1 6184 6185
6179 1 6185 6186
6180 1 6186 6187
6181 1 6187 6188
6182 1 6188 6189
6183 1 6189 6190
6184 1 6190 6191
6185 1 6191 6192
6186 1 6192 6193
6187 1 6193 6194
6188 1 6194 6195
6189 1 6195 6196
6190 1 6196 6197
6191 1 6197 6198
6192 1 6198 6199
6193 1 6199 6200
6194 1 6200 6201
6195 1 6201 6202
6196 1 6202 6203
6197 1 6203 6204
6198 1 6204 6205
6199 1 6205 6206
6200 1 6206 6207
6201 1 6207 6208
6202 1 6208 6209
6203 1 6209 6210
6204 1 6210 6211
6205 1 6211 6212
6206 1 6212 6213
6207 1 6213 6214
6208 1 6214 6215
6209 1 6215 6216
6210 1 6216 6217
6211 1 6217 6218
6212 1 6218 6219
6213 1 6219 6220
6214 1 6220 6221
6215 1 6221 6222
6216 1 6222 6223
6217 1 6223 6224
6218 1 6224 6225
6219 1 6225 6226
6220 1 6226 6227
6221 1 6227 6228
6222 1 6228 6229
6223 1 6229 6230
6224 1 6230 6231
6225 1 6231 6232
6226 1 6232 6233
6227 1 6233 6234
6228 1 6234 6235
6229 1 6235 6236
6230 1 6236 6237
6231 1 6237 6238
6232 1 6238 6239
6233 1 6239 6240
6234 1 6240 6241
6235 1 6241 6242
6236 1 6242 6243
6237 1 6243 6244
6238 1 6244 6245
6239 1 6245 6246
6240 1 6246 6247
6241 1 6247 6248
6242 1 6248 6249
6243 1 6249 6250
6244 1 6250 6251
6245 1 6251 6252
6246 1 6252 6253
6247 1 6253 6254
6248 1 6254 6255
6249 1 6255 6256
6250 1 6256 6257
6251 1 6257 6258
6252 1 6258 6259
6253 1 6259 6260
6254 1 6260 6261
6255 1 6261 6262
6256 1 6262 6263
6257 1 6263 6264
6258 1 6264 6265
6259 1 6265 6266
6260 1 6266 6267
6261 1 6267 6268
6262 1 6268 6269
6263 1 6269 6270
6264 1 6270 6271
6265 1 6271 6272
6266 1 6272 6273
6267 1 6273 6274
6268 1 6274 6275
6269 1 6275 6276
6270 1 6276 6277
6271 1 6277 6278
6272 1 6278 6279
6273 1 6279 6280
6274 1 6280 6281
6275 1 6281 6282
6276 1 6282 6283
6277 1 6283 6284
6278 1 6284 6285
6279 1 6285 6286
6280 1 6286 6287
6281 1 6287 6288
6282 1 6288 6289
6283 1 6289 6290
6284 1 6290 6291
6285 1 6291 6292
6286 1 6292 6293
6287 1 6293 6294
6288 1 6294 6295
6289 1 6295 6296
6290 1 6296 6297
6291 1 6297 6298
6292 1 6298 6299
6293 1 6299 6300
6294 1 6300 6301
6295 1 6301 6302
6296 1 6302 6303
6297 1 6303 6304
6298 1 6304 6305
6299 1 6305 6306
6300 1 6306 6307
6301 1 6307 6308
6302 1 6308 6309
6303 1 6309 6310
6304 1 6310 6311
6305 1 6311 6312
6306 1 6312 6313
6307 1 6313 6314
6308 1 6314 6315
6309 1 6315 6316
6310 1 6316 6317
6311 1 6317 6318
6312 1 6318 6319
6313 1 6319 6320
6314 1 6320 6321
6315 1 6321 6322
6316 1 6322 6323
6317 1 6323 6324
6318 1 6324 6325
6319 1 6325 6326
6320 1 6326 6327
6321 1 6327 6328
6322 1 6328 6329
6323 1 6329 6330
6324 1 6330 6331
6325 1 6331 6332
6326 1 6332 6333
6327 1 6333 6334
6328 1 6334 6335
6329 1 6335 6336
6330 1 6336 6337
6331 1 6337 6338
6332 1 6338 6339
6333 1 6339 6340
6334 1 6340 6341
6335 1 6341 6342
6336 1 6342 6343
6337 1 6343 6344
6338 1 6344 6345
6339 1 6345 6346
6340 1 6346 6347
6341 1 6347 6348
6342 1 6348 6349
6343 1 6349 6350
6344 1 6350 6351
6345 1 6351 6352
6346 1 6352 6353
6347 1 6353 6354
6348 1 6354 6355
6349 1 6355 6356
6350 1 6356 6357
6351 1 6357 6358
6352 1 6358 6359
6353 1 6359 6360
6354 1 6360 6361
6355 1 6361 6362
6356 1 6362 6363
6357 1 6363 6364
6358 1 6364 6365
6359 1 6365 6366
6360 1 6366 6367
6361 1 6367 6368
6362 1 6368 6369
6363 1 6369 6370
6364 1 6370 6371
6365 1 6371 6372
6366 1 6372 6373
6367 1 6373 6374
6368 1 6374 6375
6369 1 6375 6376
6370 1 6376 6377
6371 1 6377 6378
6372 1 6378 6379
6373 1 6379 6380
6374 1 6380 6381
6375 1 6381 6382
6376 1 6382 6383
6377 1 6383 6384
6378 1 6384 6385
6379 1 6385 6386
6380 1 6386 6387
6381 1 6387 6388
6382 1 6388 6389
6383 1 6389 6390
6384 1 6390 6391
6385 1 6391 6392
6386 1 6392 6393
6387 1 6393 6394
6388 1 6394 6395
6389 1 6395 6396
6390 1 6396 6397
6391 1 6397 6398
6392 1 6398 6399
6393 1 6399 6400
6394 1 6400 6401
6395 1 6401 6402
6396 1 6402 6403
6397 1 6403 6404
6398 1 6404 6405
6399 1 6405 6406
6400 1 6406 6407
6401 1 6407 6408
6402 1 6408 6409
6403 1 6409 6410
6404 1 6410 6411
6405 1 6411 6412
6406 1 6412 6413
6407 1 6413 6414
6408 1 6414 6415
6409 1 6415 6416
6410 1 6416 6417
6411 1 6417 6418
6412 1 6418 6419
6413 1 6419 6420
6414 1 6420 6421
6415 1 6421 6422
6416 1 6422 6423
6417 1 6423 6424
6418 1 6424 6425
6419 1 6425 6426
6420 1 6426 6427
6421 1 6427 6428
6422 1 6428 6429
6423 1 6429 6430
6424 1 6430 6431
6425 1 6431 6432
6426 1 6432 6433
6427 1 6433 6434
6428 1 6434 6435
6429 1 6435 6436
6430 1 6436 6437
6431 1 6437 6438
6432 1 6438 6439
6433 1 6439 6440
6434 1 6440 6441
6435 1 6441 6442
6436 1 6442 6443
6437 1 6443 6444
6438 1 6444 6445
6439 1 6445 6446
6440 1 6446 6447
6441 1 6447 6448
6442 1 6448 6449
6443 1 6449 6450
6444 1 6450 6451
6445 1 6451 6452
6446 1 6452 6453
6447 1 6453 6454
6448 1 6454 6455
6449 1 6455 6456
6450 1 6456 6457
6451 1 6457 6458
6452 1 6458 6459
6453 1 6459 6460
6454 1 6460 6461
6455 1 6461 6462
6456 1 6462 6463
6457 1 6463 6464
6458 1 6464 6465
6459 1 6465 6466
6460 1 6466 6467
6461 1 6467 6468
6462 1 6468 6469
6463 1 6469 6470
6464 1 6470 6471
6465 1 6471 6472
6466 1 6472 6473
6467 1 6473 6474
6468 1 6474 6475
6469 1 6475 6476
6470 1 6476 6477
6471 1 6477 6478
6472 1 6478 6479
6473 1 6479 6480
6474 1 6480 6481
6475 1 6481 6482
6476 1 6482 6483
6477 1 6483 6484
6478 1 6484 6485
6479 1 6485 6486
6480 1 6486 6487
6481 1 6487 6488
6482 1 6488 6489
6483 1 6489 6490
6484 1 6490 6491
6485 1 6491 6492
6486 1 6492 6493
6487 1 6493 6494
6488 1 6494 6495
6489 1 6495 6496
6490 1 6496 6497
6491 1 6497 6498
6492 1 6498 6499
6493 1 6499 6500
6494 1 6500 6501
6495 1 6501 6502
6496 1 6502 6503
6497 1 6503 6504
6498 1 6504 6505
6499 1 6505 6506
6500 1 6506 6507
6501 1 6507 6508
6502 1 6508 6509
6503 1 6509 6510
6504 1 6510 6511
6505 1 6511 6512
6506 1 6512 6513
6507 1 6513 6514
6508 1 6514 6515
6509 1 6515 6516
6510 1 6516 6517
6511 1 6517 6518
6512 1 6518 6519
6513 1 6519 6520
6514 1 6520 6521
6515 1 6521 6522
6516 1 6522 6523
6517 1 6523 6524
6518 1 6524 6525
6519 1 6525 6526
6520 1 6526 6527
6521 1 6527 6528
6522 1 6528 6529
6523 1 6529 6530
6524 1 6530 6531
6525 1 6531 6532
6526 1 6532 6533
6527 1 6533 6534
6528 1 6534 6535
6529 1 6535 6536
6530 1 6536 6537
6531 1 6537 6538
6532 1 6538 6539
6533 1 6539 6540
6534 1 6540 6541
6535 1 6541 6542
6536 1 6542 6543
6537 1 6543 6544
6538 1 6544 6545
6539 1 6545 6546
6540 1 6546 6547
6541 1 6547 6548
6542 1 6548 6549
6543 1 6549 6550
6544 1 6550 6551
6545 1 6551 6552
6546 1 6552 6553
6547 1 6553 6554
6548 1 6554 6555
6549 1 6555 6556
6550 1 6556 6557
6551 1 6557 6558
6552 1 6558 6559
6553 1 6559 6560
6554 1 6560 6561
6555 1 6561 6562
6556 1 6562 6563
6557 1 6563 6564
6558 1 6564 6565
6559 1 6565 6566
6560 1 6566 6567
6561 1 6567 6568
6562 1 6568 6569
6563 1 6569 6570
6564 1 6570 6571
6565 1 6571 6572
6566 1 6572 6573
6567 1 6573 6574
6568 1 6574 6575
6569 1 6575 6576
6570 1 6576 6577
6571 1 6577 6578
6572 1 6578 6579
6573 1 6579 6580
6574 1 6580 6581
6575 1 6581 6582
6576 1 6582 6583
6577 1 6583 6584
6578 1 6584 6585
6579 1 6585 6586
6580 1 6586 6587
6581 1 6587 6588
6582 1 6588 6589
6583 1 6589 6590
6584 1 6590 6591
6585 1 6591 6592
6586 1 6592 6593
6587 1 6593 6594
6588 1 6594 6595
6589 1 6595 6596
6590 1 6596 6597
6591 1 6597 6598
6592 1 6598 6599
6593 1 6599 6600
6594 1 6600 6601
6595 1 6601 6602
6596 1 6602 6603
6597 1 6603 6604
6598 1 6604 6605
6599 1 6605 6606
6600 1 6606 6607
6601 1 6607 6608
6602 1 6608 6609
6603 1 6609 6610
6604 1 6610 6611
6605 1 6611 6612
6606 1 6612 6613
6607 1 6613 6614
6608 1 6614 6615
6609 1 6615 6616
6610 1 6616 6617
6611 1 6617 6618
6612 1 6618 6619
6613 1 6619 6620
6614 1 6620 6621
6615 1 6621 6622
6616 1 6622 6623
6617 1 6623 6624
6618 1 6624 6625
6619 1 6625 6626
6620 1 6626 6627
6621 1 6627 6628
6622 1 6628 6629
6623 1 6629 6630
6624 1 6630 6631
6625 1 6631 6632
6626 1 6632 6633
6627 1 6633 6634
6628 1 6634 6635
6629 1 6635 6636
6630 1 6636 6637
6631 1 6637 6638
6632 1 6638 6639
6633 1 6639 6640
6634 1 6640 6641
6635 1 6641 6642
6636 1 6642 6643
6637 1 6643 6644
6638 1 6644 6645
6639 1 6645 6646
6640 1 6646 6647
6641 1 6647 6648
6642 1 6648 6649
6643 1 6649 6650
6644 1 6650 6651
6645 1 6651 6652
6646 1 6652 6653
6647 1 6653 6654
6648 1 6654 6655
6649 1 6655 6656
6650 1 6656 6657
6651 1 6657 6658
6652 1 6658 6659
6653 1 6659 6660
6654 1 6660 6661
6655 1 6661 6662
6656 1 6662 6663
6657 1 6663 6664
6658 1 6664 6665
6659 1 6665 6666
6660 1 6666 6667
6661 1 6667 6668
6662 1 6668 6669
6663 1 6669 6670
6664 1 6670 6671
6665 1 6671 6672
6666 1 6672 6673
6667 1 6673 6674
6668 1 6674 6675
6669 1 6675 6676
6670 1 6676 6677
6671 1 6677 6678
6672 1 6678 6679
6673 1 6679 6680
6674 1 6680 6681
6675 1 6681 6682
6676 1 6682 6683
6677 1 6683 6684
6678 1 6684 6685
6679 1 6685 6686
6680 1 6686 6687
6681 1 6687 6688
6682 1 6688 6689
6683 1 6689 6690
6684 1 6690 6691
6685 1 6691 6692
6686 1 6692 6693
6687 1 6693 6694
6688 1 6694 6695
6689 1 6695 6696
6690 1 6696 6697
6691 1 6697 6698
6692 1 6698 6699
6693 1 6699 6700
6694 1 6700 6701
6695 1 6701 6702
6696 1 6702 6703
6697 1 6703 6704
6698 1 6704 6705
6699 1 6705 6706
6700 1 6706 6707
6701 1 6707 6708
6702 1 6708 6709
6703 1 6709 6710
6704 1 6710 6711
6705 1 6711 6712
6706 1 6712 6713
6707 1 6713 6714
6708 1 6714 6715
6709 1 6715 6716
6710 1 6716 6717
6711 1 6717 6718
6712 1 6718 6719
6713 1 6719 6720
6714 1 6720 6721
6715 1 6721 6722
6716 1 6722 6723
6717 1 6723 6724
6718 1 6724 6725
6719 1 6725 6726
6720 1 6726 6727
6721 1 6727 6728
6722 1 6728 6729
6723 1 6729 6730
6724 1 6730 6731
6725 1 6731 6732
6726 1 6732 6733
6727 1 6733 6734
6728 1 6734 6735
6729 1 6735 6736
6730 1 6736 6737
6731 1 6737 6738
6732 1 6738 6739
6733 1 6739 6740
6734 1 6740 6741
6735 1 6741 6742
6736 1 6742 6743
6737 1 6743 6744
6738 1 6744 6745
6739 1 6745 6746
6740 1 6746 6747
6741 1 6747 6748
6742 1 6748 6749
6743 1 6749 6750
6744 1 6750 6751
6745 1 6751 6752
6746 1 6752 6753
6747 1 6753 6754
6748 1 6754 6755
6749 1 6755 6756
6750 1 6756 6757
6751 1 6757 6758
6752 1 6758 6759
6753 1 6759 6760
6754 1 6760 6761
6755 1 6761 6762
6756 1 6762 6763
6757 1 6763 6764
6758 1 6764 6765
6759 1 6765 6766
6760 1 6766 6767
6761 1 6767 6768
6762 1 6768 6769
6763 1 6769 6770
6764 1 6770 6771
6765 1 6771 6772
6766 1 6772 6773
6767 1 6773 6774
6768 1 6774 6775
6769 1 6775 6776
6770 1 6776 6777
6771 1 6777 6778
6772 1 6778 6779
6773 1 6779 6780
6774 1 6780 6781
6775 1 6781 6782
6776 1 6782 6783
6777 1 6783 6784
6778 1 6784 6785
6779 1 6785 6786
6780 1 6786 6787
6781 1 6787 6788
6782 1 6788 6789
6783 1 6789 6790
6784 1 6790 6791
6785 1 6791 6792
6786 1 6792 6793
6787 1 6793 6794
6788 1 6794 6795
6789 1 6795 6796
6790 1 6796 6797
6791 1 6797 6798
6792 1 6798 6799
6793 1 6799 6800
6794 1 6800 6801
6795 1 6801 6802
6796 1 6802 6803
6797 1 6803 6804
6798 1 6804 6805
6799 1 6805 6806
6800 1 6806 6807
6801 1 6807 6808
6802 1 6808 6809
6803 1 6809 6810
6804 1 6810 6811
6805 1 6811 6812
6806 1 6812 6813
6807 1 6813 6814
6808 1 6814 6815
6809 1 6815 6816
6810 1 6816 6817
6811 1 6817 6818
6812 1 6818 6819
6813 1 6819 6820
6814 1 6820 6821
6815 1 6821 6822
6816 1 6822 6823
6817 1 6823 6824
6818 1 6824 6825
6819 1 6825 6826
6820 1 6826 6827
6821 1 6827 6828
6822 1 6828 6829
6823 1 6829 6830
6824 1 6830 6831
6825 1 6831 6832
6826 1 6832 6833
6827 1 6833 6834
6828 1 6834 6835
6829 1 6835 6836
6830 1 6836 6837
6831 1 6837 6838
6832 1 6838 6839
6833 1 6839 6840
6834 1 6840 6841
6835 1 6841 6842
6836 1 6842 6843
6837 1 6843 6844
6838 1 6844 6845
6839 1 6845 6846
6840 1 6846 6847
6841 1 6847 6848
6842 1 6848 6849
6843 1 6849 6850
6844 1 6850 6851
6845 1 6851 6852
6846 1 6852 6853
6847 1 6853 6854
6848 1 6854 6855
6849 1 6855 6856
6850 1 6856 6857
6851 1 6857 6858
6852 1 6858 6859
6853 1 6859 6860
6854 1 6860 6861
6855 1 6861 6862
6856 1 6862 6863
6857 1 6863 6864
6858 1 6864 6865
6859 1 6865 6866
6860 1 6866 6867
6861 1 6867 6868
6862 1 6868 6869
6863 1 6869 6870
6864 1 6870 6871
6865 1 6871 6872
6866 1 6872 6873
6867 1 6873 6874
6868 1 6874 6875
6869 1 6875 6876
6870 1 6876 6877
6871 1 6877 6878
6872 1 6878 6879
6873 1 6879 6880
6874 1 6880 6881
6875 1 6881 6882
6876 1 6882 6883
6877 1 6883 6884
6878 1 6884 6885
6879 1 6885 6886
6880 1 6886 6887
6881 1 6887 6888
6882 1 6888 6889
6883 1 6889 6890
6884 1 6890 6891
6885 1 6891 6892
6886 1 6892 6893
6887 1 6893 6894
6888 1 6894 6895
6889 1 6895 6896
6890 1 6896 6897
6891 1 6897 6898
6892 1 6898 6899
6893 1 6899 6900
6894 1 6900 6901
6895 1 6901 6902
6896 1 6902 6903
6897 1 6903 6904
6898 1 6904 6905
6899 1 6905 6906
6900 1 6906 6907
6901 1 6907 6908
6902 1 6908 6909
6903 1 6909 6910
6904 1 6910 6911
6905 1 6911 6912
6906 1 6912 6913
6907 1 6913 6914
6908 1 6914 6915
6909 1 6915 6916
6910 1 6916 6917
6911 1 6917 6918
6912 1 6918 6919
6913 1 6919 6920
6914 1 6920 6921
6915 1 6921 6922
6916 1 6922 6923
6917 1 6923 6924
6918 1 6924 6925
6919 1 6925 6926
6920 1 6926 6927
6921 1 6927 6928
6922 1 6928 6929
6923 1 6929 6930
6924 1 6930 6931
6925 1 6931 6932
6926 1 6932 6933
6927 1 6933 6934
6928 1 6934 6935
6929 1 6935 6936
6930 1 6936 6937
6931 1 6937 6938
6932 1 6938 6939
6933 1 6939 6940
6934 1 6940 6941
6935 1 6941 6942
6936 1 6942 6943
6937 1 6943 6944
6938 1 6944 6945
6939 1 6945 6946
6940 1 6946 6947
6941 1 6947 6948
6942 1 6948 6949
6943 1 6949 6950
6944 1 6950 6951
6945 1 6951 6952
6946 1 6952 6953
6947 1 6953 6954
6948 1 6954 6955
6949 1 6955 6956
6950 1 6956 6957
6951 1 6957 6958
6952 1 6958 6959
6953 1 6959 6960
6954 1 6960 6961
6955 1 6961 6962
6956 1 6962 6963
6957 1 6963 6964
6958 1 6964 6965
6959 1 6965 6966
6960 1 6966 6967
6961 1 6967 6968
6962 1 6968 6969
6963 1 6969 6970
6964 1 6970 6971
6965 1 6971 6972
6966 1 6972 6973
6967 1 6973 6974
6968 1 6974 6975
6969 1 6975 6976
6970 1 6976 6977
6971 1 6977 6978
6972 1 6978 6979
6973 1 6979 6980
6974 1 6980 6981
6975 1 6981 6982
6976 1 6982 6983
6977 1 6983 6984
6978 1 6984 6985
6979 1 6985 6986
6980 1 6986 6987
6981 1 6987 6988
6982 1 6988 6989
6983 1 6989 6990
6984 1 6990 6991
6985 1 6991 6992
6986 1 6992 6993
6987 1 6993 6994
6988 1 6994 6995
6989 1 6995 6996
6990 1 6996 6997
6991 1 6997 6998
6992 1 6998 6999
6993 1 6999 7000
6994 1 7001 7002
6995 1 7002 7003
6996 1 7003 7004
6997 1 7004 7005
6998 1 7005 7006
6999 1 7006 7007
7000 1 7007 7008
7001 1 7008 7009
7002 1 7009 7010
7003 1 7010 7011
7004 1 7011 7012
7005 1 7012 7013
7006 1 7013 7014
7007 1 7014 7015
7008 1 7015 7016
7009 1 7016 7017
7010 1 7017 7018
7011 1 7018 7019
7012 1 7019 7020
7013 1 7020 7021
7014 1 7021 7022
7015 1 7022 7023
7016 1 7023 7024
7017 1 7024 7025
7018 1 7025 7026
7019 1 7026 7027
7020 1 7027 7028
7021 1 7028 7029
7022 1 7029 7030
7023 1 7030 7031
7024 1 7031 7032
7025 1 7032 7033
7026 1 7033 7034
7027 1 7034 7035
7028 1 7035 7036
7029 1 7036 7037
7030 1 7037 7038
7031 1 7038 7039
7032 1 7039 7040
7033 1 7040 7041
7034 1 7041 7042
7035 1 7042 7043
7036 1 7043 7044
7037 1 7044 7045
7038 1 7045 7046
7039 1 7046 7047
7040 1 7047 7048
7041 1 7048 7049
7042 1 7049 7050
7043 1 7050 7051
7044 1 7051 7052
7045 1 7052 7053
7046 1 7053 7054
7047 1 7054 7055
7048 1 7055 7056
7049 1 7056 7057
7050 1 7057 7058
7051 1 7058 7059
7052 1 7059 7060
7053 1 7060 7061
7054 1 7061 7062
7055 1 7062 7063
7056 1 7063 7064
7057 1 7064 7065
7058 1 7065 7066
7059 1 7066 7067
7060 1 7067 7068
7061 1 7068 7069
7062 1 7069 7070
7063 1 7070 7071
7064 1 7071 7072
7065 1 7072 7073
7066 1 7073 7074
7067 1 7074 7075
7068 1 7075 7076
7069 1 7076 7077
7070 1 7077 7078
7071 1 7078 7079
7072 1 7079 7080
7073 1 7080 7081
7074 1 7081 7082
7075 1 7082 7083
7076 1 7083 7084
7077 1 7084 7085
7078 1 7085 7086
7079 1 7086 7087
7080 1 7087 7088
7081 1 7088 7089
7082 1 7089 7090
7083 1 7090 7091
7084 1 7091 7092
7085 1 7092 7093
7086 1 7093 7094
7087 1 7094 7095
7088 1 7095 7096
7089 1 7096 7097
7090 1 7097 7098
7091 1 7098 7099
7092 1 7099 7100
7093 1 7100 7101
7094 1 7101 7102
7095 1 7102 7103
7096 1 7103 7104
7097 1 7104 7105
7098 1 7105 7106
7099 1 7106 7107
7100 1 7107 7108
7101 1 7108 7109
7102 1 7109 7110
7103 1 7110 7111
7104 1 7111 7112
7105 1 7112 7113
7106 1 7113 7114
7107 1 7114 7115
7108 1 7115 7116
7109 1 7116 7117
7110 1 7117 7118
7111 1 7118 7119
7112 1 7119 7120
7113 1 7120 7121
7114 1 7121 7122
7115 1 7122 7123
7116 1 7123 7124
7117 1 7124 7125
7118 1 7125 7126
7119 1 7126 7127
7120 1 7127 7128
7121 1 7128 7129
7122 1 7129 7130
7123 1 7130 7131
7124 1 7131 7132
7125 1 7132 7133
7126 1 7133 7134
7127 1 7134 7135
7128 1 7135 7136
7129 1 7136 7137
7130 1 7137 7138
7131 1 7138 7139
7132 1 7139 7140
7133 1 7140 7141
7134 1 7141 7142
7135 1 7142 7143
7136 1 7143 7144
7137 1 7144 7145
7138 1 7145 7146
7139 1 7146 7147
7140 1 7147 7148
7141 1 7148 7149
7142 1 7149 7150
7143 1 7150 7151
7144 1 7151 7152
7145 1 7152 7153
7146 1 7153 7154
7147 1 7154 7155
7148 1 7155 7156
7149 1 7156 7157
7150 1 7157 7158
7151 1 7158 7159
7152 1 7159 7160
7153 1 7160 7161
7154 1 7161 7162
7155 1 7162 7163
7156 1 7163 7164
7157 1 7164 7165
7158 1 7165 7166
7159 1 7166 7167
7160 1 7167 7168
7161 1 7168 7169
7162 1 7169 7170
7163 1 7170 7171
7164 1 7171 7172
7165 1 7172 7173
7166 1 7173 7174
7167 1 7174 7175
7168 1 7175 7176
7169 1 7176 7177
7170 1 7177 7178
7171 1 7178 7179
7172 1 7179 7180
7173 1 7180 7181
7174 1 7181 7182
7175 1 7182 7183
7176 1 7183 7184
7177 1 7184 7185
7178 1 7185 7186
7179 1 7186 7187
7180 1 7187 7188
7181 1 7188 7189
7182 1 7189 7190
7183 1 7190 7191
7184 1 7191 7192
7185 1 7192 7193
7186 1 7193 7194
7187 1 7194 7195
7188 1 7195 7196
7189 1 7196 7197
7190 1 7197 7198
7191 1 7198 7199
7192 1 7199 7200
7193 1 7200 7201
7194 1 7201 7202
7195 1 7202 7203
7196 1 7203 7204
7197 1 7204 7205
7198 1 7205 7206
7199 1 7206 7207
7200 1 7207 7208
7201 1 7208 7209
7202 1 7209 7210
7203 1 7210 7211
7204 1 7211 7212
7205 1 7212 7213
7206 1 7213 7214
7207 1 7214 7215
7208 1 7215 7216
7209 1 7216 7217
7210 1 7217 7218
7211 1 7218 7219
7212 1 7219 7220
7213 1 7220 7221
7214 1 7221 7222
7215 1 7222 7223
7216 1 7223 7224
7217 1 7224 7225
7218 1 7225 7226
7219 1 7226 7227
7220 1 7227 7228
7221 1 7228 7229
7222 1 7229 7230
7223 1 7230 7231
7224 1 7231 7232
7225 1 7232 7233
7226 1 7233 7234
7227 1 7234 7235
7228 1 7235 7236
7229 1 7236 7237
7230 1 7237 7238
7231 1 7238 7239
7232 1 7239 7240
7233 1 7240 7241
7234 1 7241 7242
7235 1 7242 7243
7236 1 7243 7244
7237 1 7244 7245
7238 1 7245 7246
7239 1 7246 7247
7240 1 7247 7248
7241 1 7248 7249
7242 1 7249 7250
7243 1 7250 7251
7244 1 7251 7252
7245 1 7252 7253
7246 1 7253 7254
7247 1 7254 7255
7248 1 7255 7256
7249 1 7256 7257
7250 1 7257 7258
7251 1 7258 7259
7252 1 7259 7260
7253 1 7260 7261
7254 1 7261 7262
7255 1 7262 7263
7256 1 7263 7264
7257 1 7264 7265
7258 1 7265 7266
7259 1 7266 7267
7260 1 7267 7268
7261 1 7268 7269
7262 1 7269 7270
7263 1 7270 7271
7264 1 7271 7272
7265 1 7272 7273
7266 1 7273 7274
7267 1 7274 7275
7268 1 7275 7276
7269 1 7276 7277
7270 1 7277 7278
7271 1 7278 7279
7272 1 7279 7280
7273 1 7280 7281
7274 1 7281 7282
7275 1 7282 7283
7276 1 7283 7284
7277 1 7284 7285
7278 1 7285 7286
7279 1 7286 7287
7280 1 7287 7288
7281 1 7288 7289
7282 1 7289 7290
7283 1 7290 7291
7284 1 7291 7292
7285 1 7292 7293
7286 1 7293 7294
7287 1 7294 7295
7288 1 7295 7296
7289 1 7296 7297
7290 1 7297 7298
7291 1 7298 7299
7292 1 7299 7300
7293 1 7300 7301
7294 1 7301 7302
7295 1 7302 7303
7296 1 7303 7304
7297 1 7304 7305
7298 1 7305 7306
7299 1 7306 7307
7300 1 7307 7308
7301 1 7308 7309
7302 1 7309 7310
7303 1 7310 7311
7304 1 7311 7312
7305 1 7312 7313
7306 1 7313 7314
7307 1 7314 7315
7308 1 7315 7316
7309 1 7316 7317
7310 1 7317 7318
7311 1 7318 7319
7312 1 7319 7320
7313 1 7320 7321
7314 1 7321 7322
7315 1 7322 7323
7316 1 7323 7324
7317 1 7324 7325
7318 1 7325 7326
7319 1 7326 7327
7320 1 7327 7328
7321 1 7328 7329
7322 1 7329 7330
7323 1 7330 7331
7324 1 7331 7332
7325 1 7332 7333
7326 1 7333 7334
7327 1 7334 7335
7328 1 7335 7336
7329 1 7336 7337
7330 1 7337 7338
7331 1 7338 7339
7332 1 7339 7340
7333 1 7340 7341
7334 1 7341 7342
7335 1 7342 7343
7336 1 7343 7344
7337 1 7344 7345
7338 1 7345 7346
7339 1 7346 7347
7340 1 7347 7348
7341 1 7348 7349
7342 1 7349 7350
7343 1 7350 7351
7344 1 7351 7352
7345 1 7352 7353
7346 1 7353 7354
7347 1 7354 7355
7348 1 7355 7356
7349 1 7356 7357
7350 1 7357 7358
7351 1 7358 7359
7352 1 7359 7360
7353 1 7360 7361
7354 1 7361 7362
7355 1 7362 7363
7356 1 7363 7364
7357 1 7364 7365
7358 1 7365 7366
7359 1 7366 7367
7360 1 7367 7368
7361 1 7368 7369
7362 1 7369 7370
7363 1 7370 7371
7364 1 7371 7372
7365 1 7372 7373
7366 1 7373 7374
7367 1 7374 7375
7368 1 7375 7376
7369 1 7376 7377
7370 1 7377 7378
7371 1 7378 7379
7372 1 7379 7380
7373 1 7380 7381
7374 1 7381 7382
7375 1 7382 7383
7376 1 7383 7384
7377 1 7384 7385
7378 1 7385 7386
7379 1 7386 7387
7380 1 7387 7388
7381 1 7388 7389
7382 1 7389 7390
7383 1 7390 7391
7384 1 7391 7392
7385 1 7392 7393
7386 1 7393 7394
7387 1 7394 7395
7388 1 7395 7396
7389 1 7396 7397
7390 1 7397 7398
7391 1 7398 7399
7392 1 7399 7400
7393 1 7400 7401
7394 1 7401 7402
7395 1 7402 7403
7396 1 7403 7404
7397 1 7404 7405
7398 1 7405 7406
7399 1 7406 7407
7400 1 7407 7408
7401 1 7408 7409
7402 1 7409 7410
7403 1 7410 7411
7404 1 7411 7412
7405 1 7412 7413
7406 1 7413 7414
7407 1 7414 7415
7408 1 7415 7416
7409 1 7416 7417
7410 1 7417 7418
7411 1 7418 7419
7412 1 7419 7420
7413 1 7420 7421
7414 1 7421 7422
7415 1 7422 7423
7416 1 7423 7424
7417 1 7424 7425
7418 1 7425 7426
7419 1 7426 7427
7420 1 7427 7428
7421 1 7428 7429
7422 1 7429 7430
7423 1 7430 7431
7424 1 7431 7432
7425 1 7432 7433
7426 1 7433 7434
7427 1 7434 7435
7428 1 7435 7436
7429 1 7436 7437
7430 1 7437 7438
7431 1 7438 7439
7432 1 7439 7440
7433 1 7440 7441
7434 1 7441 7442
7435 1 7442 7443
7436 1 7443 7444
7437 1 7444 7445
7438 1 7445 7446
7439 1 7446 7447
7440 1 7447 7448
7441 1 7448 7449
7442 1 7449 7450
7443 1 7450 7451
7444 1 7451 7452
7445 1 7452 7453
7446 1 7453 7454
7447 1 7454 7455
7448 1 7455 7456
7449 1 7456 7457
7450 1 7457 7458
7451 1 7458 7459
7452 1 7459 7460
7453 1 7460 7461
7454 1 7461 7462
7455 1 7462 7463
7456 1 7463 7464
7457 1 7464 7465
7458 1 7465 7466
7459 1 7466 7467
7460 1 7467 7468
7461 1 7468 7469
7462 1 7469 7470
7463 1 7470 7471
7464 1 7471 7472
7465 1 7472 7473
7466 1 7473 7474
7467 1 7474 7475
7468 1 7475 7476
7469 1 7476 7477
7470 1 7477 7478
7471 1 7478 7479
7472 1 7479 7480
7473 1 7480 7481
7474 1 7481 7482
7475 1 7482 7483
7476 1 7483 7484
7477 1 7484 7485
7478 1 7485 7486
7479 1 7486 7487
7480 1 7487 7488
7481 1 7488 7489
7482 1 7489 7490
7483 1 7490 7491
7484 1 7491 7492
7485 1 7492 7493
7486 1 7493 7494
7487 1 7494 7495
7488 1 7495 7496
7489 1 7496 7497
7490 1 7497 7498
7491 1 7498 7499
7492 1 7499 7500
7493 1 7500 7501
7494 1 7501 7502
7495 1 7502 7503
7496 1 7503 7504
7497 1 7504 7505
7498 1 7505 7506
7499 1 7506 7507
7500 1 7507 7508
7501 1 7508 7509
7502 1 7509 7510
7503 1 7510 7511
7504 1 7511 7512
7505 1 7512 7513
7506 1 7513 7514
7507 1 7514 7515
7508 1 7515 7516
7509 1 7516 7517
7510 1 7517 7518
7511 1 7518 7519
7512 1 7519 7520
7513 1 7520 7521
7514 1 7521 7522
7515 1 7522 7523
7516 1 7523 7524
7517 1 7524 7525
7518 1 7525 7526
7519 1 7526 7527
7520 1 7527 7528
7521 1 7528 7529
7522 1 7529 7530
7523 1 7530 7531
7524 1 7531 7532
7525 1 7532 7533
7526 1 7533 7534
7527 1 7534 7535
7528 1 7535 7536
7529 1 7536 7537
7530 1 7537 7538
7531 1 7538 7539
7532 1 7539 7540
7533 1 7540 7541
7534 1 7541 7542
7535 1 7542 7543
7536 1 7543 7544
7537 1 7544 7545
7538 1 7545 7546
7539 1 7546 7547
7540 1 7547 7548
7541 1 7548 7549
7542 1 7549 7550
7543 1 7550 7551
7544 1 7551 7552
7545 1 7552 7553
7546 1 7553 7554
7547 1 7554 7555
7548 1 7555 7556
7549 1 7556 7557
7550 1 7557 7558
7551 1 7558 7559
7552 1 7559 7560
7553 1 7560 7561
7554 1 7561 7562
7555 1 7562 7563
7556 1 7563 7564
7557 1 7564 7565
7558 1 7565 7566
7559 1 7566 7567
7560 1 7567 7568
7561 1 7568 7569
7562 1 7569 7570
7563 1 7570 7571
7564 1 7571 7572
7565 1 7572 7573
7566 1 7573 7574
7567 1 7574 7575
7568 1 7575 7576
7569 1 7576 7577
7570 1 7577 7578
7571 1 7578 7579
7572 1 7579 7580
7573 1 7580 7581
7574 1 7581 7582
7575 1 7582 7583
7576 1 7583 7584
7577 1 7584 7585
7578 1 7585 7586
7579 1 7586 7587
7580 1 7587 7588
7581 1 7588 7589
7582 1 7589 7590
7583 1 7590 7591
7584 1 7591 7592
7585 1 7592 7593
7586 1 7593 7594
7587 1 7594 7595
7588 1 7595 7596
7589 1 7596 7597
7590 1 7597 7598
7591 1 7598 7599
7592 1 7599 7600
7593 1 7600 7601
7594 1 7601 7602
7595 1 7602 7603
7596 1 7603 7604
7597 1 7604 7605
7598 1 7605 7606
7599 1 7606 7607
7600 1 7607 7608
7601 1 7608 7609
7602 1 7609 7610
7603 1 7610 7611
7604 1 7611 7612
7605 1 7612 7613
7606 1 7613 7614
7607 1 7614 7615
7608 1 7615 7616
7609 1 7616 7617
7610 1 7617 7618
7611 1 7618 7619
7612 1 7619 7620
7613 1 7620 7621
7614 1 7621 7622
7615 1 7622 7623
7616 1 7623 7624
7617 1 7624 7625
7618 1 7625 7626
7619 1 7626 7627
7620 1 7627 7628
7621 1 7628 7629
7622 1 7629 7630
7623 1 7630 7631
7624 1 7631 7632
7625 1 7632 7633
7626 1 7633 7634
7627 1 7634 7635
7628 1 7635 7636
7629 1 7636 7637
7630 1 7637 7638
7631 1 7638 7639
7632 1 7639 7640
7633 1 7640 7641
7634 1 7641 7642
7635 1 7642 7643
7636 1 7643 7644
7637 1 7644 7645
7638 1 7645 7646
7639 1 7646 7647
7640 1 7647 7648
7641 1 7648 7649
7642 1 7649 7650
7643 1 7650 7651
7644 1 7651 7652
7645 1 7652 7653
7646 1 7653 7654
7647 1 7654 7655
7648 1 7655 7656
7649 1 7656 7657
7650 1 7657 7658
7651 1 7658 7659
7652 1 7659 7660
7653 1 7660 7661
7654 1 7661 7662
7655 1 7662 7663
7656 1 7663 7664
7657 1 7664 7665
7658 1 7665 7666
7659 1 7666 7667
7660 1 7667 7668
7661 1 7668 7669
7662 1 7669 7670
7663 1 7670 7671
7664 1 7671 7672
7665 1 7672 7673
7666 1 7673 7674
7667 1 7674 7675
7668 1 7675 7676
7669 1 7676 7677
7670 1 7677 7678
7671 1 7678 7679
7672 1 7679 7680
7673 1 7680 7681
7674 1 7681 7682
7675 1 7682 7683
7676 1 7683 7684
7677 1 7684 7685
7678 1 7685 7686
7679 1 7686 7687
7680 1 7687 7688
7681 1 7688 7689
7682 1 7689 7690
7683 1 7690 7691
7684 1 7691 7692
7685 1 7692 7693
7686 1 7693 7694
7687 1 7694 7695
7688 1 7695 7696
7689 1 7696 7697
7690 1 7697 7698
7691 1 7698 7699
7692 1 7699 7700
7693 1 7700 7701
7694 1 7701 7702
7695 1 7702 7703
7696 1 7703 7704
7697 1 7704 7705
7698 1 7705 7706
7699 1 7706 7707
7700 1 7707 7708
7701 1 7708 7709
7702 1 7709 7710
7703 1 7710 7711
7704 1 7711 7712
7705 1 7712 7713
7706 1 7713 7714
7707 1 7714 7715
7708 1 7715 7716
7709 1 7716 7717
7710 1 7717 7718
7711 1 7718 7719
7712 1 7719 7720
7713 1 7720 7721
7714 1 7721 7722
7715 1 7722 7723
7716 1 7723 7724
7717 1 7724 7725
7718 1 7725 7726
7719 1 7726 7727
7720 1 7727 7728
7721 1 7728 7729
7722 1 7729 7730
7723 1 7730 7731
7724 1 7731 7732
7725 1 7732 7733
7726 1 7733 7734
7727 1 7734 7735
7728 1 7735 7736
7729 1 7736 7737
7730 1 7737 7738
7731 1 7738 7739
7732 1 7739 7740
7733 1 7740 7741
7734 1 7741 7742
7735 1 7742 7743
7736 1 7743 7744
7737 1 7744 7745
7738 1 7745 7746
7739 1 7746 7747
7740 1 7747 7748
7741 1 7748 7749
7742 1 7749 7750
7743 1 7750 7751
7744 1 7751 7752
7745 1 7752 7753
7746 1 7753 7754
7747 1 7754 7755
7748 1 7755 7756
7749 1 7756 7757
7750 1 7757 7758
7751 1 7758 7759
7752 1 7759 7760
7753 1 7760 7761
7754 1 7761 7762
7755 1 7762 7763
7756 1 7763 7764
7757 1 7764 7765
7758 1 7765 7766
7759 1 7766 7767
7760 1 7767 7768
7761 1 7768 7769
7762 1 7769 7770
7763 1 7770 7771
7764 1 7771 7772
7765 1 7772 7773
7766 1 7773 7774
7767 1 7774 7775
7768 1 7775 7776
7769 1 7776 7777
7770 1 7777 7778
7771 1 7778 7779
7772 1 7779 7780
7773 1 7780 7781
7774 1 7781 7782
7775 1 7782 7783
7776 1 7783 7784
7777 1 7784 7785
7778 1 7785 7786
7779 1 7786 7787
7780 1 7787 7788
7781 1 7788 7789
7782 1 7789 7790
7783 1 7790 7791
7784 1 7791 7792
7785 1 7792 7793
7786 1 7793 7794
7787 1 7794 7795
7788 1 7795 7796
7789 1 7796 7797
7790 1 7797 7798
7791 1 7798 7799
7792 1 7799 7800
7793 1 7800 7801
7794 1 7801 7802
7795 1 7802 7803
7796 1 7803 7804
7797 1 7804 7805
7798 1 7805 7806
7799 1 7806 7807
7800 1 7807 7808
7801 1 7808 7809
7802 1 7809 7810
7803 1 7810 7811
7804 1 7811 7812
7805 1 7812 7813
7806 1 7813 7814
7807 1 7814 7815
7808 1 7815 7816
7809 1 7816 7817
7810 1 7817 7818
7811 1 7818 7819
7812 1 7819 7820
7813 1 7820 7821
7814 1 7821 7822
7815 1 7822 7823
7816 1 7823 7824
7817 1 7824 7825
7818 1 7825 7826
7819 1 7826 7827
7820 1 7827 7828
7821 1 7828 7829
7822 1 7829 7830
7823 1 7830 7831
7824 1 7831 7832
7825 1 7832 7833
7826 1 7833 7834
7827 1 7834 7835
7828 1 7835 7836
7829 1 7836 7837
7830 1 7837 7838
7831 1 7838 7839
7832 1 7839 7840
7833 1 7840 7841
7834 1 7841 7842
7835 1 7842 7843
7836 1 7843 7844
7837 1 7844 7845
7838 1 7845 7846
7839 1 7846 7847
7840 1 7847 7848
7841 1 7848 7849
7842 1 7849 7850
7843 1 7850 7851
7844 1 7851 7852
7845 1 7852 7853
7846 1 7853 7854
7847 1 7854 7855
7848 1 7855 7856
7849 1 7856 7857
7850 1 7857 7858
7851 1 7858 7859
7852 1 7859 7860
7853 1 7860 7861
7854 1 7861 7862
7855 1 7862 7863
7856 1 7863 7864
7857 1 7864 7865
7858 1 7865 7866
7859 1 7866 7867
7860 1 7867 7868
7861 1 7868 7869
7862 1 7869 7870
7863 1 7870 7871
7864 1 7871 7872
7865 1 7872 7873
7866 1 7873 7874
7867 1 7874 7875
7868 1 7875 7876
7869 1 7876 7877
7870 1 7877 7878
7871 1 7878 7879
7872 1 7879 7880
7873 1 7880 7881
7874 1 7881 7882
7875 1 7882 7883
7876 1 7883 7884
7877 1 7884 7885
7878 1 7885 7886
7879 1 7886 7887
7880 1 7887 7888
7881 1 7888 7889
7882 1 7889 7890
7883 1 7890 7891
7884 1 7891 7892
7885 1 7892 7893
7886 1 7893 7894
7887 1 7894 7895
7888 1 7895 7896
7889 1 7896 7897
7890 1 7897 7898
7891 1 7898 7899
7892 1 7899 7900
7893 1 7900 7901
7894 1 7901 7902
7895 1 7902 7903
7896 1 7903 7904
7897 1 7904 7905
7898 1 7905 7906
7899 1 7906 7907
7900 1 7907 7908
7901 1 7908 7909
7902 1 7909 7910
7903 1 7910 7911
7904 1 7911 7912
7905 1 7912 7913
7906 1 7913 7914
7907 1 7914 7915
7908 1 7915 7916
7909 1 7916 7917
7910 1 7917 7918
7911 1 7918 7919
7912 1 7919 7920
7913 1 7920 7921
7914 1 7921 7922
7915 1 7922 7923
7916 1 7923 7924
7917 1 7924 7925
7918 1 7925 7926
7919 1 7926 7927
7920 1 7927 7928
7921 1 7928 7929
7922 1 7929 7930
7923 1 7930 7931
7924 1 7931 7932
7925 1 7932 7933
7926 1 7933 7934
7927 1 7934 7935
7928 1 7935 7936
7929 1 7936 7937
7930 1 7937 7938
7931 1 7938 7939
7932 1 7939 7940
7933 1 7940 7941
7934 1 7941 7942
7935 1 7942 7943
7936 1 7943 7944
7937 1 7944 7945
7938 1 7945 7946
7939 1 7946 7947
7940 1 7947 7948
7941 1 7948 7949
7942 1 7949 7950
7943 1 7950 7951
7944 1 7951 7952
7945 1 7952 7953
7946 1 7953 7954
7947 1 7954 7955
7948 1 7955 7956
7949 1 7956 7957
7950 1 7957 7958
7951 1 7958 7959
7952 1 7959 7960
7953 1 7960 7961
7954 1 7961 7962
7955 1 7962 7963
7956 1 7963 7964
7957 1 7964 7965
7958 1 7965 7966
7959 1 7966 7967
7960 1 7967 7968
7961 1 7968 7969
7962 1 7969 7970
7963 1 7970 7971
7964 1 7971 7972
7965 1 7972 7973
7966 1 7973 7974
7967 1 7974 7975
7968 1 7975 7976
7969 1 7976 7977
7970 1 7977 7978
7971 1 7978 7979
7972 1 7979 7980
7973 1 7980 7981
7974 1 7981 7982
7975 1 7982 7983
7976 1 7983 7984
7977 1 7984 7985
7978 1 7985 7986
7979 1 7986 7987
7980 1 7987 7988
7981 1 7988 7989
7982 1 7989 7990
7983 1 7990 7991
7984 1 7991 7992
7985 1 7992 7993
7986 1 7993 7994
7987 1 7994 7995
7988 1 7995 7996
7989 1 7996 7997
7990 1 7997 7998
7991 1 7998 7999
7992 1 7999 8000
7993 1 8001 8002
7994 1 8002 8003
7995 1 8003 8004
7996 1 8004 8005
7997 1 8005 8006
7998 1 8006 8007
7999 1 8007 8008
8000 1 8008 8009
8001 1 8009 8010
8002 1 8010 8011
8003 1 8011 8012
8004 1 8012 8013
8005 1 8013 8014
8006 1 8014 8015
8007 1 8015 8016
8008 1 8016 8017
8009 1 8017 8018
8010 1 8018 8019
8011 1 8019 8020
8012 1 8020 8021
8013 1 8021 8022
8014 1 8022 8023
8015 1 8023 8024
8016 1 8024 8025
8017 1 8025 8026
8018 1 8026 8027
8019 1 8027 8028
8020 1 8028 8029
8021 1 8029 8030
8022 1 8030 8031
8023 1 8031 8032
8024 1 8032 8033
8025 1 8033 8034
8026 1 8034 8035
8027 1 8035 8036
8028 1 8036 8037
8029 1 8037 8038
8030 1 8038 8039
8031 1 8039 8040
8032 1 8040 8041
8033 1 8041 8042
8034 1 8042 8043
8035 1 8043 8044
8036 1 8044 8045
8037 1 8045 8046
8038 1 8046 8047
8039 1 8047 8048
8040 1 8048 8049
8041 1 8049 8050
8042 1 8050 8051
8043 1 8051 8052
8044 1 8052 8053
8045 1 8053 8054
8046 1 8054 8055
8047 1 8055 8056
8048 1 8056 8057
8049 1 8057 8058
8050 1 8058 8059
8051 1 8059 8060
8052 1 8060 8061
8053 1 8061 8062
8054 1 8062 8063
8055 1 8063 8064
8056 1 8064 8065
8057 1 8065 8066
8058 1 8066 8067
8059 1 8067 8068
8060 1 8068 8069
8061 1 8069 8070
8062 1 8070 8071
8063 1 8071 8072
8064 1 8072 8073
8065 1 8073 8074
8066 1 8074 8075
8067 1 8075 8076
8068 1 8076 8077
8069 1 8077 8078
8070 1 8078 8079
8071 1 8079 8080
8072 1 8080 8081
8073 1 8081 8082
8074 1 8082 8083
8075 1 8083 8084
8076 1 8084 8085
8077 1 8085 8086
8078 1 8086 8087
8079 1 8087 8088
8080 1 8088 8089
8081 1 8089 8090
8082 1 8090 8091
8083 1 8091 8092
8084 1 8092 8093
8085 1 8093 8094
8086 1 8094 8095
8087 1 8095 8096
8088 1 8096 8097
8089 1 8097 8098
8090 1 8098 8099
8091 1 8099 8100
8092 1 8100 8101
8093 1 8101 8102
8094 1 8102 8103
8095 1 8103 8104
8096 1 8104 8105
8097 1 8105 8106
8098 1 8106 8107
8099 1 8107 8108
8100 1 8108 8109
8101 1 8109 8110
8102 1 8110 8111
8103 1 8111 8112
8104 1 8112 8113
8105 1 8113 8114
8106 1 8114 8115
8107 1 8115 8116
8108 1 8116 8117
8109 1 8117 8118
8110 1 8118 8119
8111 1 8119 8120
8112 1 8120 8121
8113 1 8121 8122
8114 1 8122 8123
8115 1 8123 8124
8116 1 8124 8125
8117 1 8125 8126
8118 1 8126 8127
8119 1 8127 8128
8120 1 8128 8129
8121 1 8129 8130
8122 1 8130 8131
8123 1 8131 8132
8124 1 8132 8133
8125 1 8133 8134
8126 1 8134 8135
8127 1 8135 8136
8128 1 8136 8137
8129 1 8137 8138
8130 1 8138 8139
8131 1 8139 8140
8132 1 8140 8141
8133 1 8141 8142
8134 1 8142 8143
8135 1 8143 8144
8136 1 8144 8145
8137 1 8145 8146
8138 1 8146 8147
8139 1 8147 8148
8140 1 8148 8149
8141 1 8149 8150
8142 1 8150 8151
8143 1 8151 8152
8144 1 8152 8153
8145 1 8153 8154
8146 1 8154 8155
8147 1 8155 8156
8148 1 8156 8157
8149 1 8157 8158
8150 1 8158 8159
8151 1 8159 8160
8152 1 8160 8161
8153 1 8161 8162
8154 1 8162 8163
8155 1 8163 8164
8156 1 8164 8165
8157 1 8165 8166
8158 1 8166 8167
8159 1 8167 8168
8160 1 8168 8169
8161 1 8169 8170
8162 1 8170 8171
8163 1 8171 8172
8164 1 8172 8173
8165 1 8173 8174
8166 1 8174 8175
8167 1 8175 8176
8168 1 8176 8177
8169 1 8177 8178
8170 1 8178 8179
8171 1 8179 8180
8172 1 8180 8181
8173 1 8181 8182
8174 1 8182 8183
8175 1 8183 8184
8176 1 8184 8185
8177 1 8185 8186
8178 1 8186 8187
8179 1 8187 8188
8180 1 8188 8189
8181 1 8189 8190
8182 1 8190 8191
8183 1 8191 8192
8184 1 8192 8193
8185 1 8193 8194
8186 1 8194 8195
8187 1 8195 8196
8188 1 8196 8197
8189 1 8197 8198
8190 1 8198 8199
8191 1 8199 8200
8192 1 8200 8201
8193 1 8201 8202
8194 1 8202 8203
8195 1 8203 8204
8196 1 8204 8205
8197 1 8205 8206
8198 1 8206 8207
8199 1 8207 8208
8200 1 8208 8209
8201 1 8209 8210
8202 1 8210 8211
8203 1 8211 8212
8204 1 8212 8213
8205 1 8213 8214
8206 1 8214 8215
8207 1 8215 8216
8208 1 8216 8217
8209 1 8217 8218
8210 1 8218 8219
8211 1 8219 8220
8212 1 8220 8221
8213 1 8221 8222
8214 1 8222 8223
8215 1 8223 8224
8216 1 8224 8225
8217 1 8225 8226
8218 1 8226 8227
8219 1 8227 8228
8220 1 8228 8229
8221 1 8229 8230
8222 1 8230 8231
8223 1 8231 8232
8224 1 8232 8233
8225 1 8233 8234
8226 1 8234 8235
8227 1 8235 8236
8228 1 8236 8237
8229 1 8237 8238
8230 1 8238 8239
8231 1 8239 8240
8232 1 8240 8241
8233 1 8241 8242
8234 1 8242 8243
8235 1 8243 8244
8236 1 8244 8245
8237 1 8245 8246
8238 1 8246 8247
8239 1 8247 8248
8240 1 8248 8249
8241 1 8249 8250
8242 1 8250 8251
8243 1 8251 8252
8244 1 8252 8253
8245 1 8253 8254
8246 1 8254 8255
8247 1 8255 8256
8248 1 8256 8257
8249 1 8257 8258
8250 1 8258 8259
8251 1 8259 8260
8252 1 8260 8261
8253 1 8261 8262
8254 1 8262 8263
8255 1 8263 8264
8256 1 8264 8265
8257 1 8265 8266
8258 1 8266 8267
8259 1 8267 8268
8260 1 8268 8269
8261 1 8269 8270
8262 1 8270 8271
8263 1 8271 8272
8264 1 8272 8273
8265 1 8273 8274
8266 1 8274 8275
8267 1 8275 8276
8268 1 8276 8277
8269 1 8277 8278
8270 1 8278 8279
8271 1 8279 8280
8272 1 8280 8281
8273 1 8281 8282
8274 1 8282 8283
8275 1 8283 8284
8276 1 8284 8285
8277 1 8285 8286
8278 1 8286 8287
8279 1 8287 8288
8280 1 8288 8289
8281 1 8289 8290
8282 1 8290 8291
8283 1 8291 8292
8284 1 8292 8293
8285 1 8293 8294
8286 1 8294 8295
8287 1 8295 8296
8288 1 8296 8297
8289 1 8297 8298
8290 1 8298 8299
8291 1 8299 8300
8292 1 8300 8301
8293 1 8301 8302
8294 1 8302 8303
8295 1 8303 8304
8296 1 8304 8305
8297 1 8305 8306
8298 1 8306 8307
8299 1 8307 8308
8300 1 8308 8309
8301 1 8309 8310
8302 1 8310 8311
8303 1 8311 8312
8304 1 8312 8313
8305 1 8313 8314
8306 1 8314 8315
8307 1 8315 8316
8308 1 8316 8317
8309 1 8317 8318
8310 1 8318 8319
8311 1 8319 8320
8312 1 8320 8321
8313 1 8321 8322
8314 1 8322 8323
8315 1 8323 8324
8316 1 8324 8325
8317 1 8325 8326
8318 1 8326 8327
8319 1 8327 8328
8320 1 8328 8329
8321 1 8329 8330
8322 1 8330 8331
8323 1 8331 8332
8324 1 8332 8333
8325 1 8333 8334
8326 1 8334 8335
8327 1 8335 8336
8328 1 8336 8337
8329 1 8337 8338
8330 1 8338 8339
8331 1 8339 8340
8332 1 8340 8341
8333 1 8341 8342
8334 1 8342 8343
8335 1 8343 8344
8336 1 8344 8345
8337 1 8345 8346
8338 1 8346 8347
8339 1 8347 8348
8340 1 8348 8349
8341 1 8349 8350
8342 1 8350 8351
8343 1 8351 8352
8344 1 8352 8353
8345 1 8353 8354
8346 1 8354 8355
8347 1 8355 8356
8348 1 8356 8357
8349 1 8357 8358
8350 1 8358 8359
8351 1 8359 8360
8352 1 8360 8361
8353 1 8361 8362
8354 1 8362 8363
8355 1 8363 8364
8356 1 8364 8365
8357 1 8365 8366
8358 1 8366 8367
8359 1 8367 8368
8360 1 8368 8369
8361 1 8369 8370
8362 1 8370 8371
8363 1 8371 8372
8364 1 8372 8373
8365 1 8373 8374
8366 1 8374 8375
8367 1 8375 8376
8368 1 8376 8377
8369 1 8377 8378
8370 1 8378 8379
8371 1 8379 8380
8372 1 8380 8381
8373 1 8381 8382
8374 1 8382 8383
8375 1 8383 8384
8376 1 8384 8385
8377 1 8385 8386
8378 1 8386 8387
8379 1 8387 8388
8380 1 8388 8389
8381 1 8389 8390
8382 1 8390 8391
8383 1 8391 8392
8384 1 8392 8393
8385 1 8393 8394
8386 1 8394 8395
8387 1 8395 8396
8388 1 8396 8397
8389 1 8397 8398
8390 1 8398 8399
8391 1 8399 8400
8392 1 8400 8401
8393 1 8401 8402
8394 1 8402 8403
8395 1 8403 8404
8396 1 8404 8405
8397 1 8405 8406
8398 1 8406 8407
8399 1 8407 8408
8400 1 8408 8409
8401 1 8409 8410
8402 1 8410 8411
8403 1 8411 8412
8404 1 8412 8413
8405 1 8413 8414
8406 1 8414 8415
8407 1 8415 8416
8408 1 8416 8417
8409 1 8417 8418
8410 1 8418 8419
8411 1 8419 8420
8412 1 8420 8421
8413 1 8421 8422
8414 1 8422 8423
8415 1 8423 8424
8416 1 8424 8425
8417 1 8425 8426
8418 1 8426 8427
8419 1 8427 8428
8420 1 8428 8429
8421 1 8429 8430
8422 1 8430 8431
8423 1 8431 8432
8424 1 8432 8433
8425 1 8433 8434
8426 1 8434 8435
8427 1 8435 8436
8428 1 8436 8437
8429 1 8437 8438
8430 1 8438 8439
8431 1 8439 8440
8432 1 8440 8441
8433 1 8441 8442
8434 1 8442 8443
8435 1 8443 8444
8436 1 8444 8445
8437 1 8445 8446
8438 1 8446 8447
8439 1 8447 8448
8440 1 8448 8449
8441 1 8449 8450
8442 1 8450 8451
8443 1 8451 8452
8444 1 8452 8453
8445 1 8453 8454
8446 1 8454 8455
8447 1 8455 8456
8448 1 8456 8457
8449 1 8457 8458
8450 1 8458 8459
8451 1 8459 8460
8452 1 8460 8461
8453 1 8461 8462
8454 1 8462 8463
8455 1 8463 8464
8456 1 8464 8465
8457 1 8465 8466
8458 1 8466 8467
8459 1 8467 8468
8460 1 8468 8469
8461 1 8469 8470
8462 1 8470 8471
8463 1 8471 8472
8464 1 8472 8473
8465 1 8473 8474
8466 1 8474 8475
8467 1 8475 8476
8468 1 8476 8477
8469 1 8477 8478
8470 1 8478 8479
8471 1 8479 8480
8472 1 8480 8481
8473 1 8481 8482
8474 1 8482 8483
8475 1 8483 8484
8476 1 8484 8485
8477 1 8485 8486
8478 1 8486 8487
8479 1 8487 8488
8480 1 8488 8489
8481 1 8489 8490
8482 1 8490 8491
8483 1 8491 8492
8484 1 8492 8493
8485 1 8493 8494
8486 1 8494 8495
8487 1 8495 8496
8488 1 8496 8497
8489 1 8497 8498
8490 1 8498 8499
8491 1 8499 8500
8492 1 8500 8501
8493 1 8501 8502
8494 1 8502 8503
8495 1 8503 8504
8496 1 8504 8505
8497 1 8505 8506
8498 1 8506 8507
8499 1 8507 8508
8500 1 8508 8509
8501 1 8509 8510
8502 1 8510 8511
8503 1 8511 8512
8504 1 8512 8513
8505 1 8513 8514
8506 1 8514 8515
8507 1 8515 8516
8508 1 8516 8517
8509 1 8517 8518
8510 1 8518 8519
8511 1 8519 8520
8512 1 8520 8521
8513 1 8521 8522
8514 1 8522 8523
8515 1 8523 8524
8516 1 8524 8525
8517 1 8525 8526
8518 1 8526 8527
8519 1 8527 8528
8520 1 8528 8529
8521 1 8529 8530
8522 1 8530 8531
8523 1 8531 8532
8524 1 8532 8533
8525 1 8533 8534
8526 1 8534 8535
8527 1 8535 8536
8528 1 8536 8537
8529 1 8537 8538
8530 1 8538 8539
8531 1 8539 8540
8532 1 8540 8541
8533 1 8541 8542
8534 1 8542 8543
8535 1 8543 8544
8536 1 8544 8545
8537 1 8545 8546
8538 1 8546 8547
8539 1 8547 8548
8540 1 8548 8549
8541 1 8549 8550
8542 1 8550 8551
8543 1 8551 8552
8544 1 8552 8553
8545 1 8553 8554
8546 1 8554 8555
8547 1 8555 8556
8548 1 8556 8557
8549 1 8557 8558
8550 1 8558 8559
8551 1 8559 8560
8552 1 8560 8561
8553 1 8561 8562
8554 1 8562 8563
8555 1 8563 8564
8556 1 8564 8565
8557 1 8565 8566
8558 1 8566 8567
8559 1 8567 8568
8560 1 8568 8569
8561 1 8569 8570
8562 1 8570 8571
8563 1 8571 8572
8564 1 8572 8573
8565 1 8573 8574
8566 1 8574 8575
8567 1 8575 8576
8568 1 8576 8577
8569 1 8577 8578
8570 1 8578 8579
8571 1 8579 8580
8572 1 8580 8581
8573 1 8581 8582
8574 1 8582 8583
8575 1 8583 8584
8576 1 8584 8585
8577 1 8585 8586
8578 1 8586 8587
8579 1 8587 8588
8580 1 8588 8589
8581 1 8589 8590
8582 1 8590 8591
8583 1 8591 8592
8584 1 8592 8593
8585 1 8593 8594
8586 1 8594 8595
8587 1 8595 8596
8588 1 8596 8597
8589 1 8597 8598
8590 1 8598 8599
8591 1 8599 8600
8592 1 8600 8601
8593 1 8601 8602
8594 1 8602 8603
8595 1 8603 8604
8596 1 8604 8605
8597 1 8605 8606
8598 1 8606 8607
8599 1 8607 8608
8600 1 8608 8609
8601 1 8609 8610
8602 1 8610 8611
8603 1 8611 8612
8604 1 8612 8613
8605 1 8613 8614
8606 1 8614 8615
8607 1 8615 8616
8608 1 8616 8617
8609 1 8617 8618
8610 1 8618 8619
8611 1 8619 8620
8612 1 8620 8621
8613 1 8621 8622
8614 1 8622 8623
8615 1 8623 8624
8616 1 8624 8625
8617 1 8625 8626
8618 1 8626 8627
8619 1 8627 8628
8620 1 8628 8629
8621 1 8629 8630
8622 1 8630 8631
8623 1 8631 8632
8624 1 8632 8633
8625 1 8633 8634
8626 1 8634 8635
8627 1 8635 8636
8628 1 8636 8637
8629 1 8637 8638
8630 1 8638 8639
8631 1 8639 8640
8632 1 8640 8641
8633 1 8641 8642
8634 1 8642 8643
8635 1 8643 8644
8636 1 8644 8645
8637 1 8645 8646
8638 1 8646 8647
8639 1 8647 8648
8640 1 8648 8649
8641 1 8649 8650
8642 1 8650 8651
8643 1 8651 8652
8644 1 8652 8653
8645 1 8653 8654
8646 1 8654 8655
8647 1 8655 8656
8648 1 8656 8657
8649 1 8657 8658
8650 1 8658 8659
8651 1 8659 8660
8652 1 8660 8661
8653 1 8661 8662
8654 1 8662 8663
8655 1 8663 8664
8656 1 8664 8665
8657 1 8665 8666
8658 1 8666 8667
8659 1 8667 8668
8660 1 8668 8669
8661 1 8669 8670
8662 1 8670 8671
8663 1 8671 8672
8664 1 8672 8673
8665 1 8673 8674
8666 1 8674 8675
8667 1 8675 8676
8668 1 8676 8677
8669 1 8677 8678
8670 1 8678 8679
8671 1 8679 8680
8672 1 8680 8681
8673 1 8681 8682
8674 1 8682 8683
8675 1 8683 8684
8676 1 8684 8685
8677 1 8685 8686
8678 1 8686 8687
8679 1 8687 8688
8680 1 8688 8689
8681 1 8689 8690
8682 1 8690 8691
8683 1 8691 8692
8684 1 8692 8693
8685 1 8693 8694
8686 1 8694 8695
8687 1 8695 8696
8688 1 8696 8697
8689 1 8697 8698
8690 1 8698 8699
8691 1 8699 8700
8692 1 8700 8701
8693 1 8701 8702
8694 1 8702 8703
8695 1 8703 8704
8696 1 8704 8705
8697 1 8705 8706
8698 1 8706 8707
8699 1 8707 8708
8700 1 8708 8709
8701 1 8709 8710
8702 1 8710 8711
8703 1 8711 8712
8704 1 8712 8713
8705 1 8713 8714
8706 1 8714 8715
8707 1 8715 8716
8708 1 8716 8717
8709 1 8717 8718
8710 1 8718 8719
8711 1 8719 8720
8712 1 8720 8721
8713 1 8721 8722
8714 1 8722 8723
8715 1 8723 8724
8716 1 8724 8725
8717 1 8725 8726
8718 1 8726 8727
8719 1 8727 8728
8720 1 8728 8729
8721 1 8729 8730
8722 1 8730 8731
8723 1 8731 8732
8724 1 8732 8733
8725 1 8733 8734
8726 1 8734 8735
8727 1 8735 8736
8728 1 8736 8737
8729 1 8737 8738
8730 1 8738 8739
8731 1 8739 8740
8732 1 8740 8741
8733 1 8741 8742
8734 1 8742 8743
8735 1 8743 8744
8736 1 8744 8745
8737 1 8745 8746
8738 1 8746 8747
8739 1 8747 8748
8740 1 8748 8749
8741 1 8749 8750
8742 1 8750 8751
8743 1 8751 8752
8744 1 8752 8753
8745 1 8753 8754
8746 1 8754 8755
8747 1 8755 8756
8748 1 8756 8757
8749 1 8757 8758
8750 1 8758 8759
8751 1 8759 8760
8752 1 8760 8761
8753 1 8761 8762
8754 1 8762 8763
8755 1 8763 8764
8756 1 8764 8765
8757 1 8765 8766
8758 1 8766 8767
8759 1 8767 8768
8760 1 8768 8769
8761 1 8769 8770
8762 1 8770 8771
8763 1 8771 8772
8764 1 8772 8773
8765 1 8773 8774
8766 1 8774 8775
8767 1 8775 8776
8768 1 8776 8777
8769 1 8777 8778
8770 1 8778 8779
8771 1 8779 8780
8772 1 8780 8781
8773 1 8781 8782
8774 1 8782 8783
8775 1 8783 8784
8776 1 8784 8785
8777 1 8785 8786
8778 1 8786 8787
8779 1 8787 8788
8780 1 8788 8789
8781 1 8789 8790
8782 1 8790 8791
8783 1 8791 8792
8784 1 8792 8793
8785 1 8793 8794
8786 1 8794 8795
8787 1 8795 8796
8788 1 8796 8797
8789 1 8797 8798
8790 1 8798 8799
8791 1 8799 8800
8792 1 8800 8801
8793 1 8801 8802
8794 1 8802 8803
8795 1 8803 8804
8796 1 8804 8805
8797 1 8805 8806
8798 1 8806 8807
8799 1 8807 8808
8800 1 8808 8809
8801 1 8809 8810
8802 1 8810 8811
8803 1 8811 8812
8804 1 8812 8813
8805 1 8813 8814
8806 1 8814 8815
8807 1 8815 8816
8808 1 8816 8817
8809 1 8817 8818
8810 1 8818 8819
8811 1 8819 8820
8812 1 8820 8821
8813 1 8821 8822
8814 1 8822 8823
8815 1 8823 8824
8816 1 8824 8825
8817 1 8825 8826
8818 1 8826 8827
8819 1 8827 8828
8820 1 8828 8829
8821 1 8829 8830
8822 1 8830 8831
8823 1 8831 8832
8824 1 8832 8833
8825 1 8833 8834
8826 1 8834 8835
8827 1 8835 8836
8828 1 8836 8837
8829 1 8837 8838
8830 1 8838 8839
8831 1 8839 8840
8832 1 8840 8841
8833 1 8841 8842
8834 1 8842 8843
8835 1 8843 8844
8836 1 8844 8845
8837 1 8845 8846
8838 1 8846 8847
8839 1 8847 8848
8840 1 8848 8849
8841 1 8849 8850
8842 1 8850 8851
8843 1 8851 8852
8844 1 8852 8853
8845 1 8853 8854
8846 1 8854 8855
8847 1 8855 8856
8848 1 8856 8857
8849 1 8857 8858
8850 1 8858 8859
8851 1 8859 8860
8852 1 8860 8861
8853 1 8861 8862
8854 1 8862 8863
8855 1 8863 8864
8856 1 8864 8865
8857 1 8865 8866
8858 1 8866 8867
8859 1 8867 8868
8860 1 8868 8869
8861 1 8869 8870
8862 1 8870 8871
8863 1 8871 8872
8864 1 8872 8873
8865 1 8873 8874
8866 1 8874 8875
8867 1 8875 8876
8868 1 8876 8877
8869 1 8877 8878
8870 1 8878 8879
8871 1 8879 8880
8872 1 8880 8881
8873 1 8881 8882
8874 1 8882 8883
8875 1 8883 8884
8876 1 8884 8885
8877 1 8885 8886
8878 1 8886 8887
8879 1 8887 8888
8880 1 8888 8889
8881 1 8889 8890
8882 1 8890 8891
8883 1 8891 8892
8884 1 8892 8893
8885 1 8893 8894
8886 1 8894 8895
8887 1 8895 8896
8888 1 8896 8897
8889 1 8897 8898
8890 1 8898 8899
8891 1 8899 8900
8892 1 8900 8901
8893 1 8901 8902
8894 1 8902 8903
8895 1 8903 8904
8896 1 8904 8905
8897 1 8905 8906
8898 1 8906 8907
8899 1 8907 8908
8900 1 8908 8909
8901 1 8909 8910
8902 1 8910 8911
8903 1 8911 8912
8904 1 8912 8913
8905 1 8913 8914
8906 1 8914 8915
8907 1 8915 8916
8908 1 8916 8917
8909 1 8917 8918
8910 1 8918 8919
8911 1 8919 8920
8912 1 8920 8921
8913 1 8921 8922
8914 1 8922 8923
8915 1 8923 8924
8916 1 8924 8925
8917 1 8925 8926
8918 1 8926 8927
8919 1 8927 8928
8920 1 8928 8929
8921 1 8929 8930
8922 1 8930 8931
8923 1 8931 8932
8924 1 8932 8933
8925 1 8933 8934
8926 1 8934 8935
8927 1 8935 8936
8928 1 8936 8937
8929 1 8937 8938
8930 1 8938 8939
8931 1 8939 8940
8932 1 8940 8941
8933 1 8941 8942
8934 1 8942 8943
8935 1 8943 8944
8936 1 8944 8945
8937 1 8945 8946
8938 1 8946 8947
8939 1 8947 8948
8940 1 8948 8949
8941 1 8949 8950
8942 1 8950 8951
8943 1 8951 8952
8944 1 8952 8953
8945 1 8953 8954
8946 1 8954 8955
8947 1 8955 8956
8948 1 8956 8957
8949 1 8957 8958
8950 1 8958 8959
8951 1 8959 8960
8952 1 8960 8961
8953 1 8961 8962
8954 1 8962 8963
8955 1 8963 8964
8956 1 8964 8965
8957 1 8965 8966
8958 1 8966 8967
8959 1 8967 8968
8960 1 8968 8969
8961 1 8969 8970
8962 1 8970 8971
8963 1 8971 8972
8964 1 8972 8973
8965 1 8973 8974
8966 1 8974 8975
8967 1 8975 8976
8968 1 8976 8977
8969 1 8977 8978
8970 1 8978 8979
8971 1 8979 8980
8972 1 8980 8981
8973 1 8981 8982
8974 1 8982 8983
8975 1 8983 8984
8976 1 8984 8985
8977 1 8985 8986
8978 1 8986 8987
8979 1 8987 8988
8980 1 8988 8989
8981 1 8989 8990
8982 1 8990 8991
8983 1 8991 8992
8984 1 8992 8993
8985 1 8993 8994
8986 1 8994 8995
8987 1 8995 8996
8988 1 8996 8997
8989 1 8997 8998
8990 1 8998 8999
8991 1 8999 9000
8992 1 9001 9002
8993 1 9002 9003
8994 1 9003 9004
8995 1 9004 9005
8996 1 9005 9006
8997 1 9006 9007
8998 1 9007 9008
8999 1 9008 9009
9000 1 9009 9010
9001 1 9010 9011
9002 1 9011 9012
9003 1 9012 9013
9004 1 9013 9014
9005 1 9014 9015
9006 1 9015 9016
9007 1 9016 9017
9008 1 9017 9018
9009 1 9018 9019
9010 1 9019 9020
9011 1 9020 9021
9012 1 9021 9022
9013 1 9022 9023
9014 1 9023 9024
9015 1 9024 9025
9016 1 9025 9026
9017 1 9026 9027
9018 1 9027 9028
9019 1 9028 9029
9020 1 9029 9030
9021 1 9030 9031
9022 1 9031 9032
9023 1 9032 9033
9024 1 9033 9034
9025 1 9034 9035
9026 1 9035 9036
9027 1 9036 9037
9028 1 9037 9038
9029 1 9038 9039
9030 1 9039 9040
9031 1 9040 9041
9032 1 9041 9042
9033 1 9042 9043
9034 1 9043 9044
9035 1 9044 9045
9036 1 9045 9046
9037 1 9046 9047
9038 1 9047 9048
9039 1 9048 9049
9040 1 9049 9050
9041 1 9050 9051
9042 1 9051 9052
9043 1 9052 9053
9044 1 9053 9054
9045 1 9054 9055
9046 1 9055 9056
9047 1 9056 9057
9048 1 9057 9058
9049 1 9058 9059
9050 1 9059 9060
9051 1 9060 9061
9052 1 9061 9062
9053 1 9062 9063
9054 1 9063 9064
9055 1 9064 9065
9056 1 9065 9066
9057 1 9066 9067
9058 1 9067 9068
9059 1 9068 9069
9060 1 9069 9070
9061 1 9070 9071
9062 1 9071 9072
9063 1 9072 9073
9064 1 9073 9074
9065 1 9074 9075
9066 1 9075 9076
9067 1 9076 9077
9068 1 9077 9078
9069 1 9078 9079
9070 1 9079 9080
9071 1 9080 9081
9072 1 9081 9082
9073 1 9082 9083
9074 1 9083 9084
9075 1 9084 9085
9076 1 9085 9086
9077 1 9086 9087
9078 1 9087 9088
9079 1 9088 9089
9080 1 9089 9090
9081 1 9090 9091
9082 1 9091 9092
9083 1 9092 9093
9084 1 9093 9094
9085 1 9094 9095
9086 1 9095 9096
9087 1 9096 9097
9088 1 9097 9098
9089 1 9098 9099
9090 1 9099 9100
9091 1 9100 9101
9092 1 9101 9102
9093 1 9102 9103
9094 1 9103 9104
9095 1 9104 9105
9096 1 9105 9106
9097 1 9106 9107
9098 1 9107 9108
9099 1 9108 9109
9100 1 9109 9110
9101 1 9110 9111
9102 1 9111 9112
9103 1 9112 9113
9104 1 9113 9114
9105 1 9114 9115
9106 1 9115 9116
9107 1 9116 9117
9108 1 9117 9118
9109 1 9118 9119
9110 1 9119 9120
9111 1 9120 9121
9112 1 9121 9122
9113 1 9122 9123
9114 1 9123 9124
9115 1 9124 9125
9116 1 9125 9126
9117 1 9126 9127
9118 1 9127 9128
9119 1 9128 9129
9120 1 9129 9130
9121 1 9130 9131
9122 1 9131 9132
9123 1 9132 9133
9124 1 9133 9134
9125 1 9134 9135
9126 1 9135 9136
9127 1 9136 9137
9128 1 9137 9138
9129 1 9138 9139
9130 1 9139 9140
9131 1 9140 9141
9132 1 9141 9142
9133 1 9142 9143
9134 1 9143 9144
9135 1 9144 9145
9136 1 9145 9146
9137 1 9146 9147
9138 1 9147 9148
9139 1 9148 9149
9140 1 9149 9150
9141 1 9150 9151
9142 1 9151 9152
9143 1 9152 9153
9144 1 9153 9154
9145 1 9154 9155
9146 1 9155 9156
9147 1 9156 9157
9148 1 9157 9158
9149 1 9158 9159
9150 1 9159 9160
9151 1 9160 9161
9152 1 9161 9162
9153 1 9162 9163
9154 1 9163 9164
9155 1 9164 9165
9156 1 9165 9166
9157 1 9166 9167
9158 1 9167 9168
9159 1 9168 9169
9160 1 9169 9170
9161 1 9170 9171
9162 1 9171 9172
9163 1 9172 9173
9164 1 9173 9174
9165 1 9174 9175
9166 1 9175 9176
9167 1 9176 9177
9168 1 9177 9178
9169 1 9178 9179
9170 1 9179 9180
9171 1 9180 9181
9172 1 9181 9182
9173 1 9182 9183
9174 1 9183 9184
9175 1 9184 9185
9176 1 9185 9186
9177 1 9186 9187
9178 1 9187 9188
9179 1 9188 9189
9180 1 9189 9190
9181 1 9190 9191
9182 1 9191 9192
9183 1 9192 9193
9184 1 9193 9194
9185 1 9194 9195
9186 1 9195 9196
9187 1 9196 9197
9188 1 9197 9198
9189 1 9198 9199
9190 1 9199 9200
9191 1 9200 9201
9192 1 9201 9202
9193 1 9202 9203
9194 1 9203 9204
9195 1 9204 9205
9196 1 9205 9206
9197 1 9206 9207
9198 1 9207 9208
9199 1 9208 9209
9200 1 9209 9210
9201 1 9210 9211
9202 1 9211 9212
9203 1 9212 9213
9204 1 9213 9214
9205 1 9214 9215
9206 1 9215 9216
9207 1 9216 9217
9208 1 9217 9218
9209 1 9218 9219
9210 1 9219 9220
9211 1 9220 9221
9212 1 9221 9222
9213 1 9222 9223
9214 1 9223 9224
9215 1 9224 9225
9216 1 9225 9226
9217 1 9226 9227
9218 1 9227 9228
9219 1 9228 9229
9220 1 9229 9230
9221 1 9230 9231
9222 1 9231 9232
9223 1 9232 9233
9224 1 9233 9234
9225 1 9234 9235
9226 1 9235 9236
9227 1 9236 9237
9228 1 9237 9238
9229 1 9238 9239
9230 1 9239 9240
9231 1 9240 9241
9232 1 9241 9242
9233 1 9242 9243
9234 1 9243 9244
9235 1 9244 9245
9236 1 9245 9246
9237 1 9246 9247
9238 1 9247 9248
9239 1 9248 9249
9240 1 9249 9250
9241 1 9250 9251
9242 1 9251 9252
9243 1 9252 9253
9244 1 9253 9254
9245 1 9254 9255
9246 1 9255 9256
9247 1 9256 9257
9248 1 9257 9258
9249 1 9258 9259
9250 1 9259 9260
9251 1 9260 9261
9252 1 9261 9262
9253 1 9262 9263
9254 1 9263 9264
9255 1 9264 9265
9256 1 9265 9266
9257 1 9266 9267
9258 1 9267 9268
9259 1 9268 9269
9260 1 9269 9270
9261 1 9270 9271
9262 1 9271 9272
9263 1 9272 9273
9264 1 9273 9274
9265 1 9274 9275
9266 1 9275 9276
9267 1 9276 9277
9268 1 9277 9278
9269 1 9278 9279
9270 1 9279 9280
9271 1 9280 9281
9272 1 9281 9282
9273 1 9282 9283
9274 1 9283 9284
9275 1 9284 9285
9276 1 9285 9286
9277 1 9286 9287
9278 1 9287 9288
9279 1 9288 9289
9280 1 9289 9290
9281 1 9290 9291
9282 1 9291 9292
9283 1 9292 9293
9284 1 9293 9294
9285 1 9294 9295
9286 1 9295 9296
9287 1 9296 9297
9288 1 9297 9298
9289 1 9298 9299
9290 1 9299 9300
9291 1 9300 9301
9292 1 9301 9302
9293 1 9302 9303
9294 1 9303 9304
9295 1 9304 9305
9296 1 9305 9306
9297 1 9306 9307
9298 1 9307 9308
9299 1 9308 9309
9300 1 9309 9310
9301 1 9310 9311
9302 1 9311 9312
9303 1 9312 9313
9304 1 9313 9314
9305 1 9314 9315
9306 1 9315 9316
9307 1 9316 9317
9308 1 9317 9318
9309 1 9318 9319
9310 1 9319 9320
9311 1 9320 9321
9312 1 9321 9322
9313 1 9322 9323
9314 1 9323 9324
9315 1 9324 9325
9316 1 9325 9326
9317 1 9326 9327
9318 1 9327 9328
9319 1 9328 9329
9320 1 9329 9330
9321 1 9330 9331
9322 1 9331 9332
9323 1 9332 9333
9324 1 9333 9334
9325 1 9334 9335
9326 1 9335 9336
9327 1 9336 9337
9328 1 9337 9338
9329 1 9338 9339
9330 1 9339 9340
9331 1 9340 9341
9332 1 9341 9342
9333 1 9342 9343
9334 1 9343 9344
9335 1 9344 9345
9336 1 9345 9346
9337 1 9346 9347
9338 1 9347 9348
9339 1 9348 9349
9340 1 9349 9350
9341 1 9350 9351
9342 1 9351 9352
9343 1 9352 9353
9344 1 9353 9354
9345 1 9354 9355
9346 1 9355 9356
9347 1 9356 9357
9348 1 9357 9358
9349 1 9358 9359
9350 1 9359 9360
9351 1 9360 9361
9352 1 9361 9362
9353 1 9362 9363
9354 1 9363 9364
9355 1 9364 9365
9356 1 9365 9366
9357 1 9366 9367
9358 1 9367 9368
9359 1 9368 9369
9360 1 9369 9370
9361 1 9370 9371
9362 1 9371 9372
9363 1 9372 9373
9364 1 9373 9374
9365 1 9374 9375
9366 1 9375 9376
9367 1 9376 9377
9368 1 9377 9378
9369 1 9378 9379
9370 1 9379 9380
9371 1 9380 9381
9372 1 9381 9382
9373 1 9382 9383
9374 1 9383 9384
9375 1 9384 9385
9376 1 9385 9386
9377 1 9386 9387
9378 1 9387 9388
9379 1 9388 9389
9380 1 9389 9390
9381 1 9390 9391
9382 1 9391 9392
9383 1 9392 9393
9384 1 9393 9394
9385 1 9394 9395
9386 1 9395 9396
9387 1 9396 9397
9388 1 9397 9398
9389 1 9398 9399
9390 1 9399 9400
9391 1 9400 9401
9392 1 9401 9402
9393 1 9402 9403
9394 1 9403 9404
9395 1 9404 9405
9396 1 9405 9406
9397 1 9406 9407
9398 1 9407 9408
9399 1 9408 9409
9400 1 9409 9410
9401 1 9410 9411
9402 1 9411 9412
9403 1 9412 9413
9404 1 9413 9414
9405 1 9414 9415
9406 1 9415 9416
9407 1 9416 9417
9408 1 9417 9418
9409 1 9418 9419
9410 1 9419 9420
9411 1 9420 9421
9412 1 9421 9422
9413 1 9422 9423
9414 1 9423 9424
9415 1 9424 9425
9416 1 9425 9426
9417 1 9426 9427
9418 1 9427 9428
9419 1 9428 9429
9420 1 9429 9430
9421 1 9430 9431
9422 1 9431 9432
9423 1 9432 9433
9424 1 9433 9434
9425 1 9434 9435
9426 1 9435 9436
9427 1 9436 9437
9428 1 9437 9438
9429 1 9438 9439
9430 1 9439 9440
9431 1 9440 9441
9432 1 9441 9442
9433 1 9442 9443
9434 1 9443 9444
9435 1 9444 9445
9436 1 9445 9446
9437 1 9446 9447
9438 1 9447 9448
9439 1 9448 9449
9440 1 9449 9450
9441 1 9450 9451
9442 1 9451 9452
9443 1 9452 9453
9444 1 9453 9454
9445 1 9454 9455
9446 1 9455 9456
9447 1 9456 9457
9448 1 9457 9458
9449 1 9458 9459
9450 1 9459 9460
9451 1 9460 9461
9452 1 9461 9462
9453 1 9462 9463
9454 1 9463 9464
9455 1 9464 9465
9456 1 9465 9466
9457 1 9466 9467
9458 1 9467 9468
9459 1 9468 9469
9460 1 9469 9470
9461 1 9470 9471
9462 1 9471 9472
9463 1 9472 9473
9464 1 9473 9474
9465 1 9474 9475
9466 1 9475 9476
9467 1 9476 9477
9468 1 9477 9478
9469 1 9478 9479
9470 1 9479 9480
9471 1 9480 9481
9472 1 9481 9482
9473 1 9482 9483
9474 1 9483 9484
9475 1 9484 9485
9476 1 9485 9486
9477 1 9486 9487
9478 1 9487 9488
9479 1 9488 9489
9480 1 9489 9490
9481 1 9490 9491
9482 1 9491 9492
9483 1 9492 9493
9484 1 9493 9494
9485 1 9494 9495
9486 1 9495 9496
9487 1 9496 9497
9488 1 9497 9498
9489 1 9498 9499
9490 1 9499 9500
9491 1 9500 9501
9492 1 9501 9502
9493 1 9502 9503
9494 1 9503 9504
9495 1 9504 9505
9496 1 9505 9506
9497 1 9506 9507
9498 1 9507 9508
9499 1 9508 9509
9500 1 9509 9510
9501 1 9510 9511
9502 1 9511 9512
9503 1 9512 9513
9504 1 9513 9514
9505 1 9514 9515
9506 1 9515 9516
9507 1 9516 9517
9508 1 9517 9518
9509 1 9518 9519
9510 1 9519 9520
9511 1 9520 9521
9512 1 9521 9522
9513 1 9522 9523
9514 1 9523 9524
9515 1 9524 9525
9516 1 9525 9526
9517 1 9526 9527
9518 1 9527 9528
9519 1 9528 9529
9520 1 9529 9530
9521 1 9530 9531
9522 1 9531 9532
9523 1 9532 9533
9524 1 9533 9534
9525 1 9534 9535
9526 1 9535 9536
9527 1 9536 9537
9528 1 9537 9538
9529 1 9538 9539
9530 1 9539 9540
9531 1 9540 9541
9532 1 9541 9542
9533 1 9542 9543
9534 1 9543 9544
9535 1 9544 9545
9536 1 9545 9546
9537 1 9546 9547
9538 1 9547 9548
9539 1 9548 9549
9540 1 9549 9550
9541 1 9550 9551
9542 1 9551 9552
9543 1 9552 9553
9544 1 9553 9554
9545 1 9554 9555
9546 1 9555 9556
9547 1 9556 9557
9548 1 9557 9558
9549 1 9558 9559
9550 1 9559 9560
9551 1 9560 9561
9552 1 9561 9562
9553 1 9562 9563
9554 1 9563 9564
9555 1 9564 9565
9556 1 9565 9566
9557 1 9566 9567
9558 1 9567 9568
9559 1 9568 9569
9560 1 9569 9570
9561 1 9570 9571
9562 1 9571 9572
9563 1 9572 9573
9564 1 9573 9574
9565 1 9574 9575
9566 1 9575 9576
9567 1 9576 9577
9568 1 9577 9578
9569 1 9578 9579
9570 1 9579 9580
9571 1 9580 9581
9572 1 9581 9582
9573 1 9582 9583
9574 1 9583 9584
9575 1 9584 9585
9576 1 9585 9586
9577 1 9586 9587
9578 1 9587 9588
9579 1 9588 9589
9580 1 9589 9590
9581 1 9590 9591
9582 1 9591 9592
9583 1 9592 9593
9584 1 9593 9594
9585 1 9594 9595
9586 1 9595 9596
9587 1 9596 9597
9588 1 9597 9598
9589 1 9598 9599
9590 1 9599 9600
9591 1 9600 9601
9592 1 9601 9602
9593 1 9602 9603
9594 1 9603 9604
9595 1 9604 9605
9596 1 9605 9606
9597 1 9606 9607
9598 1 9607 9608
9599 1 9608 9609
9600 1 9609 9610
9601 1 9610 9611
9602 1 9611 9612
9603 1 9612 9613
9604 1 9613 9614
9605 1 9614 9615
9606 1 9615 9616
9607 1 9616 9617
9608 1 9617 9618
9609 1 9618 9619
9610 1 9619 9620
9611 1 9620 9621
9612 1 9621 9622
9613 1 9622 9623
9614 1 9623 9624
9615 1 9624 9625
9616 1 9625 9626
9617 1 9626 9627
9618 1 9627 9628
9619 1 9628 9629
9620 1 9629 9630
9621 1 9630 9631
9622 1 9631 9632
9623 1 9632 9633
9624 1 9633 9634
9625 1 9634 9635
9626 1 9635 9636
9627 1 9636 9637
9628 1 9637 9638
9629 1 9638 9639
9630 1 9639 9640
9631 1 9640 9641
9632 1 9641 9642
9633 1 9642 9643
9634 1 9643 9644
9635 1 9644 9645
9636 1 9645 9646
9637 1 9646 9647
9638 1 9647 9648
9639 1 9648 9649
9640 1 9649 9650
9641 1 9650 9651
9642 1 9651 9652
9643 1 9652 9653
9644 1 9653 9654
9645 1 9654 9655
9646 1 9655 9656
9647 1 9656 9657
9648 1 9657 9658
9649 1 9658 9659
9650 1 9659 9660
9651 1 9660 9661
9652 1 9661 9662
9653 1 9662 9663
9654 1 9663 9664
9655 1 9664 9665
9656 1 9665 9666
9657 1 9666 9667
9658 1 9667 9668
9659 1 9668 9669
9660 1 9669 9670
9661 1 9670 9671
9662 1 9671 9672
9663 1 9672 9673
9664 1 9673 9674
9665 1 9674 9675
9666 1 9675 9676
9667 1 9676 9677
9668 1 9677 9678
9669 1 9678 9679
9670 1 9679 9680
9671 1 9680 9681
9672 1 9681 9682
9673 1 9682 9683
9674 1 9683 9684
9675 1 9684 9685
9676 1 9685 9686
9677 1 9686 9687
9678 1 9687 9688
9679 1 9688 9689
9680 1 9689 9690
9681 1 9690 9691
9682 1 9691 9692
9683 1 9692 9693
9684 1 9693 9694
9685 1 9694 9695
9686 1 9695 9696
9687 1 9696 9697
9688 1 9697 9698
9689 1 9698 9699
9690 1 9699 9700
9691 1 9700 9701
9692 1 9701 9702
9693 1 9702 9703
9694 1 9703 9704
9695 1 9704 9705
9696 1 9705 9706
9697 1 9706 9707
9698 1 9707 9708
9699 1 9708 9709
9700 1 9709 9710
9701 1 9710 9711
9702 1 9711 9712
9703 1 9712 9713
9704 1 9713 9714
9705 1 9714 9715
9706 1 9715 9716
9707 1 9716 9717
9708 1 9717 9718
9709 1 9718 9719
9710 1 9719 9720
9711 1 9720 9721
9712 1 9721 9722
9713 1 9722 9723
9714 1 9723 9724
9715 1 9724 9725
9716 1 9725 9726
9717 1 9726 9727
9718 1 9727 9728
9719 1 9728 9729
9720 1 9729 9730
9721 1 9730 9731
9722 1 9731 9732
9723 1 9732 9733
9724 1 9733 9734
9725 1 9734 9735
9726 1 9735 9736
9727 1 9736 9737
9728 1 9737 9738
9729 1 9738 9739
9730 1 9739 9740
9731 1 9740 9741
9732 1 9741 9742
9733 1 9742 9743
9734 1 9743 9744
9735 1 9744 9745
9736 1 9745 9746
9737 1 9746 9747
9738 1 9747 9748
9739 1 9748 9749
9740 1 9749 9750
9741 1 9750 9751
9742 1 9751 9752
9743 1 9752 9753
9744 1 9753 9754
9745 1 9754 9755
9746 1 9755 9756
9747 1 9756 9757
9748 1 9757 9758
9749 1 9758 9759
9750 1 9759 9760
9751 1 9760 9761
9752 1 9761 9762
9753 1 9762 9763
9754 1 9763 9764
9755 1 9764 9765
9756 1 9765 9766
9757 1 9766 9767
9758 1 9767 9768
9759 1 9768 9769
9760 1 9769 9770
9761 1 9770 9771
9762 1 9771 9772
9763 1 9772 9773
9764 1 9773 9774
9765 1 9774 9775
9766 1 9775 9776
9767 1 9776 9777
9768 1 9777 9778
9769 1 9778 9779
9770 1 9779 9780
9771 1 9780 9781
9772 1 9781 9782
9773 1 9782 9783
9774 1 9783 9784
9775 1 9784 9785
9776 1 9785 9786
9777 1 9786 9787
9778 1 9787 9788
9779 1 9788 9789
9780 1 9789 9790
9781 1 9790 9791
9782 1 9791 9792
9783 1 9792 9793
9784 1 9793 9794
9785 1 9794 9795
9786 1 9795 9796
9787 1 9796 9797
9788 1 9797 9798
9789 1 9798 9799
9790 1 9799 9800
9791 1 9800 9801
9792 1 9801 9802
9793 1 9802 9803
9794 1 9803 9804
9795 1 9804 9805
9796 1 9805 9806
9797 1 9806 9807
9798 1 9807 9808
9799 1 9808 9809
9800 1 9809 9810
9801 1 9810 9811
9802 1 9811 9812
9803 1 9812 9813
9804 1 9813 9814
9805 1 9814 9815
9806 1 9815 9816
9807 1 9816 9817
9808 1 9817 9818
9809 1 9818 9819
9810 1 9819 9820
9811 1 9820 9821
9812 1 9821 9822
9813 1 9822 9823
9814 1 9823 9824
9815 1 9824 9825
9816 1 9825 9826
9817 1 9826 9827
9818 1 9827 9828
9819 1 9828 9829
9820 1 9829 9830
9821 1 9830 9831
9822 1 9831 9832
9823 1 9832 9833
9824 1 9833 9834
9825 1 9834 9835
9826 1 9835 9836
9827 1 9836 9837
9828 1 9837 9838
9829 1 9838 9839
9830 1 9839 9840
9831 1 9840 9841
9832 1 9841 9842
9833 1 9842 9843
9834 1 9843 9844
9835 1 9844 9845
9836 1 9845 9846
9837 1 9846 9847
9838 1 9847 9848
9839 1 9848 9849
9840 1 9849 9850
9841 1 9850 9851
9842 1 9851 9852
9843 1 9852 9853
9844 1 9853 9854
9845 1 9854 9855
9846 1 9855 9856
9847 1 9856 9857
9848 1 9857 9858
9849 1 9858 9859
9850 1 9859 9860
9851 1 9860 9861
9852 1 9861 9862
9853 1 9862 9863
9854 1 9863 9864
9855 1 9864 9865
9856 1 9865 9866
9857 1 9866 9867
9858 1 9867 9868
9859 1 9868 9869
9860 1 9869 9870
9861 1 9870 9871
9862 1 9871 9872
9863 1 9872 9873
9864 1 9873 9874
9865 1 9874 9875
9866 1 9875 9876
9867 1 9876 9877
9868 1 9877 9878
9869 1 9878 9879
9870 1 9879 9880
9871 1 9880 9881
9872 1 9881 9882
9873 1 9882 9883
9874 1 9883 9884
9875 1 9884 9885
9876 1 9885 9886
9877 1 9886 9887
9878 1 9887 9888
9879 1 9888 9889
9880 1 9889 9890
9881 1 9890 9891
9882 1 9891 9892
9883 1 9892 9893
9884 1 9893 9894
9885 1 9894 9895
9886 1 9895 9896
9887 1 9896 9897
9888 1 9897 9898
9889 1 9898 9899
9890 1 9899 9900
9891 1 9900 9901
9892 1 9901 9902
9893 1 9902 9903
9894 1 9903 9904
9895 1 9904 9905
9896 1 9905 9906
9897 1 9906 9907
9898 1 9907 9908
9899 1 9908 9909
9900 1 9909 9910
9901 1 9910 9911
9902 1 9911 9912
9903 1 9912 9913
9904 1 9913 9914
9905 1 9914 9915
9906 1 9915 9916
9907 1 9916 9917
9908 1 9917 9918
9909 1 9918 9919
9910 1 9919 9920
9911 1 9920 9921
9912 1 9921 9922
9913 1 9922 9923
9914 1 9923 9924
9915 1 9924 9925
9916 1 9925 9926
9917 1 9926 9927
9918 1 9927 9928
9919 1 9928 9929
9920 1 9929 9930
9921 1 9930 9931
9922 1 9931 9932
9923 1 9932 9933
9924 1 9933 9934
9925 1 9934 9935
9926 1 9935 9936
9927 1 9936 9937
9928 1 9937 9938
9929 1 9938 9939
9930 1 9939 9940
9931 1 9940 9941
9932 1 9941 9942
9933 1 9942 9943
9934 1 9943 9944
9935 1 9944 9945
9936 1 9945 9946
9937 1 9946 9947
9938 1 9947 9948
9939 1 9948 9949
9940 1 9949 9950
9941 1 9950 9951
9942 1 9951 9952
9943 1 9952 9953
9944 1 9953 9954
9945 1 9954 9955
9946 1 9955 9956
9947 1 9956 9957
9948 1 9957 9958
9949 1 9958 9959
9950 1 9959 9960
9951 1 9960 9961
9952 1 9961 9962
9953 1 9962 9963
9954 1 9963 9964
9955 1 9964 9965
9956 1 9965 9966
9957 1 9966 9967
9958 1 9967 9968
9959 1 9968 9969
9960 1 9969 9970
9961 1 9970 9971
9962 1 9971 9972
9963 1 9972 9973
9964 1 9973 9974
9965 1 9974 9975
9966 1 9975 9976
9967 1 9976 9977
9968 1 9977 9978
9969 1 9978 9979
9970 1 9979 9980
9971 1 9980 9981
9972 1 9981 9982
9973 1 9982 9983
9974 1 9983 9984
9975 1 9984 9985
9976 1 9985 9986
9977 1 9986 9987
9978 1 9987 9988
9979 1 9988 9989
9980 1 9989 9990
9981 1 9990 9991
9982 1 9991 9992
9983 1 9992 9993
9984 1 9993 9994
9985 1 9994 9995
9986 1 9995 9996
9987 1 9996 9997
9988 1 9997 9998
9989 1 9998 9999
9990 1 9999 10000
9991 1 10001 10002
9992 1 10002 10003
9993 1 10003 10004
9994 1 10004 10005
9995 1 10005 10006
9996 1 10006 10007
9997 1 10007 10008
9998 1 10008 10009
9999 1 10009 10010
10000 1 10010 10011
10001 1 10011 10012
10002 1 10012 10013
10003 1 10013 10014
10004 1 10014 10015
10005 1 10015 10016
10006 1 10016 10017
10007 1 10017 10018
10008 1 10018 10019
10009 1 10019 10020
10010 1 10020 10021
10011 1 10021 10022
10012 1 10022 10023
10013 1 10023 10024
10014 1 10024 10025
10015 1 10025 10026
10016 1 10026 10027
10017 1 10027 10028
10018 1 10028 10029
10019 1 10029 10030
10020 1 10030 10031
10021 1 10031 10032
10022 1 10032 10033
10023 1 10033 10034
10024 1 10034 10035
10025 1 10035 10036
10026 1 10036 10037
10027 1 10037 10038
10028 1 10038 10039
10029 1 10039 10040
10030 1 10040 10041
10031 1 10041 10042
10032 1 10042 10043
10033 1 10043 10044
10034 1 10044 10045
10035 1 10045 10046
10036 1 10046 10047
10037 1 10047 10048
10038 1 10048 10049
10039 1 10049 10050
10040 1 10050 10051
10041 1 10051 10052
10042 1 10052 10053
10043 1 10053 10054
10044 1 10054 10055
10045 1 10055 10056
10046 1 10056 10057
10047 1 10057 10058
10048 1 10058 10059
10049 1 10059 10060
10050 1 10060 10061
10051 1 10061 10062
10052 1 10062 10063
10053 1 10063 10064
10054 1 10064 10065
10055 1 10065 10066
10056 1 10066 10067
10057 1 10067 10068
10058 1 10068 10069
10059 1 10069 10070
10060 1 10070 10071
10061 1 10071 10072
10062 1 10072 10073
10063 1 10073 10074
10064 1 10074 10075
10065 1 10075 10076
10066 1 10076 10077
10067 1 10077 10078
10068 1 10078 10079
10069 1 10079 10080
10070 1 10080 10081
10071 1 10081 10082
10072 1 10082 10083
10073 1 10083 10084
10074 1 10084 10085
10075 1 10085 10086
10076 1 10086 10087
10077 1 10087 10088
10078 1 10088 10089
10079 1 10089 10090
10080 1 10090 10091
10081 1 10091 10092
10082 1 10092 10093
10083 1 10093 10094
10084 1 10094 10095
10085 1 10095 10096
10086 1 10096 10097
10087 1 10097 10098
10088 1 10098 10099
10089 1 10099 10100
10090 1 10100 10101
10091 1 10101 10102
10092 1 10102 10103
10093 1 10103 10104
10094 1 10104 10105
10095 1 10105 10106
10096 1 10106 10107
10097 1 10107 10108
10098 1 10108 10109
10099 1 10109 10110
10100 1 10110 10111
10101 1 10111 10112
10102 1 10112 10113
10103 1 10113 10114
10104 1 10114 10115
10105 1 10115 10116
10106 1 10116 10117
10107 1 10117 10118
10108 1 10118 10119
10109 1 10119 10120
10110 1 10120 10121
10111 1 10121 10122
10112 1 10122 10123
10113 1 10123 10124
10114 1 10124 10125
10115 1 10125 10126
10116 1 10126 10127
10117 1 10127 10128
10118 1 10128 10129
10119 1 10129 10130
10120 1 10130 10131
10121 1 10131 10132
10122 1 10132 10133
10123 1 10133 10134
10124 1 10134 10135
10125 1 10135 10136
10126 1 10136 10137
10127 1 10137 10138
10128 1 10138 10139
10129 1 10139 10140
10130 1 10140 10141
10131 1 10141 10142
10132 1 10142 10143
10133 1 10143 10144
10134 1 10144 10145
10135 1 10145 10146
10136 1 10146 10147
10137 1 10147 10148
10138 1 10148 10149
10139 1 10149 10150
10140 1 10150 10151
10141 1 10151 10152
10142 1 10152 10153
10143 1 10153 10154
10144 1 10154 10155
10145 1 10155 10156
10146 1 10156 10157
10147 1 10157 10158
10148 1 10158 10159
10149 1 10159 10160
10150 1 10160 10161
10151 1 10161 10162
10152 1 10162 10163
10153 1 10163 10164
10154 1 10164 10165
10155 1 10165 10166
10156 1 10166 10167
10157 1 10167 10168
10158 1 10168 10169
10159 1 10169 10170
10160 1 10170 10171
10161 1 10171 10172
10162 1 10172 10173
10163 1 10173 10174
10164 1 10174 10175
10165 1 10175 10176
10166 1 10176 10177
10167 1 10177 10178
10168 1 10178 10179
10169 1 10179 10180
10170 1 10180 10181
10171 1 10181 10182
10172 1 10182 10183
10173 1 10183 10184
10174 1 10184 10185
10175 1 10185 10186
10176 1 10186 10187
10177 1 10187 10188
10178 1 10188 10189
10179 1 10189 10190
10180 1 10190 10191
10181 1 10191 10192
10182 1 10192 10193
10183 1 10193 10194
10184 1 10194 10195
10185 1 10195 10196
10186 1 10196 10197
10187 1 10197 10198
10188 1 10198 10199
10189 1 10199 10200
10190 1 10200 10201
10191 1 10201 10202
10192 1 10202 10203
10193 1 10203 10204
10194 1 10204 10205
10195 1 10205 10206
10196 1 10206 10207
10197 1 10207 10208
10198 1 10208 10209
10199 1 10209 10210
10200 1 10210 10211
10201 1 10211 10212
10202 1 10212 10213
10203 1 10213 10214
10204 1 10214 10215
10205 1 10215 10216
10206 1 10216 10217
10207 1 10217 10218
10208 1 10218 10219
10209 1 10219 10220
10210 1 10220 10221
10211 1 10221 10222
10212 1 10222 10223
10213 1 10223 10224
10214 1 10224 10225
10215 1 10225 10226
10216 1 10226 10227
10217 1 10227 10228
10218 1 10228 10229
10219 1 10229 10230
10220 1 10230 10231
10221 1 10231 10232
10222 1 10232 10233
10223 1 10233 10234
10224 1 10234 10235
10225 1 10235 10236
10226 1 10236 10237
10227 1 10237 10238
10228 1 10238 10239
10229 1 10239 10240
10230 1 10240 10241
10231 1 10241 10242
10232 1 10242 10243
10233 1 10243 10244
10234 1 10244 10245
10235 1 10245 10246
10236 1 10246 10247
10237 1 10247 10248
10238 1 10248 10249
10239 1 10249 10250
10240 1 10250 10251
10241 1 10251 10252
10242 1 10252 10253
10243 1 10253 10254
10244 1 10254 10255
10245 1 10255 10256
10246 1 10256 10257
10247 1 10257 10258
10248 1 10258 10259
10249 1 10259 10260
10250 1 10260 10261
10251 1 10261 10262
10252 1 10262 10263
10253 1 10263 10264
10254 1 10264 10265
10255 1 10265 10266
10256 1 10266 10267
10257 1 10267 10268
10258 1 10268 10269
10259 1 10269 10270
10260 1 10270 10271
10261 1 10271 10272
10262 1 10272 10273
10263 1 10273 10274
10264 1 10274 10275
10265 1 10275 10276
10266 1 10276 10277
10267 1 10277 10278
10268 1 10278 10279
10269 1 10279 10280
10270 1 10280 10281
10271 1 10281 10282
10272 1 10282 10283
10273 1 10283 10284
10274 1 10284 10285
10275 1 10285 10286
10276 1 10286 10287
10277 1 10287 10288
10278 1 10288 10289
10279 1 10289 10290
10280 1 10290 10291
10281 1 10291 10292
10282 1 10292 10293
10283 1 10293 10294
10284 1 10294 10295
10285 1 10295 10296
10286 1 10296 10297
10287 1 10297 10298
10288 1 10298 10299
10289 1 10299 10300
10290 1 10300 10301
10291 1 10301 10302
10292 1 10302 10303
10293 1 10303 10304
10294 1 10304 10305
10295 1 10305 10306
10296 1 10306 10307
10297 1 10307 10308
10298 1 10308 10309
10299 1 10309 10310
10300 1 10310 10311
10301 1 10311 10312
10302 1 10312 10313
10303 1 10313 10314
10304 1 10314 10315
10305 1 10315 10316
10306 1 10316 10317
10307 1 10317 10318
10308 1 10318 10319
10309 1 10319 10320
10310 1 10320 10321
10311 1 10321 10322
10312 1 10322 10323
10313 1 10323 10324
10314 1 10324 10325
10315 1 10325 10326
10316 1 10326 10327
10317 1 10327 10328
10318 1 10328 10329
10319 1 10329 10330
10320 1 10330 10331
10321 1 10331 10332
10322 1 10332 10333
10323 1 10333 10334
10324 1 10334 10335
10325 1 10335 10336
10326 1 10336 10337
10327 1 10337 10338
10328 1 10338 10339
10329 1 10339 10340
10330 1 10340 10341
10331 1 10341 10342
10332 1 10342 10343
10333 1 10343 10344
10334 1 10344 10345
10335 1 10345 10346
10336 1 10346 10347
10337 1 10347 10348
10338 1 10348 10349
10339 1 10349 10350
10340 1 10350 10351
10341 1 10351 10352
10342 1 10352 10353
10343 1 10353 10354
10344 1 10354 10355
10345 1 10355 10356
10346 1 10356 10357
10347 1 10357 10358
10348 1 10358 10359
10349 1 10359 10360
10350 1 10360 10361
10351 1 10361 10362
10352 1 10362 10363
10353 1 10363 10364
10354 1 10364 10365
10355 1 10365 10366
10356 1 10366 10367
10357 1 10367 10368
10358 1 10368 10369
10359 1 10369 10370
10360 1 10370 10371
10361 1 10371 10372
10362 1 10372 10373
10363 1 10373 10374
10364 1 10374 10375
10365 1 10375 10376
10366 1 10376 10377
10367 1 10377 10378
10368 1 10378 10379
10369 1 10379 10380
10370 1 10380 10381
10371 1 10381 10382
10372 1 10382 10383
10373 1 10383 10384
10374 1 10384 10385
10375 1 10385 10386
10376 1 10386 10387
10377 1 10387 10388
10378 1 10388 10389
10379 1 10389 10390
10380 1 10390 10391
10381 1 10391 10392
10382 1 10392 10393
10383 1 10393 10394
10384 1 10394 10395
10385 1 10395 10396
10386 1 10396 10397
10387 1 10397 10398
10388 1 10398 10399
10389 1 10399 10400
10390 1 10400 10401
10391 1 10401 10402
10392 1 10402 10403
10393 1 10403 10404
10394 1 10404 10405
10395 1 10405 10406
10396 1 10406 10407
10397 1 10407 10408
10398 1 10408 10409
10399 1 10409 10410
10400 1 10410 10411
10401 1 10411 10412
10402 1 10412 10413
10403 1 10413 10414
10404 1 10414 10415
10405 1 10415 10416
10406 1 10416 10417
10407 1 10417 10418
10408 1 10418 10419
10409 1 10419 10420
10410 1 10420 10421
10411 1 10421 10422
10412 1 10422 10423
10413 1 10423 10424
10414 1 10424 10425
10415 1 10425 10426
10416 1 10426 10427
10417 1 10427 10428
10418 1 10428 10429
10419 1 10429 10430
10420 1 10430 10431
10421 1 10431 10432
10422 1 10432 10433
10423 1 10433 10434
10424 1 10434 10435
10425 1 10435 10436
10426 1 10436 10437
10427 1 10437 10438
10428 1 10438 10439
10429 1 10439 10440
10430 1 10440 10441
10431 1 10441 10442
10432 1 10442 10443
10433 1 10443 10444
10434 1 10444 10445
10435 1 10445 10446
10436 1 10446 10447
10437 1 10447 10448
10438 1 10448 10449
10439 1 10449 10450
10440 1 10450 10451
10441 1 10451 10452
10442 1 10452 10453
10443 1 10453 10454
10444 1 10454 10455
10445 1 10455 10456
10446 1 10456 10457
10447 1 10457 10458
10448 1 10458 10459
10449 1 10459 10460
10450 1 10460 10461
10451 1 10461 10462
10452 1 10462 10463
10453 1 10463 10464
10454 1 10464 10465
10455 1 10465 10466
10456 1 10466 10467
10457 1 10467 10468
10458 1 10468 10469
10459 1 10469 10470
10460 1 10470 10471
10461 1 10471 10472
10462 1 10472 10473
10463 1 10473 10474
10464 1 10474 10475
10465 1 10475 10476
10466 1 10476 10477
10467 1 10477 10478
10468 1 10478 10479
10469 1 10479 10480
10470 1 10480 10481
10471 1 10481 10482
10472 1 10482 10483
10473 1 10483 10484
10474 1 10484 10485
10475 1 10485 10486
10476 1 10486 10487
10477 1 10487 10488
10478 1 10488 10489
10479 1 10489 10490
10480 1 10490 10491
10481 1 10491 10492
10482 1 10492 10493
10483 1 10493 10494
10484 1 10494 10495
10485 1 10495 10496
10486 1 10496 10497
10487 1 10497 10498
10488 1 10498 10499
10489 1 10499 10500
10490 1 10500 10501
10491 1 10501 10502
10492 1 10502 10503
10493 1 10503 10504
10494 1 10504 10505
10495 1 10505 10506
10496 1 10506 10507
10497 1 10507 10508
10498 1 10508 10509
10499 1 10509 10510
10500 1 10510 10511
10501 1 10511 10512
10502 1 10512 10513
10503 1 10513 10514
10504 1 10514 10515
10505 1 10515 10516
10506 1 10516 10517
10507 1 10517 10518
10508 1 10518 10519
10509 1 10519 10520
10510 1 10520 10521
10511 1 10521 10522
10512 1 10522 10523
10513 1 10523 10524
10514 1 10524 10525
10515 1 10525 10526
10516 1 10526 10527
10517 1 10527 10528
10518 1 10528 10529
10519 1 10529 10530
10520 1 10530 10531
10521 1 10531 10532
10522 1 10532 10533
10523 1 10533 10534
10524 1 10534 10535
10525 1 10535 10536
10526 1 10536 10537
10527 1 10537 10538
10528 1 10538 10539
10529 1 10539 10540
10530 1 10540 10541
10531 1 10541 10542
10532 1 10542 10543
10533 1 10543 10544
10534 1 10544 10545
10535 1 10545 10546
10536 1 10546 10547
10537 1 10547 10548
10538 1 10548 10549
10539 1 10549 10550
10540 1 10550 10551
10541 1 10551 10552
10542 1 10552 10553
10543 1 10553 10554
10544 1 10554 10555
10545 1 10555 10556
10546 1 10556 10557
10547 1 10557 10558
10548 1 10558 10559
10549 1 10559 10560
10550 1 10560 10561
10551 1 10561 10562
10552 1 10562 10563
10553 1 10563 10564
10554 1 10564 10565
10555 1 10565 10566
10556 1 10566 10567
10557 1 10567 10568
10558 1 10568 10569
10559 1 10569 10570
10560 1 10570 10571
10561 1 10571 10572
10562 1 10572 10573
10563 1 10573 10574
10564 1 10574 10575
10565 1 10575 10576
10566 1 10576 10577
10567 1 10577 10578
10568 1 10578 10579
10569 1 10579 10580
10570 1 10580 10581
10571 1 10581 10582
10572 1 10582 10583
10573 1 10583 10584
10574 1 10584 10585
10575 1 10585 10586
10576 1 10586 10587
10577 1 10587 10588
10578 1 10588 10589
10579 1 10589 10590
10580 1 10590 10591
10581 1 10591 10592
10582 1 10592 10593
10583 1 10593 10594
10584 1 10594 10595
10585 1 10595 10596
10586 1 10596 10597
10587 1 10597 10598
10588 1 10598 10599
10589 1 10599 10600
10590 1 10600 10601
10591 1 10601 10602
10592 1 10602 10603
10593 1 10603 10604
10594 1 10604 10605
10595 1 10605 10606
10596 1 10606 10607
10597 1 10607 10608
10598 1 10608 10609
10599 1 10609 10610
10600 1 10610 10611
10601 1 10611 10612
10602 1 10612 10613
10603 1 10613 10614
10604 1 10614 10615
10605 1 10615 10616
10606 1 10616 10617
10607 1 10617 10618
10608 1 10618 10619
10609 1 10619 10620
10610 1 10620 10621
10611 1 10621 10622
10612 1 10622 10623
10613 1 10623 10624
10614 1 10624 10625
10615 1 10625 10626
10616 1 10626 10627
10617 1 10627 10628
10618 1 10628 10629
10619 1 10629 10630
10620 1 10630 10631
10621 1 10631 10632
10622 1 10632 10633
10623 1 10633 10634
10624 1 10634 10635
10625 1 10635 10636
10626 1 10636 10637
10627 1 10637 10638
10628 1 10638 10639
10629 1 10639 10640
10630 1 10640 10641
10631 1 10641 10642
10632 1 10642 10643
10633 1 10643 10644
10634 1 10644 10645
10635 1 10645 10646
10636 1 10646 10647
10637 1 10647 10648
10638 1 10648 10649
10639 1 10649 10650
10640 1 10650 10651
10641 1 10651 10652
10642 1 10652 10653
10643 1 10653 10654
10644 1 10654 10655
10645 1 10655 10656
10646 1 10656 10657
10647 1 10657 10658
10648 1 10658 10659
10649 1 10659 10660
10650 1 10660 10661
10651 1 10661 10662
10652 1 10662 10663
10653 1 10663 10664
10654 1 10664 10665
10655 1 10665 10666
10656 1 10666 10667
10657 1 10667 10668
10658 1 10668 10669
10659 1 10669 10670
10660 1 10670 10671
10661 1 10671 10672
10662 1 10672 10673
10663 1 10673 10674
10664 1 10674 10675
10665 1 10675 10676
10666 1 10676 10677
10667 1 10677 10678
10668 1 10678 10679
10669 1 10679 10680
10670 1 10680 10681
10671 1 10681 10682
10672 1 10682 10683
10673 1 10683 10684
10674 1 10684 10685
10675 1 10685 10686
10676 1 10686 10687
10677 1 10687 10688
10678 1 10688 10689
10679 1 10689 10690
10680 1 10690 10691
10681 1 10691 10692
10682 1 10692 10693
10683 1 10693 10694
10684 1 10694 10695
10685 1 10695 10696
10686 1 10696 10697
10687 1 10697 10698
10688 1 10698 10699
10689 1 10699 10700
10690 1 10700 10701
10691 1 10701 10702
10692 1 10702 10703
10693 1 10703 10704
10694 1 10704 10705
10695 1 10705 10706
10696 1 10706 10707
10697 1 10707 10708
10698 1 10708 10709
10699 1 10709 10710
10700 1 10710 10711
10701 1 10711 10712
10702 1 10712 10713
10703 1 10713 10714
10704 1 10714 10715
10705 1 10715 10716
10706 1 10716 10717
10707 1 10717 10718
10708 1 10718 10719
10709 1 10719 10720
10710 1 10720 10721
10711 1 10721 10722
10712 1 10722 10723
10713 1 10723 10724
10714 1 10724 10725
10715 1 10725 10726
10716 1 10726 10727
10717 1 10727 10728
10718 1 10728 10729
10719 1 10729 10730
10720 1 10730 10731
10721 1 10731 10732
10722 1 10732 10733
10723 1 10733 10734
10724 1 10734 10735
10725 1 10735 10736
10726 1 10736 10737
10727 1 10737 10738
10728 1 10738 10739
10729 1 10739 10740
10730 1 10740 10741
10731 1 10741 10742
10732 1 10742 10743
10733 1 10743 10744
10734 1 10744 10745
10735 1 10745 10746
10736 1 10746 10747
10737 1 10747 10748
10738 1 10748 10749
10739 1 10749 10750
10740 1 10750 10751
10741 1 10751 10752
10742 1 10752 10753
10743 1 10753 10754
10744 1 10754 10755
10745 1 10755 10756
10746 1 10756 10757
10747 1 10757 10758
10748 1 10758 10759
10749 1 10759 10760
10750 1 10760 10761
10751 1 10761 10762
10752 1 10762 10763
10753 1 10763 10764
10754 1 10764 10765
10755 1 10765 10766
10756 1 10766 10767
10757 1 10767 10768
10758 1 10768 10769
10759 1 10769 10770
10760 1 10770 10771
10761 1 10771 10772
10762 1 10772 10773
10763 1 10773 10774
10764 1 10774 10775
10765 1 10775 10776
10766 1 10776 10777
10767 1 10777 10778
10768 1 10778 10779
10769 1 10779 10780
10770 1 10780 10781
10771 1 10781 10782
10772 1 10782 10783
10773 1 10783 10784
10774 1 10784 10785
10775 1 10785 10786
10776 1 10786 10787
10777 1 10787 10788
10778 1 10788 10789
10779 1 10789 10790
10780 1 10790 10791
10781 1 10791 10792
10782 1 10792 10793
10783 1 10793 10794
10784 1 10794 10795
10785 1 10795 10796
10786 1 10796 10797
10787 1 10797 10798
10788 1 10798 10799
10789 1 10799 10800
10790 1 10800 10801
10791 1 10801 10802
10792 1 10802 10803
10793 1 10803 10804
10794 1 10804 10805
10795 1 10805 10806
10796 1 10806 10807
10797 1 10807 10808
10798 1 10808 10809
10799 1 10809 10810
10800 1 10810 10811
10801 1 10811 10812
10802 1 10812 10813
10803 1 10813 10814
10804 1 10814 10815
10805 1 10815 10816
10806 1 10816 10817
10807 1 10817 10818
10808 1 10818 10819
10809 1 10819 10820
10810 1 10820 10821
10811 1 10821 10822
10812 1 10822 10823
10813 1 10823 10824
10814 1 10824 10825
10815 1 10825 10826
10816 1 10826 10827
10817 1 10827 10828
10818 1 10828 10829
10819 1 10829 10830
10820 1 10830 10831
10821 1 10831 10832
10822 1 10832 10833
10823 1 10833 10834
10824 1 10834 10835
10825 1 10835 10836
10826 1 10836 10837
10827 1 10837 10838
10828 1 10838 10839
10829 1 10839 10840
10830 1 10840 10841
10831 1 10841 10842
10832 1 10842 10843
10833 1 10843 10844
10834 1 10844 10845
10835 1 10845 10846
10836 1 10846 10847
10837 1 10847 10848
10838 1 10848 10849
10839 1 10849 10850
10840 1 10850 10851
10841 1 10851 10852
10842 1 10852 10853
10843 1 10853 10854
10844 1 10854 10855
10845 1 10855 10856
10846 1 10856 10857
10847 1 10857 10858
10848 1 10858 10859
10849 1 10859 10860
10850 1 10860 10861
10851 1 10861 10862
10852 1 10862 10863
10853 1 10863 10864
10854 1 10864 10865
10855 1 10865 10866
10856 1 10866 10867
10857 1 10867 10868
10858 1 10868 10869
10859 1 10869 10870
10860 1 10870 10871
10861 1 10871 10872
10862 1 10872 10873
10863 1 10873 10874
10864 1 10874 10875
10865 1 10875 10876
10866 1 10876 10877
10867 1 10877 10878
10868 1 10878 10879
10869 1 10879 10880
10870 1 10880 10881
10871 1 10881 10882
10872 1 10882 10883
10873 1 10883 10884
10874 1 10884 10885
10875 1 10885 10886
10876 1 10886 10887
10877 1 10887 10888
10878 1 10888 10889
10879 1 10889 10890
10880 1 10890 10891
10881 1 10891 10892
10882 1 10892 10893
10883 1 10893 10894
10884 1 10894 10895
10885 1 10895 10896
10886 1 10896 10897
10887 1 10897 10898
10888 1 10898 10899
10889 1 10899 10900
10890 1 10900 10901
10891 1 10901 10902
10892 1 10902 10903
10893 1 10903 10904
10894 1 10904 10905
10895 1 10905 10906
10896 1 10906 10907
10897 1 10907 10908
10898 1 10908 10909
10899 1 10909 10910
10900 1 10910 10911
10901 1 10911 10912
10902 1 10912 10913
10903 1 10913 10914
10904 1 10914 10915
10905 1 10915 10916
10906 1 10916 10917
10907 1 10917 10918
10908 1 10918 10919
10909 1 10919 10920
10910 1 10920 10921
10911 1 10921 10922
10912 1 10922 10923
10913 1 10923 10924
10914 1 10924 10925
10915 1 10925 10926
10916 1 10926 10927
10917 1 10927 10928
10918 1 10928 10929
10919 1 10929 10930
10920 1 10930 10931
10921 1 10931 10932
10922 1 10932 10933
10923 1 10933 10934
10924 1 10934 10935
10925 1 10935 10936
10926 1 10936 10937
10927 1 10937 10938
10928 1 10938 10939
10929 1 10939 10940
10930 1 10940 10941
10931 1 10941 10942
10932 1 10942 10943
10933 1 10943 10944
10934 1 10944 10945
10935 1 10945 10946
10936 1 10946 10947
10937 1 10947 10948
10938 1 10948 10949
10939 1 10949 10950
10940 1 10950 10951
10941 1 10951 10952
10942 1 10952 10953
10943 1 10953 10954
10944 1 10954 10955
10945 1 10955 10956
10946 1 10956 10957
10947 1 10957 10958
10948 1 10958 10959
10949 1 10959 10960
10950 1 10960 10961
10951 1 10961 10962
10952 1 10962 10963
10953 1 10963 10964
10954 1 10964 10965
10955 1 10965 10966
10956 1 10966 10967
10957 1 10967 10968
10958 1 10968 10969
10959 1 10969 10970
10960 1 10970 10971
10961 1 10971 10972
10962 1 10972 10973
10963 1 10973 10974
10964 1 10974 10975
10965 1 10975 10976
10966 1 10976 10977
10967 1 10977 10978
10968 1 10978 10979
10969 1 10979 10980
10970 1 10980 10981
10971 1 10981 10982
10972 1 10982 10983
10973 1 10983 10984
10974 1 10984 10985
10975 1 10985 10986
10976 1 10986 10987
10977 1 10987 10988
10978 1 10988 10989
10979 1 10989 10990
10980 1 10990 10991
10981 1 10991 10992
10982 1 10992 10993
10983 1 10993 10994
10984 1 10994 10995
10985 1 10995 10996
10986 1 10996 10997
10987 1 10997 10998
10988 1 10998 10999
10989 1 10999 11000
10990 1 11001 11002
10991 1 11002 11003
10992 1 11003 11004
10993 1 11004 11005
10994 1 11005 11006
10995 1 11006 11007
10996 1 11007 11008
10997 1 11008 11009
10998 1 11009 11010
10999 1 11010 11011
11000 1 11011 11012
11001 1 11012 11013
11002 1 11013 11014
11003 1 11014 11015
11004 1 11015 11016
11005 1 11016 11017
11006 1 11017 11018
11007 1 11018 11019
11008 1 11019 11020
11009 1 11020 11021
11010 1 11021 11022
11011 1 11022 11023
11012 1 11023 11024
11013 1 11024 11025
11014 1 11025 11026
11015 1 11026 11027
11016 1 11027 11028
11017 1 11028 11029
11018 1 11029 11030
11019 1 11030 11031
11020 1 11031 11032
11021 1 11032 11033
11022 1 11033 11034
11023 1 11034 11035
11024 1 11035 11036
11025 1 11036 11037
11026 1 11037 11038
11027 1 11038 11039
11028 1 11039 11040
11029 1 11040 11041
11030 1 11041 11042
11031 1 11042 11043
11032 1 11043 11044
11033 1 11044 11045
11034 1 11045 11046
11035 1 11046 11047
11036 1 11047 11048
11037 1 11048 11049
11038 1 11049 11050
11039 1 11050 11051
11040 1 11051 11052
11041 1 11052 11053
11042 1 11053 11054
11043 1 11054 11055
11044 1 11055 11056
11045 1 11056 11057
11046 1 11057 11058
11047 1 11058 11059
11048 1 11059 11060
11049 1 11060 11061
11050 1 11061 11062
11051 1 11062 11063
11052 1 11063 11064
11053 1 11064 11065
11054 1 11065 11066
11055 1 11066 11067
11056 1 11067 11068
11057 1 11068 11069
11058 1 11069 11070
11059 1 11070 11071
11060 1 11071 11072
11061 1 11072 11073
11062 1 11073 11074
11063 1 11074 11075
11064 1 11075 11076
11065 1 11076 11077
11066 1 11077 11078
11067 1 11078 11079
11068 1 11079 11080
11069 1 11080 11081
11070 1 11081 11082
11071 1 11082 11083
11072 1 11083 11084
11073 1 11084 11085
11074 1 11085 11086
11075 1 11086 11087
11076 1 11087 11088
11077 1 11088 11089
11078 1 11089 11090
11079 1 11090 11091
11080 1 11091 11092
11081 1 11092 11093
11082 1 11093 11094
11083 1 11094 11095
11084 1 11095 11096
11085 1 11096 11097
11086 1 11097 11098
11087 1 11098 11099
11088 1 11099 11100
11089 1 11100 11101
11090 1 11101 11102
11091 1 11102 11103
11092 1 11103 11104
11093 1 11104 11105
11094 1 11105 11106
11095 1 11106 11107
11096 1 11107 11108
11097 1 11108 11109
11098 1 11109 11110
11099 1 11110 11111
11100 1 11111 11112
11101 1 11112 11113
11102 1 11113 11114
11103 1 11114 11115
11104 1 11115 11116
11105 1 11116 11117
11106 1 11117 11118
11107 1 11118 11119
11108 1 11119 11120
11109 1 11120 11121
11110 1 11121 11122
11111 1 11122 11123
11112 1 11123 11124
11113 1 11124 11125
11114 1 11125 11126
11115 1 11126 11127
11116 1 11127 11128
11117 1 11128 11129
11118 1 11129 11130
11119 1 11130 11131
11120 1 11131 11132
11121 1 11132 11133
11122 1 11133 11134
11123 1 11134 11135
11124 1 11135 11136
11125 1 11136 11137
11126 1 11137 11138
11127 1 11138 11139
11128 1 11139 11140
11129 1 11140 11141
11130 1 11141 11142
11131 1 11142 11143
11132 1 11143 11144
11133 1 11144 11145
11134 1 11145 11146
11135 1 11146 11147
11136 1 11147 11148
11137 1 11148 11149
11138 1 11149 11150
11139 1 11150 11151
11140 1 11151 11152
11141 1 11152 11153
11142 1 11153 11154
11143 1 11154 11155
11144 1 11155 11156
11145 1 11156 11157
11146 1 11157 11158
11147 1 11158 11159
11148 1 11159 11160
11149 1 11160 11161
11150 1 11161 11162
11151 1 11162 11163
11152 1 11163 11164
11153 1 11164 11165
11154 1 11165 11166
11155 1 11166 11167
11156 1 11167 11168
11157 1 11168 11169
11158 1 11169 11170
11159 1 11170 11171
11160 1 11171 11172
11161 1 11172 11173
11162 1 11173 11174
11163 1 11174 11175
11164 1 11175 11176
11165 1 11176 11177
11166 1 11177 11178
11167 1 11178 11179
11168 1 11179 11180
11169 1 11180 11181
11170 1 11181 11182
11171 1 11182 11183
11172 1 11183 11184
11173 1 11184 11185
11174 1 11185 11186
11175 1 11186 11187
11176 1 11187 11188
11177 1 11188 11189
11178 1 11189 11190
11179 1 11190 11191
11180 1 11191 11192
11181 1 11192 11193
11182 1 11193 11194
11183 1 11194 11195
11184 1 11195 11196
11185 1 11196 11197
11186 1 11197 11198
11187 1 11198 11199
11188 1 11199 11200
11189 1 11200 11201
11190 1 11201 11202
11191 1 11202 11203
11192 1 11203 11204
11193 1 11204 11205
11194 1 11205 11206
11195 1 11206 11207
11196 1 11207 11208
11197 1 11208 11209
11198 1 11209 11210
11199 1 11210 11211
11200 1 11211 11212
11201 1 11212 11213
11202 1 11213 11214
11203 1 11214 11215
11204 1 11215 11216
11205 1 11216 11217
11206 1 11217 11218
11207 1 11218 11219
11208 1 11219 11220
11209 1 11220 11221
11210 1 11221 11222
11211 1 11222 11223
11212 1 11223 11224
11213 1 11224 11225
11214 1 11225 11226
11215 1 11226 11227
11216 1 11227 11228
11217 1 11228 11229
11218 1 11229 11230
11219 1 11230 11231
11220 1 11231 11232
11221 1 11232 11233
11222 1 11233 11234
11223 1 11234 11235
11224 1 11235 11236
11225 1 11236 11237
11226 1 11237 11238
11227 1 11238 11239
11228 1 11239 11240
11229 1 11240 11241
11230 1 11241 11242
11231 1 11242 11243
11232 1 11243 11244
11233 1 11244 11245
11234 1 11245 11246
11235 1 11246 11247
11236 1 11247 11248
11237 1 11248 11249
11238 1 11249 11250
11239 1 11250 11251
11240 1 11251 11252
11241 1 11252 11253
11242 1 11253 11254
11243 1 11254 11255
11244 1 11255 11256
11245 1 11256 11257
11246 1 11257 11258
11247 1 11258 11259
11248 1 11259 11260
11249 1 11260 11261
11250 1 11261 11262
11251 1 11262 11263
11252 1 11263 11264
11253 1 11264 11265
11254 1 11265 11266
11255 1 11266 11267
11256 1 11267 11268
11257 1 11268 11269
11258 1 11269 11270
11259 1 11270 11271
11260 1 11271 11272
11261 1 11272 11273
11262 1 11273 11274
11263 1 11274 11275
11264 1 11275 11276
11265 1 11276 11277
11266 1 11277 11278
11267 1 11278 11279
11268 1 11279 11280
11269 1 11280 11281
11270 1 11281 11282
11271 1 11282 11283
11272 1 11283 11284
11273 1 11284 11285
11274 1 11285 11286
11275 1 11286 11287
11276 1 11287 11288
11277 1 11288 11289
11278 1 11289 11290
11279 1 11290 11291
11280 1 11291 11292
11281 1 11292 11293
11282 1 11293 11294
11283 1 11294 11295
11284 1 11295 11296
11285 1 11296 11297
11286 1 11297 11298
11287 1 11298 11299
11288 1 11299 11300
11289 1 11300 11301
11290 1 11301 11302
11291 1 11302 11303
11292 1 11303 11304
11293 1 11304 11305
11294 1 11305 11306
11295 1 11306 11307
11296 1 11307 11308
11297 1 11308 11309
11298 1 11309 11310
11299 1 11310 11311
11300 1 11311 11312
11301 1 11312 11313
11302 1 11313 11314
11303 1 11314 11315
11304 1 11315 11316
11305 1 11316 11317
11306 1 11317 11318
11307 1 11318 11319
11308 1 11319 11320
11309 1 11320 11321
11310 1 11321 11322
11311 1 11322 11323
11312 1 11323 11324
11313 1 11324 11325
11314 1 11325 11326
11315 1 11326 11327
11316 1 11327 11328
11317 1 11328 11329
11318 1 11329 11330
11319 1 11330 11331
11320 1 11331 11332
11321 1 11332 11333
11322 1 11333 11334
11323 1 11334 11335
11324 1 11335 11336
11325 1 11336 11337
11326 1 11337 11338
11327 1 11338 11339
11328 1 11339 11340
11329 1 11340 11341
11330 1 11341 11342
11331 1 11342 11343
11332 1 11343 11344
11333 1 11344 11345
11334 1 11345 11346
11335 1 11346 11347
11336 1 11347 11348
11337 1 11348 11349
11338 1 11349 11350
11339 1 11350 11351
11340 1 11351 11352
11341 1 11352 11353
11342 1 11353 11354
11343 1 11354 11355
11344 1 11355 11356
11345 1 11356 11357
11346 1 11357 11358
11347 1 11358 11359
11348 1 11359 11360
11349 1 11360 11361
11350 1 11361 11362
11351 1 11362 11363
11352 1 11363 11364
11353 1 11364 11365
11354 1 11365 11366
11355 1 11366 11367
11356 1 11367 11368
11357 1 11368 11369
11358 1 11369 11370
11359 1 11370 11371
11360 1 11371 11372
11361 1 11372 11373
11362 1 11373 11374
11363 1 11374 11375
11364 1 11375 11376
11365 1 11376 11377
11366 1 11377 11378
11367 1 11378 11379
11368 1 11379 11380
11369 1 11380 11381
11370 1 11381 11382
11371 1 11382 11383
11372 1 11383 11384
11373 1 11384 11385
11374 1 11385 11386
11375 1 11386 11387
11376 1 11387 11388
11377 1 11388 11389
11378 1 11389 11390
11379 1 11390 11391
11380 1 11391 11392
11381 1 11392 11393
11382 1 11393 11394
11383 1 11394 11395
11384 1 11395 11396
11385 1 11396 11397
11386 1 11397 11398
11387 1 11398 11399
11388 1 11399 11400
11389 1 11400 11401
11390 1 11401 11402
11391 1 11402 11403
11392 1 11403 11404
11393 1 11404 11405
11394 1 11405 11406
11395 1 11406 11407
11396 1 11407 11408
11397 1 11408 11409
11398 1 11409 11410
11399 1 11410 11411
11400 1 11411 11412
11401 1 11412 11413
11402 1 11413 11414
11403 1 11414 11415
11404 1 11415 11416
11405 1 11416 11417
11406 1 11417 11418
11407 1 11418 11419
11408 1 11419 11420
11409 1 11420 11421
11410 1 11421 11422
11411 1 11422 11423
11412 1 11423 11424
11413 1 11424 11425
11414 1 11425 11426
11415 1 11426 11427
11416 1 11427 11428
11417 1 11428 11429
11418 1 11429 11430
11419 1 11430 11431
11420 1 11431 11432
11421 1 11432 11433
11422 1 11433 11434
11423 1 11434 11435
11424 1 11435 11436
11425 1 11436 11437
11426 1 11437 11438
11427 1 11438 11439
11428 1 11439 11440
11429 1 11440 11441
11430 1 11441 11442
11431 1 11442 11443
11432 1 11443 11444
11433 1 11444 11445
11434 1 11445 11446
11435 1 11446 11447
11436 1 11447 11448
11437 1 11448 11449
11438 1 11449 11450
11439 1 11450 11451
11440 1 11451 11452
11441 1 11452 11453
11442 1 11453 11454
11443 1 11454 11455
11444 1 11455 11456
11445 1 11456 11457
11446 1 11457 11458
11447 1 11458 11459
11448 1 11459 11460
11449 1 11460 11461
11450 1 11461 11462
11451 1 11462 11463
11452 1 11463 11464
11453 1 11464 11465
11454 1 11465 11466
11455 1 11466 11467
11456 1 11467 11468
11457 1 11468 11469
11458 1 11469 11470
11459 1 11470 11471
11460 1 11471 11472
11461 1 11472 11473
11462 1 11473 11474
11463 1 11474 11475
11464 1 11475 11476
11465 1 11476 11477
11466 1 11477 11478
11467 1 11478 11479
11468 1 11479 11480
11469 1 11480 11481
11470 1 11481 11482
11471 1 11482 11483
11472 1 11483 11484
11473 1 11484 11485
11474 1 11485 11486
11475 1 11486 11487
11476 1 11487 11488
11477 1 11488 11489
11478 1 11489 11490
11479 1 11490 11491
11480 1 11491 11492
11481 1 11492 11493
11482 1 11493 11494
11483 1 11494 11495
11484 1 11495 11496
11485 1 11496 11497
11486 1 11497 11498
11487 1 11498 11499
11488 1 11499 11500
11489 1 11500 11501
11490 1 11501 11502
11491 1 11502 11503
11492 1 11503 11504
11493 1 11504 11505
11494 1 11505 11506
11495 1 11506 11507
11496 1 11507 11508
11497 1 11508 11509
11498 1 11509 11510
11499 1 11510 11511
11500 1 11511 11512
11501 1 11512 11513
11502 1 11513 11514
11503 1 11514 11515
11504 1 11515 11516
11505 1 11516 11517
11506 1 11517 11518
11507 1 11518 11519
11508 1 11519 11520
11509 1 11520 11521
11510 1 11521 11522
11511 1 11522 11523
11512 1 11523 11524
11513 1 11524 11525
11514 1 11525 11526
11515 1 11526 11527
11516 1 11527 11528
11517 1 11528 11529
11518 1 11529 11530
11519 1 11530 11531
11520 1 11531 11532
11521 1 11532 11533
11522 1 11533 11534
11523 1 11534 11535
11524 1 11535 11536
11525 1 11536 11537
11526 1 11537 11538
11527 1 11538 11539
11528 1 11539 11540
11529 1 11540 11541
11530 1 11541 11542
11531 1 11542 11543
11532 1 11543 11544
11533 1 11544 11545
11534 1 11545 11546
11535 1 11546 11547
11536 1 11547 11548
11537 1 11548 11549
11538 1 11549 11550
11539 1 11550 11551
11540 1 11551 11552
11541 1 11552 11553
11542 1 11553 11554
11543 1 11554 11555
11544 1 11555 11556
11545 1 11556 11557
11546 1 11557 11558
11547 1 11558 11559
11548 1 11559 11560
11549 1 11560 11561
11550 1 11561 11562
11551 1 11562 11563
11552 1 11563 11564
11553 1 11564 11565
11554 1 11565 11566
11555 1 11566 11567
11556 1 11567 11568
11557 1 11568 11569
11558 1 11569 11570
11559 1 11570 11571
11560 1 11571 11572
11561 1 11572 11573
11562 1 11573 11574
11563 1 11574 11575
11564 1 11575 11576
11565 1 11576 11577
11566 1 11577 11578
11567 1 11578 11579
11568 1 11579 11580
11569 1 11580 11581
11570 1 11581 11582
11571 1 11582 11583
11572 1 11583 11584
11573 1 11584 11585
11574 1 11585 11586
11575 1 11586 11587
11576 1 11587 11588
11577 1 11588 11589
11578 1 11589 11590
11579 1 11590 11591
11580 1 11591 11592
11581 1 11592 11593
11582 1 11593 11594
11583 1 11594 11595
11584 1 11595 11596
11585 1 11596 11597
11586 1 11597 11598
11587 1 11598 11599
11588 1 11599 11600
11589 1 11600 11601
11590 1 11601 11602
11591 1 11602 11603
11592 1 11603 11604
11593 1 11604 11605
11594 1 11605 11606
11595 1 11606 11607
11596 1 11607 11608
11597 1 11608 11609
11598 1 11609 11610
11599 1 11610 11611
11600 1 11611 11612
11601 1 11612 11613
11602 1 11613 11614
11603 1 11614 11615
11604 1 11615 11616
11605 1 11616 11617
11606 1 11617 11618
11607 1 11618 11619
11608 1 11619 11620
11609 1 11620 11621
11610 1 11621 11622
11611 1 11622 11623
11612 1 11623 11624
11613 1 11624 11625
11614 1 11625 11626
11615 1 11626 11627
11616 1 11627 11628
11617 1 11628 11629
11618 1 11629 11630
11619 1 11630 11631
11620 1 11631 11632
11621 1 11632 11633
11622 1 11633 11634
11623 1 11634 11635
11624 1 11635 11636
11625 1 11636 11637
11626 1 11637 11638
11627 1 11638 11639
11628 1 11639 11640
11629 1 11640 11641
11630 1 11641 11642
11631 1 11642 11643
11632 1 11643 11644
11633 1 11644 11645
11634 1 11645 11646
11635 1 11646 11647
11636 1 11647 11648
11637 1 11648 11649
11638 1 11649 11650
11639 1 11650 11651
11640 1 11651 11652
11641 1 11652 11653
11642 1 11653 11654
11643 1 11654 11655
11644 1 11655 11656
11645 1 11656 11657
11646 1 11657 11658
11647 1 11658 11659
11648 1 11659 11660
11649 1 11660 11661
11650 1 11661 11662
11651 1 11662 11663
11652 1 11663 11664
11653 1 11664 11665
11654 1 11665 11666
11655 1 11666 11667
11656 1 11667 11668
11657 1 11668 11669
11658 1 11669 11670
11659 1 11670 11671
11660 1 11671 11672
11661 1 11672 11673
11662 1 11673 11674
11663 1 11674 11675
11664 1 11675 11676
11665 1 11676 11677
11666 1 11677 11678
11667 1 11678 11679
11668 1 11679 11680
11669 1 11680 11681
11670 1 11681 11682
11671 1 11682 11683
11672 1 11683 11684
11673 1 11684 11685
11674 1 11685 11686
11675 1 11686 11687
11676 1 11687 11688
11677 1 11688 11689
11678 1 11689 11690
11679 1 11690 11691
11680 1 11691 11692
11681 1 11692 11693
11682 1 11693 11694
11683 1 11694 11695
11684 1 11695 11696
11685 1 11696 11697
11686 1 11697 11698
11687 1 11698 11699
11688 1 11699 11700
11689 1 11700 11701
11690 1 11701 11702
11691 1 11702 11703
11692 1 11703 11704
11693 1 11704 11705
11694 1 11705 11706
11695 1 11706 11707
11696 1 11707 11708
11697 1 11708 11709
11698 1 11709 11710
11699 1 11710 11711
11700 1 11711 11712
11701 1 11712 11713
11702 1 11713 11714
11703 1 11714 11715
11704 1 11715 11716
11705 1 11716 11717
11706 1 11717 11718
11707 1 11718 11719
11708 1 11719 11720
11709 1 11720 11721
11710 1 11721 11722
11711 1 11722 11723
11712 1 11723 11724
11713 1 11724 11725
11714 1 11725 11726
11715 1 11726 11727
11716 1 11727 11728
11717 1 11728 11729
11718 1 11729 11730
11719 1 11730 11731
11720 1 11731 11732
11721 1 11732 11733
11722 1 11733 11734
11723 1 11734 11735
11724 1 11735 11736
11725 1 11736 11737
11726 1 11737 11738
11727 1 11738 11739
11728 1 11739 11740
11729 1 11740 11741
11730 1 11741 11742
11731 1 11742 11743
11732 1 11743 11744
11733 1 11744 11745
11734 1 11745 11746
11735 1 11746 11747
11736 1 11747 11748
11737 1 11748 11749
11738 1 11749 11750
11739 1 11750 11751
11740 1 11751 11752
11741 1 11752 11753
11742 1 11753 11754
11743 1 11754 11755
11744 1 11755 11756
11745 1 11756 11757
11746 1 11757 11758
11747 1 11758 11759
11748 1 11759 11760
11749 1 11760 11761
11750 1 11761 11762
11751 1 11762 11763
11752 1 11763 11764
11753 1 11764 11765
11754 1 11765 11766
11755 1 11766 11767
11756 1 11767 11768
11757 1 11768 11769
11758 1 11769 11770
11759 1 11770 11771
11760 1 11771 11772
11761 1 11772 11773
11762 1 11773 11774
11763 1 11774 11775
11764 1 11775 11776
11765 1 11776 11777
11766 1 11777 11778
11767 1 11778 11779
11768 1 11779 11780
11769 1 11780 11781
11770 1 11781 11782
11771 1 11782 11783
11772 1 11783 11784
11773 1 11784 11785
11774 1 11785 11786
11775 1 11786 11787
11776 1 11787 11788
11777 1 11788 11789
11778 1 11789 11790
11779 1 11790 11791
11780 1 11791 11792
11781 1 11792 11793
11782 1 11793 11794
11783 1 11794 11795
11784 1 11795 11796
11785 1 11796 11797
11786 1 11797 11798
11787 1 11798 11799
11788 1 11799 11800
11789 1 11800 11801
11790 1 11801 11802
11791 1 11802 11803
11792 1 11803 11804
11793 1 11804 11805
11794 1 11805 11806
11795 1 11806 11807
11796 1 11807 11808
11797 1 11808 11809
11798 1 11809 11810
11799 1 11810 11811
11800 1 11811 11812
11801 1 11812 11813
11802 1 11813 11814
11803 1 11814 11815
11804 1 11815 11816
11805 1 11816 11817
11806 1 11817 11818
11807 1 11818 11819
11808 1 11819 11820
11809 1 11820 11821
11810 1 11821 11822
11811 1 11822 11823
11812 1 11823 11824
11813 1 11824 11825
11814 1 11825 11826
11815 1 11826 11827
11816 1 11827 11828
11817 1 11828 11829
11818 1 11829 11830
11819 1 11830 11831
11820 1 11831 11832
11821 1 11832 11833
11822 1 11833 11834
11823 1 11834 11835
11824 1 11835 11836
11825 1 11836 11837
11826 1 11837 11838
11827 1 11838 11839
11828 1 11839 11840
11829 1 11840 11841
11830 1 11841 11842
11831 1 11842 11843
11832 1 11843 11844
11833 1 11844 11845
11834 1 11845 11846
11835 1 11846 11847
11836 1 11847 11848
11837 1 11848 11849
11838 1 11849 11850
11839 1 11850 11851
11840 1 11851 11852
11841 1 11852 11853
11842 1 11853 11854
11843 1 11854 11855
11844 1 11855 11856
11845 1 11856 11857
11846 1 11857 11858
11847 1 11858 11859
11848 1 11859 11860
11849 1 11860 11861
11850 1 11861 11862
11851 1 11862 11863
11852 1 11863 11864
11853 1 11864 11865
11854 1 11865 11866
11855 1 11866 11867
11856 1 11867 11868
11857 1 11868 11869
11858 1 11869 11870
11859 1 11870 11871
11860 1 11871 11872
11861 1 11872 11873
11862 1 11873 11874
11863 1 11874 11875
11864 1 11875 11876
11865 1 11876 11877
11866 1 11877 11878
11867 1 11878 11879
11868 1 11879 11880
11869 1 11880 11881
11870 1 11881 11882
11871 1 11882 11883
11872 1 11883 11884
11873 1 11884 11885
11874 1 11885 11886
11875 1 11886 11887
11876 1 11887 11888
11877 1 11888 11889
11878 1 11889 11890
11879 1 11890 11891
11880 1 11891 11892
11881 1 11892 11893
11882 1 11893 11894
11883 1 11894 11895
11884 1 11895 11896
11885 1 11896 11897
11886 1 11897 11898
11887 1 11898 11899
11888 1 11899 11900
11889 1 11900 11901
11890 1 11901 11902
11891 1 11902 11903
11892 1 11903 11904
11893 1 11904 11905
11894 1 11905 11906
11895 1 11906 11907
11896 1 11907 11908
11897 1 11908 11909
11898 1 11909 11910
11899 1 11910 11911
11900 1 11911 11912
11901 1 11912 11913
11902 1 11913 11914
11903 1 11914 11915
11904 1 11915 11916
11905 1 11916 11917
11906 1 11917 11918
11907 1 11918 11919
11908 1 11919 11920
11909 1 11920 11921
11910 1 11921 11922
11911 1 11922 11923
11912 1 11923 11924
11913 1 11924 11925
11914 1 11925 11926
11915 1 11926 11927
11916 1 11927 11928
11917 1 11928 11929
11918 1 11929 11930
11919 1 11930 11931
11920 1 11931 11932
11921 1 11932 11933
11922 1 11933 11934
11923 1 11934 11935
11924 1 11935 11936
11925 1 11936 11937
11926 1 11937 11938
11927 1 11938 11939
11928 1 11939 11940
11929 1 11940 11941
11930 1 11941 11942
11931 1 11942 11943
11932 1 11943 11944
11933 1 11944 11945
11934 1 11945 11946
11935 1 11946 11947
11936 1 11947 11948
11937 1 11948 11949
11938 1 11949 11950
11939 1 11950 11951
11940 1 11951 11952
11941 1 11952 11953
11942 1 11953 11954
11943 1 11954 11955
11944 1 11955 11956
11945 1 11956 11957
11946 1 11957 11958
11947 1 11958 11959
11948 1 11959 11960
11949 1 11960 11961
11950 1 11961 11962
11951 1 11962 11963
11952 1 11963 11964
11953 1 11964 11965
11954 1 11965 11966
11955 1 11966 11967
11956 1 11967 11968
11957 1 11968 11969
11958 1 11969 11970
11959 1 11970 11971
11960 1 11971 11972
11961 1 11972 11973
11962 1 11973 11974
11963 1 11974 11975
11964 1 11975 11976
11965 1 11976 11977
11966 1 11977 11978
11967 1 11978 11979
11968 1 11979 11980
11969 1 11980 11981
11970 1 11981 11982
11971 1 11982 11983
11972 1 11983 11984
11973 1 11984 11985
11974 1 11985 11986
11975 1 11986 11987
11976 1 11987 11988
11977 1 11988 11989
11978 1 11989 11990
11979 1 11990 11991
11980 1 11991 11992
11981 1 11992 11993
11982 1 11993 11994
11983 1 11994 11995
11984 1 11995 11996
11985 1 11996 11997
11986 1 11997 11998
11987 1 11998 11999
11988 1 11999 12000
11989 1 12001 12002
11990 1 12002 12003
11991 1 12003 12004
11992 1 12004 12005
11993 1 12005 12006
11994 1 12006 12007
11995 1 12007 12008
11996 1 12008 12009
11997 1 12009 12010
11998 1 12010 12011
11999 1 12011 12012
12000 1 12012 12013
12001 1 12013 12014
12002 1 12014 12015
12003 1 12015 12016
12004 1 12016 12017
12005 1 12017 12018
12006 1 12018 12019
12007 1 12019 12020
12008 1 12020 12021
12009 1 12021 12022
12010 1 12022 12023
12011 1 12023 12024
12012 1 12024 12025
12013 1 12025 12026
12014 1 12026 12027
12015 1 12027 12028
12016 1 12028 12029
12017 1 12029 12030
12018 1 12030 12031
12019 1 12031 12032
12020 1 12032 12033
12021 1 12033 12034
12022 1 12034 12035
12023 1 12035 12036
12024 1 12036 12037
12025 1 12037 12038
12026 1 12038 12039
12027 1 12039 12040
12028 1 12040 12041
12029 1 12041 12042
12030 1 12042 12043
12031 1 12043 12044
12032 1 12044 12045
12033 1 12045 12046
12034 1 12046 12047
12035 1 12047 12048
12036 1 12048 12049
12037 1 12049 12050
12038 1 12050 12051
12039 1 12051 12052
12040 1 12052 12053
12041 1 12053 12054
12042 1 12054 12055
12043 1 12055 12056
12044 1 12056 12057
12045 1 12057 12058
12046 1 12058 12059
12047 1 12059 12060
12048 1 12060 12061
12049 1 12061 12062
12050 1 12062 12063
12051 1 12063 12064
12052 1 12064 12065
12053 1 12065 12066
12054 1 12066 12067
12055 1 12067 12068
12056 1 12068 12069
12057 1 12069 12070
12058 1 12070 12071
12059 1 12071 12072
12060 1 12072 12073
12061 1 12073 12074
12062 1 12074 12075
12063 1 12075 12076
12064 1 12076 12077
12065 1 12077 12078
12066 1 12078 12079
12067 1 12079 12080
12068 1 12080 12081
12069 1 12081 12082
12070 1 12082 12083
12071 1 12083 12084
12072 1 12084 12085
12073 1 12085 12086
12074 1 12086 12087
12075 1 12087 12088
12076 1 12088 12089
12077 1 12089 12090
12078 1 12090 12091
12079 1 12091 12092
12080 1 12092 12093
12081 1 12093 12094
12082 1 12094 12095
12083 1 12095 12096
12084 1 12096 12097
12085 1 12097 12098
12086 1 12098 12099
12087 1 12099 12100
12088 1 12100 12101
12089 1 12101 12102
12090 1 12102 12103
12091 1 12103 12104
12092 1 12104 12105
12093 1 12105 12106
12094 1 12106 12107
12095 1 12107 12108
12096 1 12108 12109
12097 1 12109 12110
12098 1 12110 12111
12099 1 12111 12112
12100 1 12112 12113
12101 1 12113 12114
12102 1 12114 12115
12103 1 12115 12116
12104 1 12116 12117
12105 1 12117 12118
12106 1 12118 12119
12107 1 12119 12120
12108 1 12120 12121
12109 1 12121 12122
12110 1 12122 12123
12111 1 12123 12124
12112 1 12124 12125
12113 1 12125 12126
12114 1 12126 12127
12115 1 12127 12128
12116 1 12128 12129
12117 1 12129 12130
12118 1 12130 12131
12119 1 12131 12132
12120 1 12132 12133
12121 1 12133 12134
12122 1 12134 12135
12123 1 12135 12136
12124 1 12136 12137
12125 1 12137 12138
12126 1 12138 12139
12127 1 12139 12140
12128 1 12140 12141
12129 1 12141 12142
12130 1 12142 12143
12131 1 12143 12144
12132 1 12144 12145
12133 1 12145 12146
12134 1 12146 12147
12135 1 12147 12148
12136 1 12148 12149
12137 1 12149 12150
12138 1 12150 12151
12139 1 12151 12152
12140 1 12152 12153
12141 1 12153 12154
12142 1 12154 12155
12143 1 12155 12156
12144 1 12156 12157
12145 1 12157 12158
12146 1 12158 12159
12147 1 12159 12160
12148 1 12160 12161
12149 1 12161 12162
12150 1 12162 12163
12151 1 12163 12164
12152 1 12164 12165
12153 1 12165 12166
12154 1 12166 12167
12155 1 12167 12168
12156 1 12168 12169
12157 1 12169 12170
12158 1 12170 12171
12159 1 12171 12172
12160 1 12172 12173
12161 1 12173 12174
12162 1 12174 12175
12163 1 12175 12176
12164 1 12176 12177
12165 1 12177 12178
12166 1 12178 12179
12167 1 12179 12180
12168 1 12180 12181
12169 1 12181 12182
12170 1 12182 12183
12171 1 12183 12184
12172 1 12184 12185
12173 1 12185 12186
12174 1 12186 12187
12175 1 12187 12188
12176 1 12188 12189
12177 1 12189 12190
12178 1 12190 12191
12179 1 12191 12192
12180 1 12192 12193
12181 1 12193 12194
12182 1 12194 12195
12183 1 12195 12196
12184 1 12196 12197
12185 1 12197 12198
12186 1 12198 12199
12187 1 12199 12200
12188 1 12200 12201
12189 1 12201 12202
12190 1 12202 12203
12191 1 12203 12204
12192 1 12204 12205
12193 1 12205 12206
12194 1 12206 12207
12195 1 12207 12208
12196 1 12208 12209
12197 1 12209 12210
12198 1 12210 12211
12199 1 12211 12212
12200 1 12212 12213
12201 1 12213 12214
12202 1 12214 12215
12203 1 12215 12216
12204 1 12216 12217
12205 1 12217 12218
12206 1 12218 12219
12207 1 12219 12220
12208 1 12220 12221
12209 1 12221 12222
12210 1 12222 12223
12211 1 12223 12224
12212 1 12224 12225
12213 1 12225 12226
12214 1 12226 12227
12215 1 12227 12228
12216 1 12228 12229
12217 1 12229 12230
12218 1 12230 12231
12219 1 12231 12232
12220 1 12232 12233
12221 1 12233 12234
12222 1 12234 12235
12223 1 12235 12236
12224 1 12236 12237
12225 1 12237 12238
12226 1 12238 12239
12227 1 12239 12240
12228 1 12240 12241
12229 1 12241 12242
12230 1 12242 12243
12231 1 12243 12244
12232 1 12244 12245
12233 1 12245 12246
12234 1 12246 12247
12235 1 12247 12248
12236 1 12248 12249
12237 1 12249 12250
12238 1 12250 12251
12239 1 12251 12252
12240 1 12252 12253
12241 1 12253 12254
12242 1 12254 12255
12243 1 12255 12256
12244 1 12256 12257
12245 1 12257 12258
12246 1 12258 12259
12247 1 12259 12260
12248 1 12260 12261
12249 1 12261 12262
12250 1 12262 12263
12251 1 12263 12264
12252 1 12264 12265
12253 1 12265 12266
12254 1 12266 12267
12255 1 12267 12268
12256 1 12268 12269
12257 1 12269 12270
12258 1 12270 12271
12259 1 12271 12272
12260 1 12272 12273
12261 1 12273 12274
12262 1 12274 12275
12263 1 12275 12276
12264 1 12276 12277
12265 1 12277 12278
12266 1 12278 12279
12267 1 12279 12280
12268 1 12280 12281
12269 1 12281 12282
12270 1 12282 12283
12271 1 12283 12284
12272 1 12284 12285
12273 1 12285 12286
12274 1 12286 12287
12275 1 12287 12288
12276 1 12288 12289
12277 1 12289 12290
12278 1 12290 12291
12279 1 12291 12292
12280 1 12292 12293
12281 1 12293 12294
12282 1 12294 12295
12283 1 12295 12296
12284 1 12296 12297
12285 1 12297 12298
12286 1 12298 12299
12287 1 12299 12300
12288 1 12300 12301
12289 1 12301 12302
12290 1 12302 12303
12291 1 12303 12304
12292 1 12304 12305
12293 1 12305 12306
12294 1 12306 12307
12295 1 12307 12308
12296 1 12308 12309
12297 1 12309 12310
12298 1 12310 12311
12299 1 12311 12312
12300 1 12312 12313
12301 1 12313 12314
12302 1 12314 12315
12303 1 12315 12316
12304 1 12316 12317
12305 1 12317 12318
12306 1 12318 12319
12307 1 12319 12320
12308 1 12320 12321
12309 1 12321 12322
12310 1 12322 12323
12311 1 12323 12324
12312 1 12324 12325
12313 1 12325 12326
12314 1 12326 12327
12315 1 12327 12328
12316 1 12328 12329
12317 1 12329 12330
12318 1 12330 12331
12319 1 12331 12332
12320 1 12332 12333
12321 1 12333 12334
12322 1 12334 12335
12323 1 12335 12336
12324 1 12336 12337
12325 1 12337 12338
12326 1 12338 12339
12327 1 12339 12340
12328 1 12340 12341
12329 1 12341 12342
12330 1 12342 12343
12331 1 12343 12344
12332 1 12344 12345
12333 1 12345 12346
12334 1 12346 12347
12335 1 12347 12348
12336 1 12348 12349
12337 1 12349 12350
12338 1 12350 12351
12339 1 12351 12352
12340 1 12352 12353
12341 1 12353 12354
12342 1 12354 12355
12343 1 12355 12356
12344 1 12356 12357
12345 1 12357 12358
12346 1 12358 12359
12347 1 12359 12360
12348 1 12360 12361
12349 1 12361 12362
12350 1 12362 12363
12351 1 12363 12364
12352 1 12364 12365
12353 1 12365 12366
12354 1 12366 12367
12355 1 12367 12368
12356 1 12368 12369
12357 1 12369 12370
12358 1 12370 12371
12359 1 12371 12372
12360 1 12372 12373
12361 1 12373 12374
12362 1 12374 12375
12363 1 12375 12376
12364 1 12376 12377
12365 1 12377 12378
12366 1 12378 12379
12367 1 12379 12380
12368 1 12380 12381
12369 1 12381 12382
12370 1 12382 12383
12371 1 12383 12384
12372 1 12384 12385
12373 1 12385 12386
12374 1 12386 12387
12375 1 12387 12388
12376 1 12388 12389
12377 1 12389 12390
12378 1 12390 12391
12379 1 12391 12392
12380 1 12392 12393
12381 1 12393 12394
12382 1 12394 12395
12383 1 12395 12396
12384 1 12396 12397
12385 1 12397 12398
12386 1 12398 12399
12387 1 12399 12400
12388 1 12400 12401
12389 1 12401 12402
12390 1 12402 12403
12391 1 12403 12404
12392 1 12404 12405
12393 1 12405 12406
12394 1 12406 12407
12395 1 12407 12408
12396 1 12408 12409
12397 1 12409 12410
12398 1 12410 12411
12399 1 12411 12412
12400 1 12412 12413
12401 1 12413 12414
12402 1 12414 12415
12403 1 12415 12416
12404 1 12416 12417
12405 1 12417 12418
12406 1 12418 12419
12407 1 12419 12420
12408 1 12420 12421
12409 1 12421 12422
12410 1 12422 12423
12411 1 12423 12424
12412 1 12424 12425
12413 1 12425 12426
12414 1 12426 12427
12415 1 12427 12428
12416 1 12428 12429
12417 1 12429 12430
12418 1 12430 12431
12419 1 12431 12432
12420 1 12432 12433
12421 1 12433 12434
12422 1 12434 12435
12423 1 12435 12436
12424 1 12436 12437
12425 1 12437 12438
12426 1 12438 12439
12427 1 12439 12440
12428 1 12440 12441
12429 1 12441 12442
12430 1 12442 12443
12431 1 12443 12444
12432 1 12444 12445
12433 1 12445 12446
12434 1 12446 12447
12435 1 12447 12448
12436 1 12448 12449
12437 1 12449 12450
12438 1 12450 12451
12439 1 12451 12452
12440 1 12452 12453
12441 1 12453 12454
12442 1 12454 12455
12443 1 12455 12456
12444 1 12456 12457
12445 1 12457 12458
12446 1 12458 12459
12447 1 12459 12460
12448 1 12460 12461
12449 1 12461 12462
12450 1 12462 12463
12451 1 12463 12464
12452 1 12464 12465
12453 1 12465 12466
12454 1 12466 12467
12455 1 12467 12468
12456 1 12468 12469
12457 1 12469 12470
12458 1 12470 12471
12459 1 12471 12472
12460 1 12472 12473
12461 1 12473 12474
12462 1 12474 12475
12463 1 12475 12476
12464 1 12476 12477
12465 1 12477 12478
12466 1 12478 12479
12467 1 12479 12480
12468 1 12480 12481
12469 1 12481 12482
12470 1 12482 12483
12471 1 12483 12484
12472 1 12484 12485
12473 1 12485 12486
12474 1 12486 12487
12475 1 12487 12488
12476 1 12488 12489
12477 1 12489 12490
12478 1 12490 12491
12479 1 12491 12492
12480 1 12492 12493
12481 1 12493 12494
12482 1 12494 12495
12483 1 12495 12496
12484 1 12496 12497
12485 1 12497 12498
12486 1 12498 12499
12487 1 12499 12500
12488 1 12500 12501
12489 1 12501 12502
12490 1 12502 12503
12491 1 12503 12504
12492 1 12504 12505
12493 1 12505 12506
12494 1 12506 12507
12495 1 12507 12508
12496 1 12508 12509
12497 1 12509 12510
12498 1 12510 12511
12499 1 12511 12512
12500 1 12512 12513
12501 1 12513 12514
12502 1 12514 12515
12503 1 12515 12516
12504 1 12516 12517
12505 1 12517 12518
12506 1 12518 12519
12507 1 12519 12520
12508 1 12520 12521
12509 1 12521 12522
12510 1 12522 12523
12511 1 12523 12524
12512 1 12524 12525
12513 1 12525 12526
12514 1 12526 12527
12515 1 12527 12528
12516 1 12528 12529
12517 1 12529 12530
12518 1 12530 12531
12519 1 12531 12532
12520 1 12532 12533
12521 1 12533 12534
12522 1 12534 12535
12523 1 12535 12536
12524 1 12536 12537
12525 1 12537 12538
12526 1 12538 12539
12527 1 12539 12540
12528 1 12540 12541
12529 1 12541 12542
12530 1 12542 12543
12531 1 12543 12544
12532 1 12544 12545
12533 1 12545 12546
12534 1 12546 12547
12535 1 12547 12548
12536 1 12548 12549
12537 1 12549 12550
12538 1 12550 12551
12539 1 12551 12552
12540 1 12552 12553
12541 1 12553 12554
12542 1 12554 12555
12543 1 12555 12556
12544 1 12556 12557
12545 1 12557 12558
12546 1 12558 12559
12547 1 12559 12560
12548 1 12560 12561
12549 1 12561 12562
12550 1 12562 12563
12551 1 12563 12564
12552 1 12564 12565
12553 1 12565 12566
12554 1 12566 12567
12555 1 12567 12568
12556 1 12568 12569
12557 1 12569 12570
12558 1 12570 12571
12559 1 12571 12572
12560 1 12572 12573
12561 1 12573 12574
12562 1 12574 12575
12563 1 12575 12576
12564 1 12576 12577
12565 1 12577 12578
12566 1 12578 12579
12567 1 12579 12580
12568 1 12580 12581
12569 1 12581 12582
12570 1 12582 12583
12571 1 12583 12584
12572 1 12584 12585
12573 1 12585 12586
12574 1 12586 12587
12575 1 12587 12588
12576 1 12588 12589
12577 1 12589 12590
12578 1 12590 12591
12579 1 12591 12592
12580 1 12592 12593
12581 1 12593 12594
12582 1 12594 12595
12583 1 12595 12596
12584 1 12596 12597
12585 1 12597 12598
12586 1 12598 12599
12587 1 12599 12600
12588 1 12600 12601
12589 1 12601 12602
12590 1 12602 12603
12591 1 12603 12604
12592 1 12604 12605
12593 1 12605 12606
12594 1 12606 12607
12595 1 12607 12608
12596 1 12608 12609
12597 1 12609 12610
12598 1 12610 12611
12599 1 12611 12612
12600 1 12612 12613
12601 1 12613 12614
12602 1 12614 12615
12603 1 12615 12616
12604 1 12616 12617
12605 1 12617 12618
12606 1 12618 12619
12607 1 12619 12620
12608 1 12620 12621
12609 1 12621 12622
12610 1 12622 12623
12611 1 12623 12624
12612 1 12624 12625
12613 1 12625 12626
12614 1 12626 12627
12615 1 12627 12628
12616 1 12628 12629
12617 1 12629 12630
12618 1 12630 12631
12619 1 12631 12632
12620 1 12632 12633
12621 1 12633 12634
12622 1 12634 12635
12623 1 12635 12636
12624 1 12636 12637
12625 1 12637 12638
12626 1 12638 12639
12627 1 12639 12640
12628 1 12640 12641
12629 1 12641 12642
12630 1 12642 12643
12631 1 12643 12644
12632 1 12644 12645
12633 1 12645 12646
12634 1 12646 12647
12635 1 12647 12648
12636 1 12648 12649
12637 1 12649 12650
12638 1 12650 12651
12639 1 12651 12652
12640 1 12652 12653
12641 1 12653 12654
12642 1 12654 12655
12643 1 12655 12656
12644 1 12656 12657
12645 1 12657 12658
12646 1 12658 12659
12647 1 12659 12660
12648 1 12660 12661
12649 1 12661 12662
12650 1 12662 12663
12651 1 12663 12664
12652 1 12664 12665
12653 1 12665 12666
12654 1 12666 12667
12655 1 12667 12668
12656 1 12668 12669
12657 1 12669 12670
12658 1 12670 12671
12659 1 12671 12672
12660 1 12672 12673
12661 1 12673 12674
12662 1 12674 12675
12663 1 12675 12676
12664 1 12676 12677
12665 1 12677 12678
12666 1 12678 12679
12667 1 12679 12680
12668 1 12680 12681
12669 1 12681 12682
12670 1 12682 12683
12671 1 12683 12684
12672 1 12684 12685
12673 1 12685 12686
12674 1 12686 12687
12675 1 12687 12688
12676 1 12688 12689
12677 1 12689 12690
12678 1 12690 12691
12679 1 12691 12692
12680 1 12692 12693
12681 1 12693 12694
12682 1 12694 12695
12683 1 12695 12696
12684 1 12696 12697
12685 1 12697 12698
12686 1 12698 12699
12687 1 12699 12700
12688 1 12700 12701
12689 1 12701 12702
12690 1 12702 12703
12691 1 12703 12704
12692 1 12704 12705
12693 1 12705 12706
12694 1 12706 12707
12695 1 12707 12708
12696 1 12708 12709
12697 1 12709 12710
12698 1 12710 12711
12699 1 12711 12712
12700 1 12712 12713
12701 1 12713 12714
12702 1 12714 12715
12703 1 12715 12716
12704 1 12716 12717
12705 1 12717 12718
12706 1 12718 12719
12707 1 12719 12720
12708 1 12720 12721
12709 1 12721 12722
12710 1 12722 12723
12711 1 12723 12724
12712 1 12724 12725
12713 1 12725 12726
12714 1 12726 12727
12715 1 12727 12728
12716 1 12728 12729
12717 1 12729 12730
12718 1 12730 12731
12719 1 12731 12732
12720 1 12732 12733
12721 1 12733 12734
12722 1 12734 12735
12723 1 12735 12736
12724 1 12736 12737
12725 1 12737 12738
12726 1 12738 12739
12727 1 12739 12740
12728 1 12740 12741
12729 1 12741 12742
12730 1 12742 12743
12731 1 12743 12744
12732 1 12744 12745
12733 1 12745 12746
12734 1 12746 12747
12735 1 12747 12748
12736 1 12748 12749
12737 1 12749 12750
12738 1 12750 12751
12739 1 12751 12752
12740 1 12752 12753
12741 1 12753 12754
12742 1 12754 12755
12743 1 12755 12756
12744 1 12756 12757
12745 1 12757 12758
12746 1 12758 12759
12747 1 12759 12760
12748 1 12760 12761
12749 1 12761 12762
12750 1 12762 12763
12751 1 12763 12764
12752 1 12764 12765
12753 1 12765 12766
12754 1 12766 12767
12755 1 12767 12768
12756 1 12768 12769
12757 1 12769 12770
12758 1 12770 12771
12759 1 12771 12772
12760 1 12772 12773
12761 1 12773 12774
12762 1 12774 12775
12763 1 12775 12776
12764 1 12776 12777
12765 1 12777 12778
12766 1 12778 12779
12767 1 12779 12780
12768 1 12780 12781
12769 1 12781 12782
12770 1 12782 12783
12771 1 12783 12784
12772 1 12784 12785
12773 1 12785 12786
12774 1 12786 12787
12775 1 12787 12788
12776 1 12788 12789
12777 1 12789 12790
12778 1 12790 12791
12779 1 12791 12792
12780 1 12792 12793
12781 1 12793 12794
12782 1 12794 12795
12783 1 12795 12796
12784 1 12796 12797
12785 1 12797 12798
12786 1 12798 12799
12787 1 12799 12800
12788 1 12800 12801
12789 1 12801 12802
12790 1 12802 12803
12791 1 12803 12804
12792 1 12804 12805
12793 1 12805 12806
12794 1 12806 12807
12795 1 12807 12808
12796 1 12808 12809
12797 1 12809 12810
12798 1 12810 12811
12799 1 12811 12812
12800 1 12812 12813
12801 1 12813 12814
12802 1 12814 12815
12803 1 12815 12816
12804 1 12816 12817
12805 1 12817 12818
12806 1 12818 12819
12807 1 12819 12820
12808 1 12820 12821
12809 1 12821 12822
12810 1 12822 12823
12811 1 12823 12824
12812 1 12824 12825
12813 1 12825 12826
12814 1 12826 12827
12815 1 12827 12828
12816 1 12828 12829
12817 1 12829 12830
12818 1 12830 12831
12819 1 12831 12832
12820 1 12832 12833
12821 1 12833 12834
12822 1 12834 12835
12823 1 12835 12836
12824 1 12836 12837
12825 1 12837 12838
12826 1 12838 12839
12827 1 12839 12840
12828 1 12840 12841
12829 1 12841 12842
12830 1 12842 12843
12831 1 12843 12844
12832 1 12844 12845
12833 1 12845 12846
12834 1 12846 12847
12835 1 12847 12848
12836 1 12848 12849
12837 1 12849 12850
12838 1 12850 12851
12839 1 12851 12852
12840 1 12852 12853
12841 1 12853 12854
12842 1 12854 12855
12843 1 12855 12856
12844 1 12856 12857
12845 1 12857 12858
12846 1 12858 12859
12847 1 12859 12860
12848 1 12860 12861
12849 1 12861 12862
12850 1 12862 12863
12851 1 12863 12864
12852 1 12864 12865
12853 1 12865 12866
12854 1 12866 12867
12855 1 12867 12868
12856 1 12868 12869
12857 1 12869 12870
12858 1 12870 12871
12859 1 12871 12872
12860 1 12872 12873
12861 1 12873 12874
12862 1 12874 12875
12863 1 12875 12876
12864 1 12876 12877
12865 1 12877 12878
12866 1 12878 12879
12867 1 12879 12880
12868 1 12880 12881
12869 1 12881 12882
12870 1 12882 12883
12871 1 12883 12884
12872 1 12884 12885
12873 1 12885 12886
12874 1 12886 12887
12875 1 12887 12888
12876 1 12888 12889
12877 1 12889 12890
12878 1 12890 12891
12879 1 12891 12892
12880 1 12892 12893
12881 1 12893 12894
12882 1 12894 12895
12883 1 12895 12896
12884 1 12896 12897
12885 1 12897 12898
12886 1 12898 12899
12887 1 12899 12900
12888 1 12900 12901
12889 1 12901 12902
12890 1 12902 12903
12891 1 12903 12904
12892 1 12904 12905
12893 1 12905 12906
12894 1 12906 12907
12895 1 12907 12908
12896 1 12908 12909
12897 1 12909 12910
12898 1 12910 12911
12899 1 12911 12912
12900 1 12912 12913
12901 1 12913 12914
12902 1 12914 12915
12903 1 12915 12916
12904 1 12916 12917
12905 1 12917 12918
12906 1 12918 12919
12907 1 12919 12920
12908 1 12920 12921
12909 1 12921 12922
12910 1 12922 12923
12911 1 12923 12924
12912 1 12924 12925
12913 1 12925 12926
12914 1 12926 12927
12915 1 12927 12928
12916 1 12928 12929
12917 1 12929 12930
12918 1 12930 12931
12919 1 12931 12932
12920 1 12932 12933
12921 1 12933 12934
12922 1 12934 12935
12923 1 12935 12936
12924 1 12936 12937
12925 1 12937 12938
12926 1 12938 12939
12927 1 12939 12940
12928 1 12940 12941
12929 1 12941 12942
12930 1 12942 12943
12931 1 12943 12944
12932 1 12944 12945
12933 1 12945 12946
12934 1 12946 12947
12935 1 12947 12948
12936 1 12948 12949
12937 1 12949 12950
12938 1 12950 12951
12939 1 12951 12952
12940 1 12952 12953
12941 1 12953 12954
12942 1 12954 12955
12943 1 12955 12956
12944 1 12956 12957
12945 1 12957 12958
12946 1 12958 12959
12947 1 12959 12960
12948 1 12960 12961
12949 1 12961 12962
12950 1 12962 12963
12951 1 12963 12964
12952 1 12964 12965
12953 1 12965 12966
12954 1 12966 12967
12955 1 12967 12968
12956 1 12968 12969
12957 1 12969 12970
12958 1 12970 12971
12959 1 12971 12972
12960 1 12972 12973
12961 1 12973 12974
12962 1 12974 12975
12963 1 12975 12976
12964 1 12976 12977
12965 1 12977 12978
12966 1 12978 12979
12967 1 12979 12980
12968 1 12980 12981
12969 1 12981 12982
12970 1 12982 12983
12971 1 12983 12984
12972 1 12984 12985
12973 1 12985 12986
12974 1 12986 12987
12975 1 12987 12988
12976 1 12988 12989
12977 1 12989 12990
12978 1 12990 12991
12979 1 12991 12992
12980 1 12992 12993
12981 1 12993 12994
12982 1 12994 12995
12983 1 12995 12996
12984 1 12996 12997
12985 1 12997 12998
12986 1 12998 12999
12987 1 12999 13000
12988 1 13001 13002
12989 1 13002 13003
12990 1 13003 13004
12991 1 13004 13005
12992 1 13005 13006
12993 1 13006 13007
12994 1 13007 13008
12995 1 13008 13009
12996 1 13009 13010
12997 1 13010 13011
12998 1 13011 13012
12999 1 13012 13013
13000 1 13013 13014
13001 1 13014 13015
13002 1 13015 13016
13003 1 13016 13017
13004 1 13017 13018
13005 1 13018 13019
13006 1 13019 13020
13007 1 13020 13021
13008 1 13021 13022
13009 1 13022 13023
13010 1 13023 13024
13011 1 13024 13025
13012 1 13025 13026
13013 1 13026 13027
13014 1 13027 13028
13015 1 13028 13029
13016 1 13029 13030
13017 1 13030 13031
13018 1 13031 13032
13019 1 13032 13033
13020 1 13033 13034
13021 1 13034 13035
13022 1 13035 13036
13023 1 13036 13037
13024 1 13037 13038
13025 1 13038 13039
13026 1 13039 13040
13027 1 13040 13041
13028 1 13041 13042
13029 1 13042 13043
13030 1 13043 13044
13031 1 13044 13045
13032 1 13045 13046
13033 1 13046 13047
13034 1 13047 13048
13035 1 13048 13049
13036 1 13049 13050
13037 1 13050 13051
13038 1 13051 13052
13039 1 13052 13053
13040 1 13053 13054
13041 1 13054 13055
13042 1 13055 13056
13043 1 13056 13057
13044 1 13057 13058
13045 1 13058 13059
13046 1 13059 13060
13047 1 13060 13061
13048 1 13061 13062
13049 1 13062 13063
13050 1 13063 13064
13051 1 13064 13065
13052 1 13065 13066
13053 1 13066 13067
13054 1 13067 13068
13055 1 13068 13069
13056 1 13069 13070
13057 1 13070 13071
13058 1 13071 13072
13059 1 13072 13073
13060 1 13073 13074
13061 1 13074 13075
13062 1 13075 13076
13063 1 13076 13077
13064 1 13077 13078
13065 1 13078 13079
13066 1 13079 13080
13067 1 13080 13081
13068 1 13081 13082
13069 1 13082 13083
13070 1 13083 13084
13071 1 13084 13085
13072 1 13085 13086
13073 1 13086 13087
13074 1 13087 13088
13075 1 13088 13089
13076 1 13089 13090
13077 1 13090 13091
13078 1 13091 13092
13079 1 13092 13093
13080 1 13093 13094
13081 1 13094 13095
13082 1 13095 13096
13083 1 13096 13097
13084 1 13097 13098
13085 1 13098 13099
13086 1 13099 13100
13087 1 13100 13101
13088 1 13101 13102
13089 1 13102 13103
13090 1 13103 13104
13091 1 13104 13105
13092 1 13105 13106
13093 1 13106 13107
13094 1 13107 13108
13095 1 13108 13109
13096 1 13109 13110
13097 1 13110 13111
13098 1 13111 13112
13099 1 13112 13113
13100 1 13113 13114
13101 1 13114 13115
13102 1 13115 13116
13103 1 13116 13117
13104 1 13117 13118
13105 1 13118 13119
13106 1 13119 13120
13107 1 13120 13121
13108 1 13121 13122
13109 1 13122 13123
13110 1 13123 13124
13111 1 13124 13125
13112 1 13125 13126
13113 1 13126 13127
13114 1 13127 13128
13115 1 13128 13129
13116 1 13129 13130
13117 1 13130 13131
13118 1 13131 13132
13119 1 13132 13133
13120 1 13133 13134
13121 1 13134 13135
13122 1 13135 13136
13123 1 13136 13137
13124 1 13137 13138
13125 1 13138 13139
13126 1 13139 13140
13127 1 13140 13141
13128 1 13141 13142
13129 1 13142 13143
13130 1 13143 13144
13131 1 13144 13145
13132 1 13145 13146
13133 1 13146 13147
13134 1 13147 13148
13135 1 13148 13149
13136 1 13149 13150
13137 1 13150 13151
13138 1 13151 13152
13139 1 13152 13153
13140 1 13153 13154
13141 1 13154 13155
13142 1 13155 13156
13143 1 13156 13157
13144 1 13157 13158
13145 1 13158 13159
13146 1 13159 13160
13147 1 13160 13161
13148 1 13161 13162
13149 1 13162 13163
13150 1 13163 13164
13151 1 13164 13165
13152 1 13165 13166
13153 1 13166 13167
13154 1 13167 13168
13155 1 13168 13169
13156 1 13169 13170
13157 1 13170 13171
13158 1 13171 13172
13159 1 13172 13173
13160 1 13173 13174
13161 1 13174 13175
13162 1 13175 13176
13163 1 13176 13177
13164 1 13177 13178
13165 1 13178 13179
13166 1 13179 13180
13167 1 13180 13181
13168 1 13181 13182
13169 1 13182 13183
13170 1 13183 13184
13171 1 13184 13185
13172 1 13185 13186
13173 1 13186 13187
13174 1 13187 13188
13175 1 13188 13189
13176 1 13189 13190
13177 1 13190 13191
13178 1 13191 13192
13179 1 13192 13193
13180 1 13193 13194
13181 1 13194 13195
13182 1 13195 13196
13183 1 13196 13197
13184 1 13197 13198
13185 1 13198 13199
13186 1 13199 13200
13187 1 13200 13201
13188 1 13201 13202
13189 1 13202 13203
13190 1 13203 13204
13191 1 13204 13205
13192 1 13205 13206
13193 1 13206 13207
13194 1 13207 13208
13195 1 13208 13209
13196 1 13209 13210
13197 1 13210 13211
13198 1 13211 13212
13199 1 13212 13213
13200 1 13213 13214
13201 1 13214 13215
13202 1 13215 13216
13203 1 13216 13217
13204 1 13217 13218
13205 1 13218 13219
13206 1 13219 13220
13207 1 13220 13221
13208 1 13221 13222
13209 1 13222 13223
13210 1 13223 13224
13211 1 13224 13225
13212 1 13225 13226
13213 1 13226 13227
13214 1 13227 13228
13215 1 13228 13229
13216 1 13229 13230
13217 1 13230 13231
13218 1 13231 13232
13219 1 13232 13233
13220 1 13233 13234
13221 1 13234 13235
13222 1 13235 13236
13223 1 13236 13237
13224 1 13237 13238
13225 1 13238 13239
13226 1 13239 13240
13227 1 13240 13241
13228 1 13241 13242
13229 1 13242 13243
13230 1 13243 13244
13231 1 13244 13245
13232 1 13245 13246
13233 1 13246 13247
13234 1 13247 13248
13235 1 13248 13249
13236 1 13249 13250
13237 1 13250 13251
13238 1 13251 13252
13239 1 13252 13253
13240 1 13253 13254
13241 1 13254 13255
13242 1 13255 13256
13243 1 13256 13257
13244 1 13257 13258
13245 1 13258 13259
13246 1 13259 13260
13247 1 13260 13261
13248 1 13261 13262
13249 1 13262 13263
13250 1 13263 13264
13251 1 13264 13265
13252 1 13265 13266
13253 1 13266 13267
13254 1 13267 13268
13255 1 13268 13269
13256 1 13269 13270
13257 1 13270 13271
13258 1 13271 13272
13259 1 13272 13273
13260 1 13273 13274
13261 1 13274 13275
13262 1 13275 13276
13263 1 13276 13277
13264 1 13277 13278
13265 1 13278 13279
13266 1 13279 13280
13267 1 13280 13281
13268 1 13281 13282
13269 1 13282 13283
13270 1 13283 13284
13271 1 13284 13285
13272 1 13285 13286
13273 1 13286 13287
13274 1 13287 13288
13275 1 13288 13289
13276 1 13289 13290
13277 1 13290 13291
13278 1 13291 13292
13279 1 13292 13293
13280 1 13293 13294
13281 1 13294 13295
13282 1 13295 13296
13283 1 13296 13297
13284 1 13297 13298
13285 1 13298 13299
13286 1 13299 13300
13287 1 13300 13301
13288 1 13301 13302
13289 1 13302 13303
13290 1 13303 13304
13291 1 13304 13305
13292 1 13305 13306
13293 1 13306 13307
13294 1 13307 13308
13295 1 13308 13309
13296 1 13309 13310
13297 1 13310 13311
13298 1 13311 13312
13299 1 13312 13313
13300 1 13313 13314
13301 1 13314 13315
13302 1 13315 13316
13303 1 13316 13317
13304 1 13317 13318
13305 1 13318 13319
13306 1 13319 13320
13307 1 13320 13321
13308 1 13321 13322
13309 1 13322 13323
13310 1 13323 13324
13311 1 13324 13325
13312 1 13325 13326
13313 1 13326 13327
13314 1 13327 13328
13315 1 13328 13329
13316 1 13329 13330
13317 1 13330 13331
13318 1 13331 13332
13319 1 13332 13333
13320 1 13333 13334
13321 1 13334 13335
13322 1 13335 13336
13323 1 13336 13337
13324 1 13337 13338
13325 1 13338 13339
13326 1 13339 13340
13327 1 13340 13341
13328 1 13341 13342
13329 1 13342 13343
13330 1 13343 13344
13331 1 13344 13345
13332 1 13345 13346
13333 1 13346 13347
13334 1 13347 13348
13335 1 13348 13349
13336 1 13349 13350
13337 1 13350 13351
13338 1 13351 13352
13339 1 13352 13353
13340 1 13353 13354
13341 1 13354 13355
13342 1 13355 13356
13343 1 13356 13357
13344 1 13357 13358
13345 1 13358 13359
13346 1 13359 13360
13347 1 13360 13361
13348 1 13361 13362
13349 1 13362 13363
13350 1 13363 13364
13351 1 13364 13365
13352 1 13365 13366
13353 1 13366 13367
13354 1 13367 13368
13355 1 13368 13369
13356 1 13369 13370
13357 1 13370 13371
13358 1 13371 13372
13359 1 13372 13373
13360 1 13373 13374
13361 1 13374 13375
13362 1 13375 13376
13363 1 13376 13377
13364 1 13377 13378
13365 1 13378 13379
13366 1 13379 13380
13367 1 13380 13381
13368 1 13381 13382
13369 1 13382 13383
13370 1 13383 13384
13371 1 13384 13385
13372 1 13385 13386
13373 1 13386 13387
13374 1 13387 13388
13375 1 13388 13389
13376 1 13389 13390
13377 1 13390 13391
13378 1 13391 13392
13379 1 13392 13393
13380 1 13393 13394
13381 1 13394 13395
13382 1 13395 13396
13383 1 13396 13397
13384 1 13397 13398
13385 1 13398 13399
13386 1 13399 13400
13387 1 13400 13401
13388 1 13401 13402
13389 1 13402 13403
13390 1 13403 13404
13391 1 13404 13405
13392 1 13405 13406
13393 1 13406 13407
13394 1 13407 13408
13395 1 13408 13409
13396 1 13409 13410
13397 1 13410 13411
13398 1 13411 13412
13399 1 13412 13413
13400 1 13413 13414
13401 1 13414 13415
13402 1 13415 13416
13403 1 13416 13417
13404 1 13417 13418
13405 1 13418 13419
13406 1 13419 13420
13407 1 13420 13421
13408 1 13421 13422
13409 1 13422 13423
13410 1 13423 13424
13411 1 13424 13425
13412 1 13425 13426
13413 1 13426 13427
13414 1 13427 13428
13415 1 13428 13429
13416 1 13429 13430
13417 1 13430 13431
13418 1 13431 13432
13419 1 13432 13433
13420 1 13433 13434
13421 1 13434 13435
13422 1 13435 13436
13423 1 13436 13437
13424 1 13437 13438
13425 1 13438 13439
13426 1 13439 13440
13427 1 13440 13441
13428 1 13441 13442
13429 1 13442 13443
13430 1 13443 13444
13431 1 13444 13445
13432 1 13445 13446
13433 1 13446 13447
13434 1 13447 13448
13435 1 13448 13449
13436 1 13449 13450
13437 1 13450 13451
13438 1 13451 13452
13439 1 13452 13453
13440 1 13453 13454
13441 1 13454 13455
13442 1 13455 13456
13443 1 13456 13457
13444 1 13457 13458
13445 1 13458 13459
13446 1 13459 13460
13447 1 13460 13461
13448 1 13461 13462
13449 1 13462 13463
13450 1 13463 13464
13451 1 13464 13465
13452 1 13465 13466
13453 1 13466 13467
13454 1 13467 13468
13455 1 13468 13469
13456 1 13469 13470
13457 1 13470 13471
13458 1 13471 13472
13459 1 13472 13473
13460 1 13473 13474
13461 1 13474 13475
13462 1 13475 13476
13463 1 13476 13477
13464 1 13477 13478
13465 1 13478 13479
13466 1 13479 13480
13467 1 13480 13481
13468 1 13481 13482
13469 1 13482 13483
13470 1 13483 13484
13471 1 13484 13485
13472 1 13485 13486
13473 1 13486 13487
13474 1 13487 13488
13475 1 13488 13489
13476 1 13489 13490
13477 1 13490 13491
13478 1 13491 13492
13479 1 13492 13493
13480 1 13493 13494
13481 1 13494 13495
13482 1 13495 13496
13483 1 13496 13497
13484 1 13497 13498
13485 1 13498 13499
13486 1 13499 13500
13487 1 13500 13501
13488 1 13501 13502
13489 1 13502 13503
13490 1 13503 13504
13491 1 13504 13505
13492 1 13505 13506
13493 1 13506 13507
13494 1 13507 13508
13495 1 13508 13509
13496 1 13509 13510
13497 1 13510 13511
13498 1 13511 13512
13499 1 13512 13513
13500 1 13513 13514
13501 1 13514 13515
13502 1 13515 13516
13503 1 13516 13517
13504 1 13517 13518
13505 1 13518 13519
13506 1 13519 13520
13507 1 13520 13521
13508 1 13521 13522
13509 1 13522 13523
13510 1 13523 13524
13511 1 13524 13525
13512 1 13525 13526
13513 1 13526 13527
13514 1 13527 13528
13515 1 13528 13529
13516 1 13529 13530
13517 1 13530 13531
13518 1 13531 13532
13519 1 13532 13533
13520 1 13533 13534
13521 1 13534 13535
13522 1 13535 13536
13523 1 13536 13537
13524 1 13537 13538
13525 1 13538 13539
13526 1 13539 13540
13527 1 13540 13541
13528 1 13541 13542
13529 1 13542 13543
13530 1 13543 13544
13531 1 13544 13545
13532 1 13545 13546
13533 1 13546 13547
13534 1 13547 13548
13535 1 13548 13549
13536 1 13549 13550
13537 1 13550 13551
13538 1 13551 13552
13539 1 13552 13553
13540 1 13553 13554
13541 1 13554 13555
13542 1 13555 13556
13543 1 13556 13557
13544 1 13557 13558
13545 1 13558 13559
13546 1 13559 13560
13547 1 13560 13561
13548 1 13561 13562
13549 1 13562 13563
13550 1 13563 13564
13551 1 13564 13565
13552 1 13565 13566
13553 1 13566 13567
13554 1 13567 13568
13555 1 13568 13569
13556 1 13569 13570
13557 1 13570 13571
13558 1 13571 13572
13559 1 13572 13573
13560 1 13573 13574
13561 1 13574 13575
13562 1 13575 13576
13563 1 13576 13577
13564 1 13577 13578
13565 1 13578 13579
13566 1 13579 13580
13567 1 13580 13581
13568 1 13581 13582
13569 1 13582 13583
13570 1 13583 13584
13571 1 13584 13585
13572 1 13585 13586
13573 1 13586 13587
13574 1 13587 13588
13575 1 13588 13589
13576 1 13589 13590
13577 1 13590 13591
13578 1 13591 13592
13579 1 13592 13593
13580 1 13593 13594
13581 1 13594 13595
13582 1 13595 13596
13583 1 13596 13597
13584 1 13597 13598
13585 1 13598 13599
13586 1 13599 13600
13587 1 13600 13601
13588 1 13601 13602
13589 1 13602 13603
13590 1 13603 13604
13591 1 13604 13605
13592 1 13605 13606
13593 1 13606 13607
13594 1 13607 13608
13595 1 13608 13609
13596 1 13609 13610
13597 1 13610 13611
13598 1 13611 13612
13599 1 13612 13613
13600 1 13613 13614
13601 1 13614 13615
13602 1 13615 13616
13603 1 13616 13617
13604 1 13617 13618
13605 1 13618 13619
13606 1 13619 13620
13607 1 13620 13621
13608 1 13621 13622
13609 1 13622 13623
13610 1 13623 13624
13611 1 13624 13625
13612 1 13625 13626
13613 1 13626 13627
13614 1 13627 13628
13615 1 13628 13629
13616 1 13629 13630
13617 1 13630 13631
13618 1 13631 13632
13619 1 13632 13633
13620 1 13633 13634
13621 1 13634 13635
13622 1 13635 13636
13623 1 13636 13637
13624 1 13637 13638
13625 1 13638 13639
13626 1 13639 13640
13627 1 13640 13641
13628 1 13641 13642
13629 1 13642 13643
13630 1 13643 13644
13631 1 13644 13645
13632 1 13645 13646
13633 1 13646 13647
13634 1 13647 13648
13635 1 13648 13649
13636 1 13649 13650
13637 1 13650 13651
13638 1 13651 13652
13639 1 13652 13653
13640 1 13653 13654
13641 1 13654 13655
13642 1 13655 13656
13643 1 13656 13657
13644 1 13657 13658
13645 1 13658 13659
13646 1 13659 13660
13647 1 13660 13661
13648 1 13661 13662
13649 1 13662 13663
13650 1 13663 13664
13651 1 13664 13665
13652 1 13665 13666
13653 1 13666 13667
13654 1 13667 13668
13655 1 13668 13669
13656 1 13669 13670
13657 1 13670 13671
13658 1 13671 13672
13659 1 13672 13673
13660 1 13673 13674
13661 1 13674 13675
13662 1 13675 13676
13663 1 13676 13677
13664 1 13677 13678
13665 1 13678 13679
13666 1 13679 13680
13667 1 13680 13681
13668 1 13681 13682
13669 1 13682 13683
13670 1 13683 13684
13671 1 13684 13685
13672 1 13685 13686
13673 1 13686 13687
13674 1 13687 13688
13675 1 13688 13689
13676 1 13689 13690
13677 1 13690 13691
13678 1 13691 13692
13679 1 13692 13693
13680 1 13693 13694
13681 1 13694 13695
13682 1 13695 13696
13683 1 13696 13697
13684 1 13697 13698
13685 1 13698 13699
13686 1 13699 13700
13687 1 13700 13701
13688 1 13701 13702
13689 1 13702 13703
13690 1 13703 13704
13691 1 13704 13705
13692 1 13705 13706
13693 1 13706 13707
13694 1 13707 13708
13695 1 13708 13709
13696 1 13709 13710
13697 1 13710 13711
13698 1 13711 13712
13699 1 13712 13713
13700 1 13713 13714
13701 1 13714 13715
13702 1 13715 13716
13703 1 13716 13717
13704 1 13717 13718
13705 1 13718 13719
13706 1 13719 13720
13707 1 13720 13721
13708 1 13721 13722
13709 1 13722 13723
13710 1 13723 13724
13711 1 13724 13725
13712 1 13725 13726
13713 1 13726 13727
13714 1 13727 13728
13715 1 13728 13729
13716 1 13729 13730
13717 1 13730 13731
13718 1 13731 13732
13719 1 13732 13733
13720 1 13733 13734
13721 1 13734 13735
13722 1 13735 13736
13723 1 13736 13737
13724 1 13737 13738
13725 1 13738 13739
13726 1 13739 13740
13727 1 13740 13741
13728 1 13741 13742
13729 1 13742 13743
13730 1 13743 13744
13731 1 13744 13745
13732 1 13745 13746
13733 1 13746 13747
13734 1 13747 13748
13735 1 13748 13749
13736 1 13749 13750
13737 1 13750 13751
13738 1 13751 13752
13739 1 13752 13753
13740 1 13753 13754
13741 1 13754 13755
13742 1 13755 13756
13743 1 13756 13757
13744 1 13757 13758
13745 1 13758 13759
13746 1 13759 13760
13747 1 13760 13761
13748 1 13761 13762
13749 1 13762 13763
13750 1 13763 13764
13751 1 13764 13765
13752 1 13765 13766
13753 1 13766 13767
13754 1 13767 13768
13755 1 13768 13769
13756 1 13769 13770
13757 1 13770 13771
13758 1 13771 13772
13759 1 13772 13773
13760 1 13773 13774
13761 1 13774 13775
13762 1 13775 13776
13763 1 13776 13777
13764 1 13777 13778
13765 1 13778 13779
13766 1 13779 13780
13767 1 13780 13781
13768 1 13781 13782
13769 1 13782 13783
13770 1 13783 13784
13771 1 13784 13785
13772 1 13785 13786
13773 1 13786 13787
13774 1 13787 13788
13775 1 13788 13789
13776 1 13789 13790
13777 1 13790 13791
13778 1 13791 13792
13779 1 13792 13793
13780 1 13793 13794
13781 1 13794 13795
13782 1 13795 13796
13783 1 13796 13797
13784 1 13797 13798
13785 1 13798 13799
13786 1 13799 13800
13787 1 13800 13801
13788 1 13801 13802
13789 1 13802 13803
13790 1 13803 13804
13791 1 13804 13805
13792 1 13805 13806
13793 1 13806 13807
13794 1 13807 13808
13795 1 13808 13809
13796 1 13809 13810
13797 1 13810 13811
13798 1 13811 13812
13799 1 13812 13813
13800 1 13813 13814
13801 1 13814 13815
13802 1 13815 13816
13803 1 13816 13817
13804 1 13817 13818
13805 1 13818 13819
13806 1 13819 13820
13807 1 13820 13821
13808 1 13821 13822
13809 1 13822 13823
13810 1 13823 13824
13811 1 13824 13825
13812 1 13825 13826
13813 1 13826 13827
13814 1 13827 13828
13815 1 13828 13829
13816 1 13829 13830
13817 1 13830 13831
13818 1 13831 13832
13819 1 13832 13833
13820 1 13833 13834
13821 1 13834 13835
13822 1 13835 13836
13823 1 13836 13837
13824 1 13837 13838
13825 1 13838 13839
13826 1 13839 13840
13827 1 13840 13841
13828 1 13841 13842
13829 1 13842 13843
13830 1 13843 13844
13831 1 13844 13845
13832 1 13845 13846
13833 1 13846 13847
13834 1 13847 13848
13835 1 13848 13849
13836 1 13849 13850
13837 1 13850 13851
13838 1 13851 13852
13839 1 13852 13853
13840 1 13853 13854
13841 1 13854 13855
13842 1 13855 13856
13843 1 13856 13857
13844 1 13857 13858
13845 1 13858 13859
13846 1 13859 13860
13847 1 13860 13861
13848 1 13861 13862
13849 1 13862 13863
13850 1 13863 13864
13851 1 13864 13865
13852 1 13865 13866
13853 1 13866 13867
13854 1 13867 13868
13855 1 13868 13869
13856 1 13869 13870
13857 1 13870 13871
13858 1 13871 13872
13859 1 13872 13873
13860 1 13873 13874
13861 1 13874 13875
13862 1 13875 13876
13863 1 13876 13877
13864 1 13877 13878
13865 1 13878 13879
13866 1 13879 13880
13867 1 13880 13881
13868 1 13881 13882
13869 1 13882 13883
13870 1 13883 13884
13871 1 13884 13885
13872 1 13885 13886
13873 1 13886 13887
13874 1 13887 13888
13875 1 13888 13889
13876 1 13889 13890
13877 1 13890 13891
13878 1 13891 13892
13879 1 13892 13893
13880 1 13893 13894
13881 1 13894 13895
13882 1 13895 13896
13883 1 13896 13897
13884 1 13897 13898
13885 1 13898 13899
13886 1 13899 13900
13887 1 13900 13901
13888 1 13901 13902
13889 1 13902 13903
13890 1 13903 13904
13891 1 13904 13905
13892 1 13905 13906
13893 1 13906 13907
13894 1 13907 13908
13895 1 13908 13909
13896 1 13909 13910
13897 1 13910 13911
13898 1 13911 13912
13899 1 13912 13913
13900 1 13913 13914
13901 1 13914 13915
13902 1 13915 13916
13903 1 13916 13917
13904 1 13917 13918
13905 1 13918 13919
13906 1 13919 13920
13907 1 13920 13921
13908 1 13921 13922
13909 1 13922 13923
13910 1 13923 13924
13911 1 13924 13925
13912 1 13925 13926
13913 1 13926 13927
13914 1 13927 13928
13915 1 13928 13929
13916 1 13929 13930
13917 1 13930 13931
13918 1 13931 13932
13919 1 13932 13933
13920 1 13933 13934
13921 1 13934 13935
13922 1 13935 13936
13923 1 13936 13937
13924 1 13937 13938
13925 1 13938 13939
13926 1 13939 13940
13927 1 13940 13941
13928 1 13941 13942
13929 1 13942 13943
13930 1 13943 13944
13931 1 13944 13945
13932 1 13945 13946
13933 1 13946 13947
13934 1 13947 13948
13935 1 13948 13949
13936 1 13949 13950
13937 1 13950 13951
13938 1 13951 13952
13939 1 13952 13953
13940 1 13953 13954
13941 1 13954 13955
13942 1 13955 13956
13943 1 13956 13957
13944 1 13957 13958
13945 1 13958 13959
13946 1 13959 13960
13947 1 13960 13961
13948 1 13961 13962
13949 1 13962 13963
13950 1 13963 13964
13951 1 13964 13965
13952 1 13965 13966
13953 1 13966 13967
13954 1 13967 13968
13955 1 13968 13969
13956 1 13969 13970
13957 1 13970 13971
13958 1 13971 13972
13959 1 13972 13973
13960 1 13973 13974
13961 1 13974 13975
13962 1 13975 13976
13963 1 13976 13977
13964 1 13977 13978
13965 1 13978 13979
13966 1 13979 13980
13967 1 13980 13981
13968 1 13981 13982
13969 1 13982 13983
13970 1 13983 13984
13971 1 13984 13985
13972 1 13985 13986
13973 1 13986 13987
13974 1 13987 13988
13975 1 13988 13989
13976 1 13989 13990
13977 1 13990 13991
13978 1 13991 13992
13979 1 13992 13993
13980 1 13993 13994
13981 1 13994 13995
13982 1 13995 13996
13983 1 13996 13997
13984 1 13997 13998
13985 1 13998 13999
13986 1 13999 14000
13987 1 14001 14002
13988 1 14002 14003
13989 1 14003 14004
13990 1 14004 14005
13991 1 14005 14006
13992 1 14006 14007
13993 1 14007 14008
13994 1 14008 14009
13995 1 14009 14010
13996 1 14010 14011
13997 1 14011 14012
13998 1 14012 14013
13999 1 14013 14014
14000 1 14014 14015
14001 1 14015 14016
14002 1 14016 14017
14003 1 14017 14018
14004 1 14018 14019
14005 1 14019 14020
14006 1 14020 14021
14007 1 14021 14022
14008 1 14022 14023
14009 1 14023 14024
14010 1 14024 14025
14011 1 14025 14026
14012 1 14026 14027
14013 1 14027 14028
14014 1 14028 14029
14015 1 14029 14030
14016 1 14030 14031
14017 1 14031 14032
14018 1 14032 14033
14019 1 14033 14034
14020 1 14034 14035
14021 1 14035 14036
14022 1 14036 14037
14023 1 14037 14038
14024 1 14038 14039
14025 1 14039 14040
14026 1 14040 14041
14027 1 14041 14042
14028 1 14042 14043
14029 1 14043 14044
14030 1 14044 14045
14031 1 14045 14046
14032 1 14046 14047
14033 1 14047 14048
14034 1 14048 14049
14035 1 14049 14050
14036 1 14050 14051
14037 1 14051 14052
14038 1 14052 14053
14039 1 14053 14054
14040 1 14054 14055
14041 1 14055 14056
14042 1 14056 14057
14043 1 14057 14058
14044 1 14058 14059
14045 1 14059 14060
14046 1 14060 14061
14047 1 14061 14062
14048 1 14062 14063
14049 1 14063 14064
14050 1 14064 14065
14051 1 14065 14066
14052 1 14066 14067
14053 1 14067 14068
14054 1 14068 14069
14055 1 14069 14070
14056 1 14070 14071
14057 1 14071 14072
14058 1 14072 14073
14059 1 14073 14074
14060 1 14074 14075
14061 1 14075 14076
14062 1 14076 14077
14063 1 14077 14078
14064 1 14078 14079
14065 1 14079 14080
14066 1 14080 14081
14067 1 14081 14082
14068 1 14082 14083
14069 1 14083 14084
14070 1 14084 14085
14071 1 14085 14086
14072 1 14086 14087
14073 1 14087 14088
14074 1 14088 14089
14075 1 14089 14090
14076 1 14090 14091
14077 1 14091 14092
14078 1 14092 14093
14079 1 14093 14094
14080 1 14094 14095
14081 1 14095 14096
14082 1 14096 14097
14083 1 14097 14098
14084 1 14098 14099
14085 1 14099 14100
14086 1 14100 14101
14087 1 14101 14102
14088 1 14102 14103
14089 1 14103 14104
14090 1 14104 14105
14091 1 14105 14106
14092 1 14106 14107
14093 1 14107 14108
14094 1 14108 14109
14095 1 14109 14110
14096 1 14110 14111
14097 1 14111 14112
14098 1 14112 14113
14099 1 14113 14114
14100 1 14114 14115
14101 1 14115 14116
14102 1 14116 14117
14103 1 14117 14118
14104 1 14118 14119
14105 1 14119 14120
14106 1 14120 14121
14107 1 14121 14122
14108 1 14122 14123
14109 1 14123 14124
14110 1 14124 14125
14111 1 14125 14126
14112 1 14126 14127
14113 1 14127 14128
14114 1 14128 14129
14115 1 14129 14130
14116 1 14130 14131
14117 1 14131 14132
14118 1 14132 14133
14119 1 14133 14134
14120 1 14134 14135
14121 1 14135 14136
14122 1 14136 14137
14123 1 14137 14138
14124 1 14138 14139
14125 1 14139 14140
14126 1 14140 14141
14127 1 14141 14142
14128 1 14142 14143
14129 1 14143 14144
14130 1 14144 14145
14131 1 14145 14146
14132 1 14146 14147
14133 1 14147 14148
14134 1 14148 14149
14135 1 14149 14150
14136 1 14150 14151
14137 1 14151 14152
14138 1 14152 14153
14139 1 14153 14154
14140 1 14154 14155
14141 1 14155 14156
14142 1 14156 14157
14143 1 14157 14158
14144 1 14158 14159
14145 1 14159 14160
14146 1 14160 14161
14147 1 14161 14162
14148 1 14162 14163
14149 1 14163 14164
14150 1 14164 14165
14151 1 14165 14166
14152 1 14166 14167
14153 1 14167 14168
14154 1 14168 14169
14155 1 14169 14170
14156 1 14170 14171
14157 1 14171 14172
14158 1 14172 14173
14159 1 14173 14174
14160 1 14174 14175
14161 1 14175 14176
14162 1 14176 14177
14163 1 14177 14178
14164 1 14178 14179
14165 1 14179 14180
14166 1 14180 14181
14167 1 14181 14182
14168 1 14182 14183
14169 1 14183 14184
14170 1 14184 14185
14171 1 14185 14186
14172 1 14186 14187
14173 1 14187 14188
14174 1 14188 14189
14175 1 14189 14190
14176 1 14190 14191
14177 1 14191 14192
14178 1 14192 14193
14179 1 14193 14194
14180 1 14194 14195
14181 1 14195 14196
14182 1 14196 14197
14183 1 14197 14198
14184 1 14198 14199
14185 1 14199 14200
14186 1 14200 14201
14187 1 14201 14202
14188 1 14202 14203
14189 1 14203 14204
14190 1 14204 14205
14191 1 14205 14206
14192 1 14206 14207
14193 1 14207 14208
14194 1 14208 14209
14195 1 14209 14210
14196 1 14210 14211
14197 1 14211 14212
14198 1 14212 14213
14199 1 14213 14214
14200 1 14214 14215
14201 1 14215 14216
14202 1 14216 14217
14203 1 14217 14218
14204 1 14218 14219
14205 1 14219 14220
14206 1 14220 14221
14207 1 14221 14222
14208 1 14222 14223
14209 1 14223 14224
14210 1 14224 14225
14211 1 14225 14226
14212 1 14226 14227
14213 1 14227 14228
14214 1 14228 14229
14215 1 14229 14230
14216 1 14230 14231
14217 1 14231 14232
14218 1 14232 14233
14219 1 14233 14234
14220 1 14234 14235
14221 1 14235 14236
14222 1 14236 14237
14223 1 14237 14238
14224 1 14238 14239
14225 1 14239 14240
14226 1 14240 14241
14227 1 14241 14242
14228 1 14242 14243
14229 1 14243 14244
14230 1 14244 14245
14231 1 14245 14246
14232 1 14246 14247
14233 1 14247 14248
14234 1 14248 14249
14235 1 14249 14250
14236 1 14250 14251
14237 1 14251 14252
14238 1 14252 14253
14239 1 14253 14254
14240 1 14254 14255
14241 1 14255 14256
14242 1 14256 14257
14243 1 14257 14258
14244 1 14258 14259
14245 1 14259 14260
14246 1 14260 14261
14247 1 14261 14262
14248 1 14262 14263
14249 1 14263 14264
14250 1 14264 14265
14251 1 14265 14266
14252 1 14266 14267
14253 1 14267 14268
14254 1 14268 14269
14255 1 14269 14270
14256 1 14270 14271
14257 1 14271 14272
14258 1 14272 14273
14259 1 14273 14274
14260 1 14274 14275
14261 1 14275 14276
14262 1 14276 14277
14263 1 14277 14278
14264 1 14278 14279
14265 1 14279 14280
14266 1 14280 14281
14267 1 14281 14282
14268 1 14282 14283
14269 1 14283 14284
14270 1 14284 14285
14271 1 14285 14286
14272 1 14286 14287
14273 1 14287 14288
14274 1 14288 14289
14275 1 14289 14290
14276 1 14290 14291
14277 1 14291 14292
14278 1 14292 14293
14279 1 14293 14294
14280 1 14294 14295
14281 1 14295 14296
14282 1 14296 14297
14283 1 14297 14298
14284 1 14298 14299
14285 1 14299 14300
14286 1 14300 14301
14287 1 14301 14302
14288 1 14302 14303
14289 1 14303 14304
14290 1 14304 14305
14291 1 14305 14306
14292 1 14306 14307
14293 1 14307 14308
14294 1 14308 14309
14295 1 14309 14310
14296 1 14310 14311
14297 1 14311 14312
14298 1 14312 14313
14299 1 14313 14314
14300 1 14314 14315
14301 1 14315 14316
14302 1 14316 14317
14303 1 14317 14318
14304 1 14318 14319
14305 1 14319 14320
14306 1 14320 14321
14307 1 14321 14322
14308 1 14322 14323
14309 1 14323 14324
14310 1 14324 14325
14311 1 14325 14326
14312 1 14326 14327
14313 1 14327 14328
14314 1 14328 14329
14315 1 14329 14330
14316 1 14330 14331
14317 1 14331 14332
14318 1 14332 14333
14319 1 14333 14334
14320 1 14334 14335
14321 1 14335 14336
14322 1 14336 14337
14323 1 14337 14338
14324 1 14338 14339
14325 1 14339 14340
14326 1 14340 14341
14327 1 14341 14342
14328 1 14342 14343
14329 1 14343 14344
14330 1 14344 14345
14331 1 14345 14346
14332 1 14346 14347
14333 1 14347 14348
14334 1 14348 14349
14335 1 14349 14350
14336 1 14350 14351
14337 1 14351 14352
14338 1 14352 14353
14339 1 14353 14354
14340 1 14354 14355
14341 1 14355 14356
14342 1 14356 14357
14343 1 14357 14358
14344 1 14358 14359
14345 1 14359 14360
14346 1 14360 14361
14347 1 14361 14362
14348 1 14362 14363
14349 1 14363 14364
14350 1 14364 14365
14351 1 14365 14366
14352 1 14366 14367
14353 1 14367 14368
14354 1 14368 14369
14355 1 14369 14370
14356 1 14370 14371
14357 1 14371 14372
14358 1 14372 14373
14359 1 14373 14374
14360 1 14374 14375
14361 1 14375 14376
14362 1 14376 14377
14363 1 14377 14378
14364 1 14378 14379
14365 1 14379 14380
14366 1 14380 14381
14367 1 14381 14382
14368 1 14382 14383
14369 1 14383 14384
14370 1 14384 14385
14371 1 14385 14386
14372 1 14386 14387
14373 1 14387 14388
14374 1 14388 14389
14375 1 14389 14390
14376 1 14390 14391
14377 1 14391 14392
14378 1 14392 14393
14379 1 14393 14394
14380 1 14394 14395
14381 1 14395 14396
14382 1 14396 14397
14383 1 14397 14398
14384 1 14398 14399
14385 1 14399 14400
14386 1 14400 14401
14387 1 14401 14402
14388 1 14402 14403
14389 1 14403 14404
14390 1 14404 14405
14391 1 14405 14406
14392 1 14406 14407
14393 1 14407 14408
14394 1 14408 14409
14395 1 14409 14410
14396 1 14410 14411
14397 1 14411 14412
14398 1 14412 14413
14399 1 14413 14414
14400 1 14414 14415
14401 1 14415 14416
14402 1 14416 14417
14403 1 14417 14418
14404 1 14418 14419
14405 1 14419 14420
14406 1 14420 14421
14407 1 14421 14422
14408 1 14422 14423
14409 1 14423 14424
14410 1 14424 14425
14411 1 14425 14426
14412 1 14426 14427
14413 1 14427 14428
14414 1 14428 14429
14415 1 14429 14430
14416 1 14430 14431
14417 1 14431 14432
14418 1 14432 14433
14419 1 14433 14434
14420 1 14434 14435
14421 1 14435 14436
14422 1 14436 14437
14423 1 14437 14438
14424 1 14438 14439
14425 1 14439 14440
14426 1 14440 14441
14427 1 14441 14442
14428 1 14442 14443
14429 1 14443 14444
14430 1 14444 14445
14431 1 14445 14446
14432 1 14446 14447
14433 1 14447 14448
14434 1 14448 14449
14435 1 14449 14450
14436 1 14450 14451
14437 1 14451 14452
14438 1 14452 14453
14439 1 14453 14454
14440 1 14454 14455
14441 1 14455 14456
14442 1 14456 14457
14443 1 14457 14458
14444 1 14458 14459
14445 1 14459 14460
14446 1 14460 14461
14447 1 14461 14462
14448 1 14462 14463
14449 1 14463 14464
14450 1 14464 14465
14451 1 14465 14466
14452 1 14466 14467
14453 1 14467 14468
14454 1 14468 14469
14455 1 14469 14470
14456 1 14470 14471
14457 1 14471 14472
14458 1 14472 14473
14459 1 14473 14474
14460 1 14474 14475
14461 1 14475 14476
14462 1 14476 14477
14463 1 14477 14478
14464 1 14478 14479
14465 1 14479 14480
14466 1 14480 14481
14467 1 14481 14482
14468 1 14482 14483
14469 1 14483 14484
14470 1 14484 14485
14471 1 14485 14486
14472 1 14486 14487
14473 1 14487 14488
14474 1 14488 14489
14475 1 14489 14490
14476 1 14490 14491
14477 1 14491 14492
14478 1 14492 14493
14479 1 14493 14494
14480 1 14494 14495
14481 1 14495 14496
14482 1 14496 14497
14483 1 14497 14498
14484 1 14498 14499
14485 1 14499 14500
14486 1 14500 14501
14487 1 14501 14502
14488 1 14502 14503
14489 1 14503 14504
14490 1 14504 14505
14491 1 14505 14506
14492 1 14506 14507
14493 1 14507 14508
14494 1 14508 14509
14495 1 14509 14510
14496 1 14510 14511
14497 1 14511 14512
14498 1 14512 14513
14499 1 14513 14514
14500 1 14514 14515
14501 1 14515 14516
14502 1 14516 14517
14503 1 14517 14518
14504 1 14518 14519
14505 1 14519 14520
14506 1 14520 14521
14507 1 14521 14522
14508 1 14522 14523
14509 1 14523 14524
14510 1 14524 14525
14511 1 14525 14526
14512 1 14526 14527
14513 1 14527 14528
14514 1 14528 14529
14515 1 14529 14530
14516 1 14530 14531
14517 1 14531 14532
14518 1 14532 14533
14519 1 14533 14534
14520 1 14534 14535
14521 1 14535 14536
14522 1 14536 14537
14523 1 14537 14538
14524 1 14538 14539
14525 1 14539 14540
14526 1 14540 14541
14527 1 14541 14542
14528 1 14542 14543
14529 1 14543 14544
14530 1 14544 14545
14531 1 14545 14546
14532 1 14546 14547
14533 1 14547 14548
14534 1 14548 14549
14535 1 14549 14550
14536 1 14550 14551
14537 1 14551 14552
14538 1 14552 14553
14539 1 14553 14554
14540 1 14554 14555
14541 1 14555 14556
14542 1 14556 14557
14543 1 14557 14558
14544 1 14558 14559
14545 1 14559 14560
14546 1 14560 14561
14547 1 14561 14562
14548 1 14562 14563
14549 1 14563 14564
14550 1 14564 14565
14551 1 14565 14566
14552 1 14566 14567
14553 1 14567 14568
14554 1 14568 14569
14555 1 14569 14570
14556 1 14570 14571
14557 1 14571 14572
14558 1 14572 14573
14559 1 14573 14574
14560 1 14574 14575
14561 1 14575 14576
14562 1 14576 14577
14563 1 14577 14578
14564 1 14578 14579
14565 1 14579 14580
14566 1 14580 14581
14567 1 14581 14582
14568 1 14582 14583
14569 1 14583 14584
14570 1 14584 14585
14571 1 14585 14586
14572 1 14586 14587
14573 1 14587 14588
14574 1 14588 14589
14575 1 14589 14590
14576 1 14590 14591
14577 1 14591 14592
14578 1 14592 14593
14579 1 14593 14594
14580 1 14594 14595
14581 1 14595 14596
14582 1 14596 14597
14583 1 14597 14598
14584 1 14598 14599
14585 1 14599 14600
14586 1 14600 14601
14587 1 14601 14602
14588 1 14602 14603
14589 1 14603 14604
14590 1 14604 14605
14591 1 14605 14606
14592 1 14606 14607
14593 1 14607 14608
14594 1 14608 14609
14595 1 14609 14610
14596 1 14610 14611
14597 1 14611 14612
14598 1 14612 14613
14599 1 14613 14614
14600 1 14614 14615
14601 1 14615 14616
14602 1 14616 14617
14603 1 14617 14618
14604 1 14618 14619
14605 1 14619 14620
14606 1 14620 14621
14607 1 14621 14622
14608 1 14622 14623
14609 1 14623 14624
14610 1 14624 14625
14611 1 14625 14626
14612 1 14626 14627
14613 1 14627 14628
14614 1 14628 14629
14615 1 14629 14630
14616 1 14630 14631
14617 1 14631 14632
14618 1 14632 14633
14619 1 14633 14634
14620 1 14634 14635
14621 1 14635 14636
14622 1 14636 14637
14623 1 14637 14638
14624 1 14638 14639
14625 1 14639 14640
14626 1 14640 14641
14627 1 14641 14642
14628 1 14642 14643
14629 1 14643 14644
14630 1 14644 14645
14631 1 14645 14646
14632 1 14646 14647
14633 1 14647 14648
14634 1 14648 14649
14635 1 14649 14650
14636 1 14650 14651
14637 1 14651 14652
14638 1 14652 14653
14639 1 14653 14654
14640 1 14654 14655
14641 1 14655 14656
14642 1 14656 14657
14643 1 14657 14658
14644 1 14658 14659
14645 1 14659 14660
14646 1 14660 14661
14647 1 14661 14662
14648 1 14662 14663
14649 1 14663 14664
14650 1 14664 14665
14651 1 14665 14666
14652 1 14666 14667
14653 1 14667 14668
14654 1 14668 14669
14655 1 14669 14670
14656 1 14670 14671
14657 1 14671 14672
14658 1 14672 14673
14659 1 14673 14674
14660 1 14674 14675
14661 1 14675 14676
14662 1 14676 14677
14663 1 14677 14678
14664 1 14678 14679
14665 1 14679 14680
14666 1 14680 14681
14667 1 14681 14682
14668 1 14682 14683
14669 1 14683 14684
14670 1 14684 14685
14671 1 14685 14686
14672 1 14686 14687
14673 1 14687 14688
14674 1 14688 14689
14675 1 14689 14690
14676 1 14690 14691
14677 1 14691 14692
14678 1 14692 14693
14679 1 14693 14694
14680 1 14694 14695
14681 1 14695 14696
14682 1 14696 14697
14683 1 14697 14698
14684 1 14698 14699
14685 1 14699 14700
14686 1 14700 14701
14687 1 14701 14702
14688 1 14702 14703
14689 1 14703 14704
14690 1 14704 14705
14691 1 14705 14706
14692 1 14706 14707
14693 1 14707 14708
14694 1 14708 14709
14695 1 14709 14710
14696 1 14710 14711
14697 1 14711 14712
14698 1 14712 14713
14699 1 14713 14714
14700 1 14714 14715
14701 1 14715 14716
14702 1 14716 14717
14703 1 14717 14718
14704 1 14718 14719
14705 1 14719 14720
14706 1 14720 14721
14707 1 14721 14722
14708 1 14722 14723
14709 1 14723 14724
14710 1 14724 14725
14711 1 14725 14726
14712 1 14726 14727
14713 1 14727 14728
14714 1 14728 14729
14715 1 14729 14730
14716 1 14730 14731
14717 1 14731 14732
14718 1 14732 14733
14719 1 14733 14734
14720 1 14734 14735
14721 1 14735 14736
14722 1 14736 14737
14723 1 14737 14738
14724 1 14738 14739
14725 1 14739 14740
14726 1 14740 14741
14727 1 14741 14742
14728 1 14742 14743
14729 1 14743 14744
14730 1 14744 14745
14731 1 14745 14746
14732 1 14746 14747
14733 1 14747 14748
14734 1 14748 14749
14735 1 14749 14750
14736 1 14750 14751
14737 1 14751 14752
14738 1 14752 14753
14739 1 14753 14754
14740 1 14754 14755
14741 1 14755 14756
14742 1 14756 14757
14743 1 14757 14758
14744 1 14758 14759
14745 1 14759 14760
14746 1 14760 14761
14747 1 14761 14762
14748 1 14762 14763
14749 1 14763 14764
14750 1 14764 14765
14751 1 14765 14766
14752 1 14766 14767
14753 1 14767 14768
14754 1 14768 14769
14755 1 14769 14770
14756 1 14770 14771
14757 1 14771 14772
14758 1 14772 14773
14759 1 14773 14774
14760 1 14774 14775
14761 1 14775 14776
14762 1 14776 14777
14763 1 14777 14778
14764 1 14778 14779
14765 1 14779 14780
14766 1 14780 14781
14767 1 14781 14782
14768 1 14782 14783
14769 1 14783 14784
14770 1 14784 14785
14771 1 14785 14786
14772 1 14786 14787
14773 1 14787 14788
14774 1 14788 14789
14775 1 14789 14790
14776 1 14790 14791
14777 1 14791 14792
14778 1 14792 14793
14779 1 14793 14794
14780 1 14794 14795
14781 1 14795 14796
14782 1 14796 14797
14783 1 14797 14798
14784 1 14798 14799
14785 1 14799 14800
14786 1 14800 14801
14787 1 14801 14802
14788 1 14802 14803
14789 1 14803 14804
14790 1 14804 14805
14791 1 14805 14806
14792 1 14806 14807
14793 1 14807 14808
14794 1 14808 14809
14795 1 14809 14810
14796 1 14810 14811
14797 1 14811 14812
14798 1 14812 14813
14799 1 14813 14814
14800 1 14814 14815
14801 1 14815 14816
14802 1 14816 14817
14803 1 14817 14818
14804 1 14818 14819
14805 1 14819 14820
14806 1 14820 14821
14807 1 14821 14822
14808 1 14822 14823
14809 1 14823 14824
14810 1 14824 14825
14811 1 14825 14826
14812 1 14826 14827
14813 1 14827 14828
14814 1 14828 14829
14815 1 14829 14830
14816 1 14830 14831
14817 1 14831 14832
14818 1 14832 14833
14819 1 14833 14834
14820 1 14834 14835
14821 1 14835 14836
14822 1 14836 14837
14823 1 14837 14838
14824 1 14838 14839
14825 1 14839 14840
14826 1 14840 14841
14827 1 14841 14842
14828 1 14842 14843
14829 1 14843 14844
14830 1 14844 14845
14831 1 14845 14846
14832 1 14846 14847
14833 1 14847 14848
14834 1 14848 14849
14835 1 14849 14850
14836 1 14850 14851
14837 1 14851 14852
14838 1 14852 14853
14839 1 14853 14854
14840 1 14854 14855
14841 1 14855 14856
14842 1 14856 14857
14843 1 14857 14858
14844 1 14858 14859
14845 1 14859 14860
14846 1 14860 14861
14847 1 14861 14862
14848 1 14862 14863
14849 1 14863 14864
14850 1 14864 14865
14851 1 14865 14866
14852 1 14866 14867
14853 1 14867 14868
14854 1 14868 14869
14855 1 14869 14870
14856 1 14870 14871
14857 1 14871 14872
14858 1 14872 14873
14859 1 14873 14874
14860 1 14874 14875
14861 1 14875 14876
14862 1 14876 14877
14863 1 14877 14878
14864 1 14878 14879
14865 1 14879 14880
14866 1 14880 14881
14867 1 14881 14882
14868 1 14882 14883
14869 1 14883 14884
14870 1 14884 14885
14871 1 14885 14886
14872 1 14886 14887
14873 1 14887 14888
14874 1 14888 14889
14875 1 14889 14890
14876 1 14890 14891
14877 1 14891 14892
14878 1 14892 14893
14879 1 14893 14894
14880 1 14894 14895
14881 1 14895 14896
14882 1 14896 14897
14883 1 14897 14898
14884 1 14898 14899
14885 1 14899 14900
14886 1 14900 14901
14887 1 14901 14902
14888 1 14902 14903
14889 1 14903 14904
14890 1 14904 14905
14891 1 14905 14906
14892 1 14906 14907
14893 1 14907 14908
14894 1 14908 14909
14895 1 14909 14910
14896 1 14910 14911
14897 1 14911 14912
14898 1 14912 14913
14899 1 14913 14914
14900 1 14914 14915
14901 1 14915 14916
14902 1 14916 14917
14903 1 14917 14918
14904 1 14918 14919
14905 1 14919 14920
14906 1 14920 14921
14907 1 14921 14922
14908 1 14922 14923
14909 1 14923 14924
14910 1 14924 14925
14911 1 14925 14926
14912 1 14926 14927
14913 1 14927 14928
14914 1 14928 14929
14915 1 14929 14930
14916 1 14930 14931
14917 1 14931 14932
14918 1 14932 14933
14919 1 14933 14934
14920 1 14934 14935
14921 1 14935 14936
14922 1 14936 14937
14923 1 14937 14938
14924 1 14938 14939
14925 1 14939 14940
14926 1 14940 14941
14927 1 14941 14942
14928 1 14942 14943
14929 1 14943 14944
14930 1 14944 14945
14931 1 14945 14946
14932 1 14946 14947
14933 1 14947 14948
14934 1 14948 14949
14935 1 14949 14950
14936 1 14950 14951
14937 1 14951 14952
14938 1 14952 14953
14939 1 14953 14954
14940 1 14954 14955
14941 1 14955 14956
14942 1 14956 14957
14943 1 14957 14958
14944 1 14958 14959
14945 1 14959 14960
14946 1 14960 14961
14947 1 14961 14962
14948 1 14962 14963
14949 1 14963 14964
14950 1 14964 14965
14951 1 14965 14966
14952 1 14966 14967
14953 1 14967 14968
14954 1 14968 14969
14955 1 14969 14970
14956 1 14970 14971
14957 1 14971 14972
14958 1 14972 14973
14959 1 14973 14974
14960 1 14974 14975
14961 1 14975 14976
14962 1 14976 14977
14963 1 14977 14978
14964 1 14978 14979
14965 1 14979 14980
14966 1 14980 14981
14967 1 14981 14982
14968 1 14982 14983
14969 1 14983 14984
14970 1 14984 14985
14971 1 14985 14986
14972 1 14986 14987
14973 1 14987 14988
14974 1 14988 14989
14975 1 14989 14990
14976 1 14990 14991
14977 1 14991 14992
14978 1 14992 14993
14979 1 14993 14994
14980 1 14994 14995
14981 1 14995 14996
14982 1 14996 14997
14983 1 14997 14998
14984 1 14998 14999
14985 1 14999 15000
14986 1 15001 15002
14987 1 15002 15003
14988 1 15003 15004
14989 1 15004 15005
14990 1 15005 15006
14991 1 15006 15007
14992 1 15007 15008
14993 1 15008 15009
14994 1 15009 15010
14995 1 15010 15011
14996 1 15011 15012
14997 1 15012 15013
14998 1 15013 15014
14999 1 15014 15015
15000 1 15015 15016
15001 1 15016 15017
15002 1 15017 15018
15003 1 15018 15019
15004 1 15019 15020
15005 1 15020 15021
15006 1 15021 15022
15007 1 15022 15023
15008 1 15023 15024
15009 1 15024 15025
15010 1 15025 15026
15011 1 15026 15027
15012 1 15027 15028
15013 1 15028 15029
15014 1 15029 15030
15015 1 15030 15031
15016 1 15031 15032
15017 1 15032 15033
15018 1 15033 15034
15019 1 15034 15035
15020 1 15035 15036
15021 1 15036 15037
15022 1 15037 15038
15023 1 15038 15039
15024 1 15039 15040
15025 1 15040 15041
15026 1 15041 15042
15027 1 15042 15043
15028 1 15043 15044
15029 1 15044 15045
15030 1 15045 15046
15031 1 15046 15047
15032 1 15047 15048
15033 1 15048 15049
15034 1 15049 15050
15035 1 15050 15051
15036 1 15051 15052
15037 1 15052 15053
15038 1 15053 15054
15039 1 15054 15055
15040 1 15055 15056
15041 1 15056 15057
15042 1 15057 15058
15043 1 15058 15059
15044 1 15059 15060
15045 1 15060 15061
15046 1 15061 15062
15047 1 15062 15063
15048 1 15063 15064
15049 1 15064 15065
15050 1 15065 15066
15051 1 15066 15067
15052 1 15067 15068
15053 1 15068 15069
15054 1 15069 15070
15055 1 15070 15071
15056 1 15071 15072
15057 1 15072 15073
15058 1 15073 15074
15059 1 15074 15075
15060 1 15075 15076
15061 1 15076 15077
15062 1 15077 15078
15063 1 15078 15079
15064 1 15079 15080
15065 1 15080 15081
15066 1 15081 15082
15067 1 15082 15083
15068 1 15083 15084
15069 1 15084 15085
15070 1 15085 15086
15071 1 15086 15087
15072 1 15087 15088
15073 1 15088 15089
15074 1 15089 15090
15075 1 15090 15091
15076 1 15091 15092
15077 1 15092 15093
15078 1 15093 15094
15079 1 15094 15095
15080 1 15095 15096
15081 1 15096 15097
15082 1 15097 15098
15083 1 15098 15099
15084 1 15099 15100
15085 1 15100 15101
15086 1 15101 15102
15087 1 15102 15103
15088 1 15103 15104
15089 1 15104 15105
15090 1 15105 15106
15091 1 15106 15107
15092 1 15107 15108
15093 1 15108 15109
15094 1 15109 15110
15095 1 15110 15111
15096 1 15111 15112
15097 1 15112 15113
15098 1 15113 15114
15099 1 15114 15115
15100 1 15115 15116
15101 1 15116 15117
15102 1 15117 15118
15103 1 15118 15119
15104 1 15119 15120
15105 1 15120 15121
15106 1 15121 15122
15107 1 15122 15123
15108 1 15123 15124
15109 1 15124 15125
15110 1 15125 15126
15111 1 15126 15127
15112 1 15127 15128
15113 1 15128 15129
15114 1 15129 15130
15115 1 15130 15131
15116 1 15131 15132
15117 1 15132 15133
15118 1 15133 15134
15119 1 15134 15135
15120 1 15135 15136
15121 1 15136 15137
15122 1 15137 15138
15123 1 15138 15139
15124 1 15139 15140
15125 1 15140 15141
15126 1 15141 15142
15127 1 15142 15143
15128 1 15143 15144
15129 1 15144 15145
15130 1 15145 15146
15131 1 15146 15147
15132 1 15147 15148
15133 1 15148 15149
15134 1 15149 15150
15135 1 15150 15151
15136 1 15151 15152
15137 1 15152 15153
15138 1 15153 15154
15139 1 15154 15155
15140 1 15155 15156
15141 1 15156 15157
15142 1 15157 15158
15143 1 15158 15159
15144 1 15159 15160
15145 1 15160 15161
15146 1 15161 15162
15147 1 15162 15163
15148 1 15163 15164
15149 1 15164 15165
15150 1 15165 15166
15151 1 15166 15167
15152 1 15167 15168
15153 1 15168 15169
15154 1 15169 15170
15155 1 15170 15171
15156 1 15171 15172
15157 1 15172 15173
15158 1 15173 15174
15159 1 15174 15175
15160 1 15175 15176
15161 1 15176 15177
15162 1 15177 15178
15163 1 15178 15179
15164 1 15179 15180
15165 1 15180 15181
15166 1 15181 15182
15167 1 15182 15183
15168 1 15183 15184
15169 1 15184 15185
15170 1 15185 15186
15171 1 15186 15187
15172 1 15187 15188
15173 1 15188 15189
15174 1 15189 15190
15175 1 15190 15191
15176 1 15191 15192
15177 1 15192 15193
15178 1 15193 15194
15179 1 15194 15195
15180 1 15195 15196
15181 1 15196 15197
15182 1 15197 15198
15183 1 15198 15199
15184 1 15199 15200
15185 1 15200 15201
15186 1 15201 15202
15187 1 15202 15203
15188 1 15203 15204
15189 1 15204 15205
15190 1 15205 15206
15191 1 15206 15207
15192 1 15207 15208
15193 1 15208 15209
15194 1 15209 15210
15195 1 15210 15211
15196 1 15211 15212
15197 1 15212 15213
15198 1 15213 15214
15199 1 15214 15215
15200 1 15215 15216
15201 1 15216 15217
15202 1 15217 15218
15203 1 15218 15219
15204 1 15219 15220
15205 1 15220 15221
15206 1 15221 15222
15207 1 15222 15223
15208 1 15223 15224
15209 1 15224 15225
15210 1 15225 15226
15211 1 15226 15227
15212 1 15227 15228
15213 1 15228 15229
15214 1 15229 15230
15215 1 15230 15231
15216 1 15231 15232
15217 1 15232 15233
15218 1 15233 15234
15219 1 15234 15235
15220 1 15235 15236
15221 1 15236 15237
15222 1 15237 15238
15223 1 15238 15239
15224 1 15239 15240
15225 1 15240 15241
15226 1 15241 15242
15227 1 15242 15243
15228 1 15243 15244
15229 1 15244 15245
15230 1 15245 15246
15231 1 15246 15247
15232 1 15247 15248
15233 1 15248 15249
15234 1 15249 15250
15235 1 15250 15251
15236 1 15251 15252
15237 1 15252 15253
15238 1 15253 15254
15239 1 15254 15255
15240 1 15255 15256
15241 1 15256 15257
15242 1 15257 15258
15243 1 15258 15259
15244 1 15259 15260
15245 1 15260 15261
15246 1 15261 15262
15247 1 15262 15263
15248 1 15263 15264
15249 1 15264 15265
15250 1 15265 15266
15251 1 15266 15267
15252 1 15267 15268
15253 1 15268 15269
15254 1 15269 15270
15255 1 15270 15271
15256 1 15271 15272
15257 1 15272 15273
15258 1 15273 15274
15259 1 15274 15275
15260 1 15275 15276
15261 1 15276 15277
15262 1 15277 15278
15263 1 15278 15279
15264 1 15279 15280
15265 1 15280 15281
15266 1 15281 15282
15267 1 15282 15283
15268 1 15283 15284
15269 1 15284 15285
15270 1 15285 15286
15271 1 15286 15287
15272 1 15287 15288
15273 1 15288 15289
15274 1 15289 15290
15275 1 15290 15291
15276 1 15291 15292
15277 1 15292 15293
15278 1 15293 15294
15279 1 15294 15295
15280 1 15295 15296
15281 1 15296 15297
15282 1 15297 15298
15283 1 15298 15299
15284 1 15299 15300
15285 1 15300 15301
15286 1 15301 15302
15287 1 15302 15303
15288 1 15303 15304
15289 1 15304 15305
15290 1 15305 15306
15291 1 15306 15307
15292 1 15307 15308
15293 1 15308 15309
15294 1 15309 15310
15295 1 15310 15311
15296 1 15311 15312
15297 1 15312 15313
15298 1 15313 15314
15299 1 15314 15315
15300 1 15315 15316
15301 1 15316 15317
15302 1 15317 15318
15303 1 15318 15319
15304 1 15319 15320
15305 1 15320 15321
15306 1 15321 15322
15307 1 15322 15323
15308 1 15323 15324
15309 1 15324 15325
15310 1 15325 15326
15311 1 15326 15327
15312 1 15327 15328
15313 1 15328 15329
15314 1 15329 15330
15315 1 15330 15331
15316 1 15331 15332
15317 1 15332 15333
15318 1 15333 15334
15319 1 15334 15335
15320 1 15335 15336
15321 1 15336 15337
15322 1 15337 15338
15323 1 15338 15339
15324 1 15339 15340
15325 1 15340 15341
15326 1 15341 15342
15327 1 15342 15343
15328 1 15343 15344
15329 1 15344 15345
15330 1 15345 15346
15331 1 15346 15347
15332 1 15347 15348
15333 1 15348 15349
15334 1 15349 15350
15335 1 15350 15351
15336 1 15351 15352
15337 1 15352 15353
15338 1 15353 15354
15339 1 15354 15355
15340 1 15355 15356
15341 1 15356 15357
15342 1 15357 15358
15343 1 15358 15359
15344 1 15359 15360
15345 1 15360 15361
15346 1 15361 15362
15347 1 15362 15363
15348 1 15363 15364
15349 1 15364 15365
15350 1 15365 15366
15351 1 15366 15367
15352 1 15367 15368
15353 1 15368 15369
15354 1 15369 15370
15355 1 15370 15371
15356 1 15371 15372
15357 1 15372 15373
15358 1 15373 15374
15359 1 15374 15375
15360 1 15375 15376
15361 1 15376 15377
15362 1 15377 15378
15363 1 15378 15379
15364 1 15379 15380
15365 1 15380 15381
15366 1 15381 15382
15367 1 15382 15383
15368 1 15383 15384
15369 1 15384 15385
15370 1 15385 15386
15371 1 15386 15387
15372 1 15387 15388
15373 1 15388 15389
15374 1 15389 15390
15375 1 15390 15391
15376 1 15391 15392
15377 1 15392 15393
15378 1 15393 15394
15379 1 15394 15395
15380 1 15395 15396
15381 1 15396 15397
15382 1 15397 15398
15383 1 15398 15399
15384 1 15399 15400
15385 1 15400 15401
15386 1 15401 15402
15387 1 15402 15403
15388 1 15403 15404
15389 1 15404 15405
15390 1 15405 15406
15391 1 15406 15407
15392 1 15407 15408
15393 1 15408 15409
15394 1 15409 15410
15395 1 15410 15411
15396 1 15411 15412
15397 1 15412 15413
15398 1 15413 15414
15399 1 15414 15415
15400 1 15415 15416
15401 1 15416 15417
15402 1 15417 15418
15403 1 15418 15419
15404 1 15419 15420
15405 1 15420 15421
15406 1 15421 15422
15407 1 15422 15423
15408 1 15423 15424
15409 1 15424 15425
15410 1 15425 15426
15411 1 15426 15427
15412 1 15427 15428
15413 1 15428 15429
15414 1 15429 15430
15415 1 15430 15431
15416 1 15431 15432
15417 1 15432 15433
15418 1 15433 15434
15419 1 15434 15435
15420 1 15435 15436
15421 1 15436 15437
15422 1 15437 15438
15423 1 15438 15439
15424 1 15439 15440
15425 1 15440 15441
15426 1 15441 15442
15427 1 15442 15443
15428 1 15443 15444
15429 1 15444 15445
15430 1 15445 15446
15431 1 15446 15447
15432 1 15447 15448
15433 1 15448 15449
15434 1 15449 15450
15435 1 15450 15451
15436 1 15451 15452
15437 1 15452 15453
15438 1 15453 15454
15439 1 15454 15455
15440 1 15455 15456
15441 1 15456 15457
15442 1 15457 15458
15443 1 15458 15459
15444 1 15459 15460
15445 1 15460 15461
15446 1 15461 15462
15447 1 15462 15463
15448 1 15463 15464
15449 1 15464 15465
15450 1 15465 15466
15451 1 15466 15467
15452 1 15467 15468
15453 1 15468 15469
15454 1 15469 15470
15455 1 15470 15471
15456 1 15471 15472
15457 1 15472 15473
15458 1 15473 15474
15459 1 15474 15475
15460 1 15475 15476
15461 1 15476 15477
15462 1 15477 15478
15463 1 15478 15479
15464 1 15479 15480
15465 1 15480 15481
15466 1 15481 15482
15467 1 15482 15483
15468 1 15483 15484
15469 1 15484 15485
15470 1 15485 15486
15471 1 15486 15487
15472 1 15487 15488
15473 1 15488 15489
15474 1 15489 15490
15475 1 15490 15491
15476 1 15491 15492
15477 1 15492 15493
15478 1 15493 15494
15479 1 15494 15495
15480 1 15495 15496
15481 1 15496 15497
15482 1 15497 15498
15483 1 15498 15499
15484 1 15499 15500
15485 1 15500 15501
15486 1 15501 15502
15487 1 15502 15503
15488 1 15503 15504
15489 1 15504 15505
15490 1 15505 15506
15491 1 15506 15507
15492 1 15507 15508
15493 1 15508 15509
15494 1 15509 15510
15495 1 15510 15511
15496 1 15511 15512
15497 1 15512 15513
15498 1 15513 15514
15499 1 15514 15515
15500 1 15515 15516
15501 1 15516 15517
15502 1 15517 15518
15503 1 15518 15519
15504 1 15519 15520
15505 1 15520 15521
15506 1 15521 15522
15507 1 15522 15523
15508 1 15523 15524
15509 1 15524 15525
15510 1 15525 15526
15511 1 15526 15527
15512 1 15527 15528
15513 1 15528 15529
15514 1 15529 15530
15515 1 15530 15531
15516 1 15531 15532
15517 1 15532 15533
15518 1 15533 15534
15519 1 15534 15535
15520 1 15535 15536
15521 1 15536 15537
15522 1 15537 15538
15523 1 15538 15539
15524 1 15539 15540
15525 1 15540 15541
15526 1 15541 15542
15527 1 15542 15543
15528 1 15543 15544
15529 1 15544 15545
15530 1 15545 15546
15531 1 15546 15547
15532 1 15547 15548
15533 1 15548 15549
15534 1 15549 15550
15535 1 15550 15551
15536 1 15551 15552
15537 1 15552 15553
15538 1 15553 15554
15539 1 15554 15555
15540 1 15555 15556
15541 1 15556 15557
15542 1 15557 15558
15543 1 15558 15559
15544 1 15559 15560
15545 1 15560 15561
15546 1 15561 15562
15547 1 15562 15563
15548 1 15563 15564
15549 1 15564 15565
15550 1 15565 15566
15551 1 15566 15567
15552 1 15567 15568
15553 1 15568 15569
15554 1 15569 15570
15555 1 15570 15571
15556 1 15571 15572
15557 1 15572 15573
15558 1 15573 15574
15559 1 15574 15575
15560 1 15575 15576
15561 1 15576 15577
15562 1 15577 15578
15563 1 15578 15579
15564 1 15579 15580
15565 1 15580 15581
15566 1 15581 15582
15567 1 15582 15583
15568 1 15583 15584
15569 1 15584 15585
15570 1 15585 15586
15571 1 15586 15587
15572 1 15587 15588
15573 1 15588 15589
15574 1 15589 15590
15575 1 15590 15591
15576 1 15591 15592
15577 1 15592 15593
15578 1 15593 15594
15579 1 15594 15595
15580 1 15595 15596
15581 1 15596 15597
15582 1 15597 15598
15583 1 15598 15599
15584 1 15599 15600
15585 1 15600 15601
15586 1 15601 15602
15587 1 15602 15603
15588 1 15603 15604
15589 1 15604 15605
15590 1 15605 15606
15591 1 15606 15607
15592 1 15607 15608
15593 1 15608 15609
15594 1 15609 15610
15595 1 15610 15611
15596 1 15611 15612
15597 1 15612 15613
15598 1 15613 15614
15599 1 15614 15615
15600 1 15615 15616
15601 1 15616 15617
15602 1 15617 15618
15603 1 15618 15619
15604 1 15619 15620
15605 1 15620 15621
15606 1 15621 15622
15607 1 15622 15623
15608 1 15623 15624
15609 1 15624 15625
15610 1 15625 15626
15611 1 15626 15627
15612 1 15627 15628
15613 1 15628 15629
15614 1 15629 15630
15615 1 15630 15631
15616 1 15631 15632
15617 1 15632 15633
15618 1 15633 15634
15619 1 15634 15635
15620 1 15635 15636
15621 1 15636 15637
15622 1 15637 15638
15623 1 15638 15639
15624 1 15639 15640
15625 1 15640 15641
15626 1 15641 15642
15627 1 15642 15643
15628 1 15643 15644
15629 1 15644 15645
15630 1 15645 15646
15631 1 15646 15647
15632 1 15647 15648
15633 1 15648 15649
15634 1 15649 15650
15635 1 15650 15651
15636 1 15651 15652
15637 1 15652 15653
15638 1 15653 15654
15639 1 15654 15655
15640 1 15655 15656
15641 1 15656 15657
15642 1 15657 15658
15643 1 15658 15659
15644 1 15659 15660
15645 1 15660 15661
15646 1 15661 15662
15647 1 15662 15663
15648 1 15663 15664
15649 1 15664 15665
15650 1 15665 15666
15651 1 15666 15667
15652 1 15667 15668
15653 1 15668 15669
15654 1 15669 15670
15655 1 15670 15671
15656 1 15671 15672
15657 1 15672 15673
15658 1 15673 15674
15659 1 15674 15675
15660 1 15675 15676
15661 1 15676 15677
15662 1 15677 15678
15663 1 15678 15679
15664 1 15679 15680
15665 1 15680 15681
15666 1 15681 15682
15667 1 15682 15683
15668 1 15683 15684
15669 1 15684 15685
15670 1 15685 15686
15671 1 15686 15687
15672 1 15687 15688
15673 1 15688 15689
15674 1 15689 15690
15675 1 15690 15691
15676 1 15691 15692
15677 1 15692 15693
15678 1 15693 15694
15679 1 15694 15695
15680 1 15695 15696
15681 1 15696 15697
15682 1 15697 15698
15683 1 15698 15699
15684 1 15699 15700
15685 1 15700 15701
15686 1 15701 15702
15687 1 15702 15703
15688 1 15703 15704
15689 1 15704 15705
15690 1 15705 15706
15691 1 15706 15707
15692 1 15707 15708
15693 1 15708 15709
15694 1 15709 15710
15695 1 15710 15711
15696 1 15711 15712
15697 1 15712 15713
15698 1 15713 15714
15699 1 15714 15715
15700 1 15715 15716
15701 1 15716 15717
15702 1 15717 15718
15703 1 15718 15719
15704 1 15719 15720
15705 1 15720 15721
15706 1 15721 15722
15707 1 15722 15723
15708 1 15723 15724
15709 1 15724 15725
15710 1 15725 15726
15711 1 15726 15727
15712 1 15727 15728
15713 1 15728 15729
15714 1 15729 15730
15715 1 15730 15731
15716 1 15731 15732
15717 1 15732 15733
15718 1 15733 15734
15719 1 15734 15735
15720 1 15735 15736
15721 1 15736 15737
15722 1 15737 15738
15723 1 15738 15739
15724 1 15739 15740
15725 1 15740 15741
15726 1 15741 15742
15727 1 15742 15743
15728 1 15743 15744
15729 1 15744 15745
15730 1 15745 15746
15731 1 15746 15747
15732 1 15747 15748
15733 1 15748 15749
15734 1 15749 15750
15735 1 15750 15751
15736 1 15751 15752
15737 1 15752 15753
15738 1 15753 15754
15739 1 15754 15755
15740 1 15755 15756
15741 1 15756 15757
15742 1 15757 15758
15743 1 15758 15759
15744 1 15759 15760
15745 1 15760 15761
15746 1 15761 15762
15747 1 15762 15763
15748 1 15763 15764
15749 1 15764 15765
15750 1 15765 15766
15751 1 15766 15767
15752 1 15767 15768
15753 1 15768 15769
15754 1 15769 15770
15755 1 15770 15771
15756 1 15771 15772
15757 1 15772 15773
15758 1 15773 15774
15759 1 15774 15775
15760 1 15775 15776
15761 1 15776 15777
15762 1 15777 15778
15763 1 15778 15779
15764 1 15779 15780
15765 1 15780 15781
15766 1 15781 15782
15767 1 15782 15783
15768 1 15783 15784
15769 1 15784 15785
15770 1 15785 15786
15771 1 15786 15787
15772 1 15787 15788
15773 1 15788 15789
15774 1 15789 15790
15775 1 15790 15791
15776 1 15791 15792
15777 1 15792 15793
15778 1 15793 15794
15779 1 15794 15795
15780 1 15795 15796
15781 1 15796 15797
15782 1 15797 15798
15783 1 15798 15799
15784 1 15799 15800
15785 1 15800 15801
15786 1 15801 15802
15787 1 15802 15803
15788 1 15803 15804
15789 1 15804 15805
15790 1 15805 15806
15791 1 15806 15807
15792 1 15807 15808
15793 1 15808 15809
15794 1 15809 15810
15795 1 15810 15811
15796 1 15811 15812
15797 1 15812 15813
15798 1 15813 15814
15799 1 15814 15815
15800 1 15815 15816
15801 1 15816 15817
15802 1 15817 15818
15803 1 15818 15819
15804 1 15819 15820
15805 1 15820 15821
15806 1 15821 15822
15807 1 15822 15823
15808 1 15823 15824
15809 1 15824 15825
15810 1 15825 15826
15811 1 15826 15827
15812 1 15827 15828
15813 1 15828 15829
15814 1 15829 15830
15815 1 15830 15831
15816 1 15831 15832
15817 1 15832 15833
15818 1 15833 15834
15819 1 15834 15835
15820 1 15835 15836
15821 1 15836 15837
15822 1 15837 15838
15823 1 15838 15839
15824 1 15839 15840
15825 1 15840 15841
15826 1 15841 15842
15827 1 15842 15843
15828 1 15843 15844
15829 1 15844 15845
15830 1 15845 15846
15831 1 15846 15847
15832 1 15847 15848
15833 1 15848 15849
15834 1 15849 15850
15835 1 15850 15851
15836 1 15851 15852
15837 1 15852 15853
15838 1 15853 15854
15839 1 15854 15855
15840 1 15855 15856
15841 1 15856 15857
15842 1 15857 15858
15843 1 15858 15859
15844 1 15859 15860
15845 1 15860 15861
15846 1 15861 15862
15847 1 15862 15863
15848 1 15863 15864
15849 1 15864 15865
15850 1 15865 15866
15851 1 15866 15867
15852 1 15867 15868
15853 1 15868 15869
15854 1 15869 15870
15855 1 15870 15871
15856 1 15871 15872
15857 1 15872 15873
15858 1 15873 15874
15859 1 15874 15875
15860 1 15875 15876
15861 1 15876 15877
15862 1 15877 15878
15863 1 15878 15879
15864 1 15879 15880
15865 1 15880 15881
15866 1 15881 15882
15867 1 15882 15883
15868 1 15883 15884
15869 1 15884 15885
15870 1 15885 15886
15871 1 15886 15887
15872 1 15887 15888
15873 1 15888 15889
15874 1 15889 15890
15875 1 15890 15891
15876 1 15891 15892
15877 1 15892 15893
15878 1 15893 15894
15879 1 15894 15895
15880 1 15895 15896
15881 1 15896 15897
15882 1 15897 15898
15883 1 15898 15899
15884 1 15899 15900
15885 1 15900 15901
15886 1 15901 15902
15887 1 15902 15903
15888 1 15903 15904
15889 1 15904 15905
15890 1 15905 15906
15891 1 15906 15907
15892 1 15907 15908
15893 1 15908 15909
15894 1 15909 15910
15895 1 15910 15911
15896 1 15911 15912
15897 1 15912 15913
15898 1 15913 15914
15899 1 15914 15915
15900 1 15915 15916
15901 1 15916 15917
15902 1 15917 15918
15903 1 15918 15919
15904 1 15919 15920
15905 1 15920 15921
15906 1 15921 15922
15907 1 15922 15923
15908 1 15923 15924
15909 1 15924 15925
15910 1 15925 15926
15911 1 15926 15927
15912 1 15927 15928
15913 1 15928 15929
15914 1 15929 15930
15915 1 15930 15931
15916 1 15931 15932
15917 1 15932 15933
15918 1 15933 15934
15919 1 15934 15935
15920 1 15935 15936
15921 1 15936 15937
15922 1 15937 15938
15923 1 15938 15939
15924 1 15939 15940
15925 1 15940 15941
15926 1 15941 15942
15927 1 15942 15943
15928 1 15943 15944
15929 1 15944 15945
15930 1 15945 15946
15931 1 15946 15947
15932 1 15947 15948
15933 1 15948 15949
15934 1 15949 15950
15935 1 15950 15951
15936 1 15951 15952
15937 1 15952 15953
15938 1 15953 15954
15939 1 15954 15955
15940 1 15955 15956
15941 1 15956 15957
15942 1 15957 15958
15943 1 15958 15959
15944 1 15959 15960
15945 1 15960 15961
15946 1 15961 15962
15947 1 15962 15963
15948 1 15963 15964
15949 1 15964 15965
15950 1 15965 15966
15951 1 15966 15967
15952 1 15967 15968
15953 1 15968 15969
15954 1 15969 15970
15955 1 15970 15971
15956 1 15971 15972
15957 1 15972 15973
15958 1 15973 15974
15959 1 15974 15975
15960 1 15975 15976
15961 1 15976 15977
15962 1 15977 15978
15963 1 15978 15979
15964 1 15979 15980
15965 1 15980 15981
15966 1 15981 15982
15967 1 15982 15983
15968 1 15983 15984
15969 1 15984 15985
15970 1 15985 15986
15971 1 15986 15987
15972 1 15987 15988
15973 1 15988 15989
15974 1 15989 15990
15975 1 15990 15991
15976 1 15991 15992
15977 1 15992 15993
15978 1 15993 15994
15979 1 15994 15995
15980 1 15995 15996
15981 1 15996 15997
15982 1 15997 15998
15983 1 15998 15999
15984 1 15999 16000
15985 2 16001 16002
15986 2 16001 16003
15987 2 16001 16004
15988 2 16001 16005
15989 2 16006 16007
15990 2 16006 16008
15991 2 16006 16009
15992 2 16006 16010
15993 2 16011 16012
15994 2 16011 16013
15995 2 16011 16014
15996 2 16011 16015
15997 2 16016 16017
15998 2 16016 16018
15999 2 16016 16019
16000 2 16016 16020
16001 2 16021 16022
16002 2 16021 16023
16003 2 16021 16024
16004 2 16021 16025
16005 2 16026 16027
16006 2 16026 16028
16007 2 16026 16029
16008 2 16026 16030
16009 2 16031 16032
16010 2 16031 16033
16011 2 16031 16034
16012 2 16031 16035
16013 2 16036 16037
16014 2 16036 16038
16015 2 16036 16039
16016 2 16036 16040
16017 2 16041 16042
16018 2 16041 16043
16019 2 16041 16044
16020 2 16041 16045
16021 2 16046 16047
16022 2 16046 16048
16023 2 16046 16049
16024 2 16046 16050
16025 2 16051 16052
16026 2 16051 16053
16027 2 16051 16054
16028 2 16051 16055
16029 2 16056 16057
16030 2 16056 16058
16031 2 16056 16059
16032 2 16056 16060
16033 2 16061 16062
16034 2 16061 16063
16035 2 16061 16064
16036 2 16061 16065
16037 2 16066 16067
16038 2 16066 16068
16039 2 16066 16069
16040 2 16066 16070
16041 2 16071 16072
16042 2 16071 16073
16043 2 16071 16074
16044 2 16071 16075
16045 2 16076 16077
16046 2 16076 16078
16047 2 16076 16079
16048 2 16076 16080
16049 2 16081 16082
16050 2 16081 16083
16051 2 16081 16084
16052 2 16081 16085
16053 2 16086 16087
16054 2 16086 16088
16055 2 16086 16089
16056 2 16086 16090
16057 2 16091 16092
16058 2 16091 16093
16059 2 16091 16094
16060 2 16091 16095
16061 2 16096 16097
16062 2 16096 16098
16063 2 16096 16099
16064 2 16096 16100
16065 2 16101 16102
16066 2 16101 16103
16067 2 16101 16104
16068 2 16101 16105
16069 2 16106 16107
16070 2 16106 16108
16071 2 16106 16109
16072 2 16106 16110
16073 2 16111 16112
16074 2 16111 16113
16075 2 16111 16114
16076 2 16111 16115
16077 2 16116 16117
16078 2 16116 16118
16079 2 16116 16119
16080 2 16116 16120
16081 2 16121 16122
16082 2 16121 16123
16083 2 16121 16124
16084 2 16121 16125
16085 2 16126 16127
16086 2 16126 16128
16087 2 16126 16129
16088 2 16126 16130
16089 2 16131 16132
16090 2 16131 16133
16091 2 16131 16134
16092 2 16131 16135
16093 2 16136 16137
16094 2 16136 16138
16095 2 16136 16139
16096 2 16136 16140
16097 2 16141 16142
16098 2 16141 16143
16099 2 16141 16144
16100 2 16141 16145
16101 2 16146 16147
16102 2 16146 16148
16103 2 16146 16149
16104 2 16146 16150
16105 2 16151 16152
16106 2 16151 16153
16107 2 16151 16154
16108 2 16151 16155
16109 2 16156 16157
16110 2 16156 16158
16111 2 16156 16159
16112 2 16156 16160
16113 2 16161 16162
16114 2 16161 16163
16115 2 16161 16164
16116 2 16161 16165
16117 2 16166 16167
16118 2 16166 16168
16119 2 16166 16169
16120 2 16166 16170
16121 2 16171 16172
16122 2 16171 16173
16123 2 16171 16174
16124 2 16171 16175
16125 2 16176 16177
16126 2 16176 16178
16127 2 16176 16179
16128 2 16176 16180
16129 2 16181 16182
16130 2 16181 16183
16131 2 16181 16184
16132 2 16181 16185
16133 2 16186 16187
16134 2 16186 16188
16135 2 16186 16189
16136 2 16186 16190
16137 2 16191 16192
16138 2 16191 16193
16139 2 16191 16194
16140 2 16191 16195
16141 2 16196 16197
16142 2 16196 16198
16143 2 16196 16199
16144 2 16196 16200
16145 2 16201 16202
16146 2 16201 16203
16147 2 16201 16204
16148 2 16201 16205
16149 2 16206 16207
16150 2 16206 16208
16151 2 16206 16209
16152 2 16206 16210
16153 2 16211 16212
16154 2 16211 16213
16155 2 16211 16214
16156 2 16211 16215
16157 2 16216 16217
16158 2 16216 16218
16159 2 16216 16219
16160 2 16216 16220
16161 2 16221 16222
16162 2 16221 16223
16163 2 16221 16224
16164 2 16221 16225
16165 2 16226 16227
16166 2 16226 16228
16167 2 16226 16229
16168 2 16226 16230
16169 2 16231 16232
16170 2 16231 16233
16171 2 16231 16234
16172 2 16231 16235
16173 2 16236 16237
16174 2 16236 16238
16175 2 16236 16239
16176 2 16236 16240
16177 2 16241 16242
16178 2 16241 16243
16179 2 16241 16244
16180 2 16241 16245
16181 2 16246 16247
16182 2 16246 16248
16183 2 16246 16249
16184 2 16246 16250
16185 2 16251 16252
16186 2 16251 16253
16187 2 16251 16254
16188 2 16251 16255
16189 2 16256 16257
16190 2 16256 16258
16191 2 16256 16259
16192 2 16256 16260
16193 2 16261 16262
16194 2 16261 16263
16195 2 16261 16264
16196 2 16261 16265
16197 2 16266 16267
16198 2 16266 16268
16199 2 16266 16269
16200 2 16266 16270
16201 2 16271 16272
16202 2 16271 16273
16203 2 16271 16274
16204 2 16271 16275
16205 2 16276 16277
16206 2 16276 16278
16207 2 16276 16279
16208 2 16276 16280
16209 2 16281 16282
16210 2 16281 16283
16211 2 16281 16284
16212 2 16281 16285
16213 2 16286 16287
16214 2 16286 16288
16215 2 16286 16289
16216 2 16286 16290
16217 2 16291 16292
16218 2 16291 16293
16219 2 16291 16294
16220 2 16291 16295
16221 2 16296 16297
16222 2 16296 16298
16223 2 16296 16299
16224 2 16296 16300
16225 2 16301 16302
16226 2 16301 16303
16227 2 16301 16304
16228 2 16301 16305
16229 2 16306 16307
16230 2 16306 16308
16231 2 16306 16309
16232 2 16306 16310
16233 2 16311 16312
16234 2 16311 16313
16235 2 16311 16314
16236 2 16311 16315
16237 2 16316 16317
16238 2 16316 16318
16239 2 16316 16319
16240 2 16316 16320
16241 2 16321 16322
16242 2 16321 16323
16243 2 16321 16324
16244 2 16321 16325
16245 2 16326 16327
16246 2 16326 16328
16247 2 16326 16329
16248 2 16326 16330
16249 2 16331 16332
16250 2 16331 16333
16251 2 16331 16334
16252 2 16331 16335
16253 2 16336 16337
16254 2 16336 16338
16255 2 16336 16339
16256 2 16336 16340
16257 2 16341 16342
16258 2 16341 16343
16259 2 16341 16344
16260 2 16341 16345
16261 2 16346 16347
16262 2 16346 16348
16263 2 16346 16349
16264 2 16346 16350
16265 2 16351 16352
16266 2 16351 16353
16267 2 16351 16354
16268 2 16351 16355
16269 2 16356 16357
16270 2 16356 16358
16271 2 16356 16359
16272 2 16356 16360
16273 2 16361 16362
16274 2 16361 16363
16275 2 16361 16364
16276 2 16361 16365
16277 2 16366 16367
16278 2 16366 16368
16279 2 16366 16369
16280 2 16366 16370
16281 2 16371 16372
16282 2 16371 16373
16283 2 16371 16374
16284 2 16371 16375
16285 2 16376 16377
16286 2 16376 16378
16287 2 16376 16379
16288 2 16376 16380
16289 2 16381 16382
16290 2 16381 16383
16291 2 16381 16384
16292 2 16381 16385
16293 2 16386 16387
16294 2 16386 16388
16295 2 16386 16389
16296 2 16386 16390
16297 2 16391 16392
16298 2 16391 16393
16299 2 16391 16394
16300 2 16391 16395
16301 2 16396 16397
16302 2 16396 16398
16303 2 16396 16399
16304 2 16396 16400
16305 2 16401 16402
16306 2 16401 16403
16307 2 16401 16404
16308 2 16401 16405
16309 2 16406 16407
16310 2 16406 16408
16311 2 16406 16409
16312 2 16406 16410
16313 2 16411 16412
16314 2 16411 16413
16315 2 16411 16414
16316 2 16411 16415
16317 2 16416 16417
16318 2 16416 16418
16319 2 16416 16419
16320 2 16416 16420
16321 2 16421 16422
16322 2 16421 16423
16323 2 16421 16424
16324 2 16421 16425
16325 2 16426 16427
16326 2 16426 16428
16327 2 16426 16429
16328 2 16426 16430
16329 2 16431 16432
16330 2 16431 16433
16331 2 16431 16434
16332 2 16431 16435
16333 2 16436 16437
16334 2 16436 16438
16335 2 16436 16439
16336 2 16436 16440
16337 2 16441 16442
16338 2 16441 16443
16339 2 16441 16444
16340 2 16441 16445
16341 2 16446 16447
16342 2 16446 16448
16343 2 16446 16449
16344 2 16446 16450
16345 2 16451 16452
16346 2 16451 16453
16347 2 16451 16454
16348 2 16451 16455
16349 2 16456 16457
16350 2 16456 16458
16351 2 16456 16459
16352 2 16456 16460
16353 2 16461 16462
16354 2 16461 16463
16355 2 16461 16464
16356 2 16461 16465
16357 2 16466 16467
16358 2 16466 16468
16359 2 16466 16469
16360 2 16466 16470
16361 2 16471 16472
16362 2 16471 16473
16363 2 16471 16474
16364 2 16471 16475
16365 2 16476 16477
16366 2 16476 16478
16367 2 16476 16479
16368 2 16476 16480
16369 2 16481 16482
16370 2 16481 16483
16371 2 16481 16484
16372 2 16481 16485
16373 2 16486 16487
16374 2 16486 16488
16375 2 16486 16489
16376 2 16486 16490
16377 2 16491 16492
16378 2 16491 16493
16379 2 16491 16494
16380 2 16491 16495
16381 2 16496 16497
16382 2 16496 16498
16383 2 16496 16499
16384 2 16496 16500
16385 2 16501 16502
16386 2 16501 16503
16387 2 16501 16504
16388 2 16501 16505
16389 2 16506 16507
16390 2 16506 16508
16391 2 16506 16509
16392 2 16506 16510
16393 2 16511 16512
16394 2 16511 16513
16395 2 16511 16514
16396 2 16511 16515
16397 2 16516 16517
16398 2 16516 16518
16399 2 16516 16519
16400 2 16516 16520
16401 2 16521 16522
16402 2 16521 16523
16403 2 16521 16524
16404 2 16521 16525
16405 2 16526 16527
16406 2 16526 16528
16407 2 16526 16529
16408 2 16526 16530
16409 2 16531 16532
16410 2 16531 16533
16411 2 16531 16534
16412 2 16531 16535
16413 2 16536 16537
16414 2 16536 16538
16415 2 16536 16539
16416 2 16536 16540
16417 2 16541 16542
16418 2 16541 16543
16419 2 16541 16544
16420 2 16541 16545
16421 2 16546 16547
16422 2 16546 16548
16423 2 16546 16549
16424 2 16546 16550
16425 2 16551 16552
16426 2 16551 16553
16427 2 16551 16554
16428 2 16551 16555
16429 2 16556 16557
16430 2 16556 16558
16431 2 16556 16559
16432 2 16556 16560
16433 2 16561 16562
16434 2 16561 16563
16435 2 16561 16564
16436 2 16561 16565
16437 2 16566 16567
16438 2 16566 16568
16439 2 16566 16569
16440 2 16566 16570
16441 2 16571 16572
16442 2 16571 16573
16443 2 16571 16574
16444 2 16571 16575
16445 2 16576 16577
16446 2 16576 16578
16447 2 16576 16579
16448 2 16576 16580
16449 2 16581 16582
16450 2 16581 16583
16451 2 16581 16584
16452 2 16581 16585
16453 2 16586 16587
16454 2 16586 16588
16455 2 16586 16589
16456 2 16586 16590
16457 2 16591 16592
16458 2 16591 16593
16459 2 16591 16594
16460 2 16591 16595
16461 2 16596 16597
16462 2 16596 16598
16463 2 16596 16599
16464 2 16596 16600
16465 2 16601 16602
16466 2 16601 16603
16467 2 16601 16604
16468 2 16601 16605
16469 2 16606 16607
16470 2 16606 16608
16471 2 16606 16609
16472 2 16606 16610
16473 2 16611 16612
16474 2 16611 16613
16475 2 16611 16614
16476 2 16611 16615
16477 2 16616 16617
16478 2 16616 16618
16479 2 16616 16619
16480 2 16616 16620
16481 2 16621 16622
16482 2 16621 16623
16483 2 16621 16624
16484 2 16621 16625
16485 2 16626 16627
16486 2 16626 16628
16487 2 16626 16629
16488 2 16626 16630
16489 2 16631 16632
16490 2 16631 16633
16491 2 16631 16634
16492 2 16631 16635
16493 2 16636 16637
16494 2 16636 16638
16495 2 16636 16639
16496 2 16636 16640
16497 2 16641 16642
16498 2 16641 16643
16499 2 16641 16644
16500 2 16641 16645
16501 2 16646 16647
16502 2 16646 16648
16503 2 16646 16649
16504 2 16646 16650
16505 2 16651 16652
16506 2 16651 16653
16507 2 16651 16654
16508 2 16651 16655
16509 2 16656 16657
16510 2 16656 16658
16511 2 16656 16659
16512 2 16656 16660
16513 2 16661 16662
16514 2 16661 16663
16515 2 16661 16664
16516 2 16661 16665
16517 2 16666 16667
16518 2 16666 16668
16519 2 16666 16669
16520 2 16666 16670
16521 2 16671 16672
16522 2 16671 16673
16523 2 16671 16674
16524 2 16671 16675
16525 2 16676 16677
16526 2 16676 16678
16527 2 16676 16679
16528 2 16676 16680
16529 2 16681 16682
16530 2 16681 16683
16531 2 16681 16684
16532 2 16681 16685
16533 2 16686 16687
16534 2 16686 16688
16535 2 16686 16689
16536 2 16686 16690
16537 2 16691 16692
16538 2 16691 16693
16539 2 16691 16694
16540 2 16691 16695
16541 2 16696 16697
16542 2 16696 16698
16543 2 16696 16699
16544 2 16696 16700
16545 2 16701 16702
16546 2 16701 16703
16547 2 16701 16704
16548 2 16701 16705
16549 2 16706 16707
16550 2 16706 16708
16551 2 16706 16709
16552 2 16706 16710
16553 2 16711 16712
16554 2 16711 16713
16555 2 16711 16714
16556 2 16711 16715
16557 2 16716 16717
16558 2 16716 16718
16559 2 16716 16719
16560 2 16716 16720
16561 2 16721 16722
16562 2 16721 16723
16563 2 16721 16724
16564 2 16721 16725
16565 2 16726 16727
16566 2 16726 16728
16567 2 16726 16729
16568 2 16726 16730
16569 2 16731 16732
16570 2 16731 16733
16571 2 16731 16734
16572 2 16731 16735
16573 2 16736 16737
16574 2 16736 16738
16575 2 16736 16739
16576 2 16736 16740
16577 2 16741 16742
16578 2 16741 16743
16579 2 16741 16744
16580 2 16741 16745
16581 2 16746 16747
16582 2 16746 16748
16583 2 16746 16749
16584 2 16746 16750
16585 2 16751 16752
16586 2 16751 16753
16587 2 16751 16754
16588 2 16751 16755
16589 2 16756 16757
16590 2 16756 16758
16591 2 16756 16759
16592 2 16756 16760
16593 2 16761 16762
16594 2 16761 16763
16595 2 16761 16764
16596 2 16761 16765
16597 2 16766 16767
16598 2 16766 16768
16599 2 16766 16769
16600 2 16766 16770
16601 2 16771 16772
16602 2 16771 16773
16603 2 16771 16774
16604 2 16771 16775
16605 2 16776 16777
16606 2 16776 16778
16607 2 16776 16779
16608 2 16776 16780
16609 2 16781 16782
16610 2 16781 16783
16611 2 16781 16784
16612 2 16781 16785
16613 2 16786 16787
16614 2 16786 16788
16615 2 16786 16789
16616 2 16786 16790
16617 2 16791 16792
16618 2 16791 16793
16619 2 16791 16794
16620 2 16791 16795
16621 2 16796 16797
16622 2 16796 16798
16623 2 16796 16799
16624 2 16796 16800

