LAMMPS (2 Aug 2023 - Update 3)
# ====================================================================== #
# Equilibrate a test system of 20 polymers of length 1000 and 500 tetrahedral
# crosslinkers in implicit solvent.
#
# Authors:
#     Kee-Myoung Nam
#
# Last updated:
#     4/17/2024
# ====================================================================== #
# INITIALIZATION
# ==============
# Use Lennard-Jones units in 3 dimensions
units lj
dimension 3

# Use FENE bonds (without angular, dihedral, improper, etc. contributions)
# and use harmonic bonds for polymer/crosslinker bonds
atom_style bond
bond_style hybrid fene harmonic

# Use Lennard-Jones potentials between unbonded molecules (note that the
# 2.5 cutoff ratio is re-written below)
pair_style lj/cut 2.5

# Use periodic boundary conditions in all 3 dimensions
boundary p p p

# Maintain neighbor lists with given additional "skin" distance
neighbor 1.4 bin

# Build neighbor lists at every timestep
neigh_modify every 1 delay 1

# ====================================================================== #
# PARSE INPUT MOLECULES
# =====================
# Allow for one additional bond for each atom
read_data init.data extra/bond/per/atom 1 extra/special/per/atom 1
Reading data file ...
  orthogonal box = (-50 -50 -50) to (50 50 50)
  1 by 1 by 1 MPI processor grid
  reading atoms ...
  22500 atoms
  scanning bonds ...
  5 = max bonds/atom
  reading bonds ...
  21980 bonds
Finding 1-2 1-3 1-4 neighbors ...
  special bond factors lj:    0        0        0       
  special bond factors coul:  0        0        0       
     4 = max # of 1-2 neighbors
     3 = max # of 1-3 neighbors
     4 = max # of 1-4 neighbors
     7 = max # of special neighbors
  special bonds CPU = 0.004 seconds
  read_data CPU = 0.036 seconds

# ====================================================================== #
# DEFINE BOND AND POTENTIAL PARAMETERS
# ====================================
# Define FENE bond parameters (K, R0, \epsilon, \sigma)
# - Set maximum length to slightly more than double the monomer radius
bond_coeff 1 fene 30.0 2.5 1.0 1.0

# Define within-crosslinker harmonic bond parameters (K, R0)
# - Set equilibrium length to crosslinker radius
bond_coeff 2 harmonic 100.0 3.0

# Define polymer-crosslinker harmonic bond parameters (K, R0)
# - Set equilibrium length to monomer radius
bond_coeff 3 harmonic 100.0 1.0

# Define Lennard-Jones potential parameters (\epsilon, \sigma, cutoff ratio)
# - Set cutoff distance for monomers to 2^(1/6)
# - Set cutoff distance for crosslinkers to 5.0 (larger than crosslinker radius)
# - Weak attraction between crosslinkers, strong attraction between monomers
#   and crosslinkers
pair_coeff 1 1 1.0 1.0 1.1224620483    # Only repulsion for monomers
pair_coeff 2 2 2.0 1.0 5.0             # Attraction and repulsion for crosslinkers
pair_coeff 3 3 2.0 1.0 5.0             # Attraction and repulsion for crosslinkers
pair_coeff 1 2 4.0 1.0 5.0             # Fix cutoffs between different types of atoms
pair_coeff 1 3 4.0 1.0 5.0
pair_coeff 2 3 2.0 1.0 5.0
pair_modify shift yes

# Exclude Lennard-Jones potential contributions between FENE-bonded atoms
special_bonds fene
Finding 1-2 1-3 1-4 neighbors ...
  special bond factors lj:    0        1        1       
  special bond factors coul:  0        1        1       
     4 = max # of 1-2 neighbors
     7 = max # of special neighbors
  special bonds CPU = 0.001 seconds

# ====================================================================== #
# PRINT THERMODYNAMIC INFORMATION DURING MINIMIZATION
# ===================================================
thermo 10
thermo_style custom step temp pe ke etotal epair ebond press

# ====================================================================== #
# ENERGY MINIMIZATION
# ===================
minimize 1.0e-4 1.0e-6 5000 10000
Switching to 'neigh_modify every 1 delay 0 check yes' setting during minimization
Generated 0 of 3 mixed pair_coeff terms from geometric mixing rule
Neighbor list info ...
  update: every = 1 steps, delay = 0 steps, check = yes
  max neighbors/atom: 2000, page size: 100000
  master list distance cutoff = 6.4
  ghost atom cutoff = 6.4
  binsize = 3.2, bins = 32 32 32
  1 neighbor lists, perpetual/occasional/extra = 1 0 0
  (1) pair lj/cut, perpetual
      attributes: half, newton on
      pair build: half/bin/newton
      stencil: half/bin/3d
      bin: standard
Per MPI rank memory allocation (min/avg/max) = 18.87 | 18.87 | 18.87 Mbytes
   Step          Temp          PotEng         KinEng         TotEng         E_pair         E_bond         Press     
         0   0              160.16368      0              160.16368      144.76076      15.402919      13.020661    
        10   0              15.646582      0              15.646582      0.27312163     15.37346       0.023195332  
        20   0              15.306895      0              15.306895      0.010365063    15.29653       0.0065290545 
        23   0              15.296307      0              15.296307      0.0013830751   15.294924      0.0030948961 
Loop time of 0.0328881 on 1 procs for 23 steps with 22500 atoms

100.0% CPU use with 1 MPI tasks x no OpenMP threads

Minimization stats:
  Stopping criterion = energy tolerance
  Energy initial, next-to-last, final = 
      160.163682114012   15.2977744141461   15.2963069717206
  Force two-norm initial, final = 1.6883247e+08 236.14023
  Force max component initial, final = 97352956 73.126977
  Final line search alpha, max atom move = 0.0019983544 0.14613362
  Iterations, force evaluations = 23 32

MPI task timing breakdown:
Section |  min time  |  avg time  |  max time  |%varavg| %total
---------------------------------------------------------------
Pair    | 0.015051   | 0.015051   | 0.015051   |   0.0 | 45.76
Bond    | 0.0062264  | 0.0062264  | 0.0062264  |   0.0 | 18.93
Neigh   | 0          | 0          | 0          |   0.0 |  0.00
Comm    | 0.000911   | 0.000911   | 0.000911   |   0.0 |  2.77
Output  | 6.7334e-05 | 6.7334e-05 | 6.7334e-05 |   0.0 |  0.20
Modify  | 0          | 0          | 0          |   0.0 |  0.00
Other   |            | 0.01063    |            |       | 32.33

Nlocal:          22500 ave       22500 max       22500 min
Histogram: 1 0 0 0 0 0 0 0 0 0
Nghost:          10850 ave       10850 max       10850 min
Histogram: 1 0 0 0 0 0 0 0 0 0
Neighs:         152130 ave      152130 max      152130 min
Histogram: 1 0 0 0 0 0 0 0 0 0

Total # of neighbors = 152130
Ave neighs/atom = 6.7613333
Ave special neighs/atom = 1.9537778
Neighbor list builds = 0
Dangerous builds = 0

# ====================================================================== #
# DEFINE INITIAL VELOCITIES
# =========================
# Set initial velocities of all molecules from a Gaussian distribution with
# angular momenta set to zero
variable g equal 1.0
velocity all create $g 12345 rot yes dist gaussian
velocity all create 1 12345 rot yes dist gaussian

# ====================================================================== #
# PRINT THERMODYNAMIC INFORMATION DURING SIMULATION
# =================================================
thermo 1000
thermo_style custom step temp press vol pxx pyy pzz etotal epair ebond

# ====================================================================== #
# SET UP AND RUN INITIAL EQUILIBRATION
# ====================================
timestep 0.0001
reset_timestep 0

# Equilibrate using the NVE ensemble and Langevin thermostat
fix fxinit1 all nve
fix fxinit2 all langevin $g $g 2.0 12345
fix fxinit2 all langevin 1 $g 2.0 12345
fix fxinit2 all langevin 1 1 2.0 12345

run 100000
Generated 0 of 3 mixed pair_coeff terms from geometric mixing rule
Per MPI rank memory allocation (min/avg/max) = 15.49 | 15.49 | 15.49 Mbytes
   Step          Temp          Press          Volume          Pxx            Pyy            Pzz           TotEng         E_pair         E_bond    
         0   1              0.025593896    1000000        0.025969072    0.025303528    0.025509088    16.79624       0.0013830751   15.294924    
      1000   0.77007206    -0.018950382    1000000       -0.019801917   -0.019689615   -0.017359615    16.826567      0.077012926    15.594498    
      2000   0.81488877     0.024751768    1000000        0.025804321    0.024758052    0.023692932    16.860443      0.040086887    15.598077    
      3000   0.83821031     0.0049269988   1000000        0.0048157766   0.0051573572   0.0048078625   16.883367      0.032359789    15.593748    
      4000   0.84338262     0.0047230069   1000000        0.0029938426   0.0060638191   0.005111359    16.915204      0.027303428    15.622883    
      5000   0.85237697     0.0113573      1000000        0.011645712    0.010445651    0.011980536    16.931311      0.020801357    15.632001    
      6000   0.86306872     0.00048536506  1000000       -9.5305252e-05  0.00032032583  0.0012310746   16.953454      0.019150015    15.639758    
      7000   0.87419343     0.0037581719   1000000        0.0024586195   0.0051984648   0.0036174314   16.972431      0.015064092    15.646135    
      8000   0.87887297     0.0025735526   1000000        0.0029257171   0.0022609598   0.0025339811   16.992388      0.013913582    15.660223    
      9000   0.88856849     0.0049525064   1000000        0.0053176591   0.0036595419   0.0058803182   17.013316      0.011313345    15.66921     
     10000   0.89110374     0.0047625825   1000000        0.0044799925   0.0053436253   0.0044641298   17.025652      0.0085608395   15.680495    
     11000   0.90173065     0.0015046799   1000000        0.0017190483   0.0021758309   0.00061916047  17.042278      0.0056153242   15.684127    
     12000   0.90114587     0.0030628444   1000000        0.0037050401   0.0018127084   0.0036707847   17.056536      0.0066117298   15.698266    
     13000   0.91218198     0.0054040752   1000000        0.0015338441   0.0075147363   0.0071636452   17.072031      0.0037399736   15.700079    
     14000   0.91195329     0.0030704261   1000000        0.0063233993   0.0015004207   0.0013874585   17.085753      0.002535661    15.715348    
     15000   0.91992974     0.0018401287   1000000        0.00030907295  0.0011323084   0.0040790046   17.092422     -0.0035394094   15.716128    
     16000   0.92826314     0.0037315331   1000000        0.0044853121   0.0021351207   0.0045741664   17.111542     -0.0060182884   15.725227    
     17000   0.93676823     0.0018945486   1000000        0.0018312592   0.0018302724   0.0020221142   17.126589     -0.01072825     15.732227    
     18000   0.94558466     0.0020051589   1000000        0.0026194763   0.00091205257  0.0024839478   17.136801     -0.014725892    15.733213    
     19000   0.93975936     0.0019878756   1000000        0.0015948993   0.0019947173   0.0023740101   17.143235     -0.015808139    15.749467    
     20000   0.95237457     0.0037078274   1000000        0.0039240466   0.0045804658   0.0026189698   17.153732     -0.020432085    15.745666    
     21000   0.95184482     0.0022184294   1000000        0.0024712182   0.00099990229  0.0031841677   17.164167     -0.024826545    15.761289    
     22000   0.95861779     0.0026880724   1000000        0.0025522709   0.0038553612   0.001656585    17.174677     -0.028710415    15.765525    
     23000   0.96214404     0.0039021274   1000000        0.0032328906   0.0037833914   0.0046901002   17.181491     -0.029388584    15.767728    
     24000   0.96341031     0.00056486998  1000000        0.0028280822  -0.0020296705   0.00089619828  17.181607     -0.034238451    15.770794    
     25000   0.96744432     0.0012703206   1000000       -0.0014316064   0.002142926    0.0030996421   17.188231     -0.04004505     15.777174    
     26000   0.96789105     0.0041231894   1000000        0.0049429154   0.0040262584   0.0034003944   17.190852     -0.039108628    15.778188    
     27000   0.97788007     0.00028068487  1000000        0.00056109107 -0.00082334823  0.0011043118   17.201936     -0.045712553    15.780893    
     28000   0.98037239     0.0022212615   1000000        0.0017465193   0.0041713015   0.00074596375  17.210271     -0.049190191    15.788968    
     29000   0.98800562     0.0024206153   1000000        0.0019433466   0.0023533555   0.0029651438   17.217582     -0.052962481    15.788602    
     30000   0.98879646     0.00035273589  1000000       -0.00022377402  0.0016003318  -0.00031835007  17.218456     -0.05674329     15.79207     
     31000   0.9904944      0.0021728127   1000000        0.00379435     0.0011321189   0.0015919691   17.222667     -0.059515263    15.796507    
     32000   0.99452591     0.0022857239   1000000        0.001564727    0.00287182     0.0024206245   17.225118     -0.064049894    15.797445    
     33000   0.99130925     0.0024264559   1000000        0.0029187334   0.0019931196   0.0023675146   17.22768      -0.067611135    15.808393    
     34000   0.99718439     0.00048611661  1000000        0.0010727863  -1.4290692e-05  0.00039985426  17.231217     -0.071876643    15.807383    
     35000   1.0023469      0.0043318828   1000000        0.0037695536   0.0063502269   0.002875868    17.23065      -0.076587762    15.803784    
     36000   0.9995041      0.0019856745   1000000        0.0016036475   0.0011415108   0.0032118653   17.230132     -0.082371056    15.813314    
     37000   1.0056809     -0.00071581825  1000000       -0.00032903967  0.00067205708 -0.0024904722   17.231429     -0.087457891    15.810432    
     38000   1.0153046      0.0022685523   1000000        0.0020943561   0.00079829375  0.0039130072   17.239518     -0.092379748    15.809008    
     39000   1.0106363     -0.00026100706  1000000        0.0024626793  -0.0018665423  -0.0013791582   17.238751     -0.096011045    15.818874    
     40000   1.0127891      0.00079458242  1000000       -0.001415562    0.0031966333   0.000602676    17.241188     -0.098934576    15.821006    
     41000   1.0184611      0.0042786464   1000000        0.0049051087   0.0025496069   0.0053812237   17.246066     -0.10196921     15.820411    
     42000   1.0159099     -0.001418619    1000000       -0.00094687207 -0.00067699565 -0.0026319894   17.243362     -0.10946924     15.829034    
     43000   1.0229457      0.0038733359   1000000        0.0036343533   0.0047703477   0.0032153067   17.240132     -0.11336511     15.819147    
     44000   1.01816        0.0016715893   1000000        0.0014746441   0.0021571158   0.0013830081   17.237904     -0.11883403     15.829566    
     45000   1.0224459      0.0010454173   1000000       -0.00021962431  0.0016514929   0.0017043833   17.236689     -0.12484781     15.827936    
     46000   1.0235979      0.00047998691  1000000        0.0003770892  -0.0022953169   0.0033581885   17.22854      -0.12923754     15.822449    
     47000   1.0174904     -0.00034702445  1000000        0.0005043227   0.0019340265  -0.0034794226   17.223176     -0.13459312     15.831601    
     48000   1.0305337      0.0026945567   1000000        0.0024747256   0.0020016107   0.0036073337   17.229686     -0.13951365     15.823468    
     49000   1.0221995      0.0012659235   1000000        0.00089663566  0.00016837624  0.0027327586   17.223422     -0.14470811     15.834899    
     50000   1.0242887     -0.00058424711  1000000       -0.00030206253 -0.00054867116 -0.00090200765  17.222143     -0.1522986      15.838077    
     51000   1.024499       0.002372134    1000000        0.0020952538   0.0025029068   0.0025182413   17.221312     -0.15494388     15.839576    
     52000   1.0264971      0.003393879    1000000        0.0036220434   0.0031137625   0.0034458311   17.214478     -0.1634548      15.838255    
     53000   1.0266248      0.0037127261   1000000        0.002251794    0.0045699514   0.0043164329   17.209734     -0.16950368     15.839369    
     54000   1.0296115     -0.0025547726   1000000       -0.002132244   -0.0034588252  -0.0020732486   17.204575     -0.17997828     15.840205    
     55000   1.0351319      0.0034901311   1000000        0.0042996852   0.0046836709   0.0014870371   17.198286     -0.18857684     15.834233    
     56000   1.0298876      0.0017301394   1000000        0.0016302669   0.0015874331   0.0019727181   17.195314     -0.1953486      15.8459      
     57000   1.0293907      0.0010809622   1000000        0.00035749294  0.0018039073   0.0010814864   17.188158     -0.20201507     15.846155    
     58000   1.0378919      0.0032563657   1000000        0.0034934245   0.0033400677   0.0029356048   17.182153     -0.21130937     15.836694    
     59000   1.024522      -0.00061240783  1000000        0.00072479878 -0.0024015571  -0.0001604652   17.173137     -0.21737149     15.853794    
     60000   1.0327224      0.0018578909   1000000        0.0026052889   0.003107442   -0.00013905831  17.169262     -0.2209329      15.84118     
     61000   1.0328717      0.001765183    1000000        0.00053347101  0.0040970848   0.00066499304  17.170812     -0.22727725     15.84885     
     62000   1.0378398      0.00056077931  1000000        0.0010448594  -0.0010739644   0.0017114429   17.170048     -0.23737905     15.850737    
     63000   1.0436194      0.0013905134   1000000        0.00083436382  0.0026594626   0.0006777137   17.166192     -0.2458575      15.84669     
     64000   1.0330978     -5.1058694e-05  1000000       -0.00037245482  0.00086048077 -0.00064120203  17.154587     -0.24674928     15.851758    
     65000   1.0367851      0.0020434332   1000000        0.0030555119   0.0020316169   0.0010431708   17.152105     -0.25415277     15.851149    
     66000   1.036859       0.00072629816  1000000       -0.00092482724  0.001109739    0.0019939827   17.141326     -0.25408497     15.840192    
     67000   1.0300596     -0.0015058131   1000000       -0.0020362331  -0.00025950033 -0.0022217058   17.133707     -0.2612644      15.849951    
     68000   1.0342537      0.0025267349   1000000        0.0037724063   0.0021558373   0.0016519611   17.130516     -0.26877733     15.847982    
     69000   1.0279204      0.00041791862  1000000       -0.0025357928   0.0028883256   0.00090122308  17.122714     -0.27375803     15.85466     
     70000   1.0311628      0.00361395     1000000        0.0055178584   0.0014521591   0.0038718326   17.114921     -0.28131128     15.849557    
     71000   1.031755      -0.0027623566   1000000       -0.0036612586  -0.0038807456  -0.00074506562  17.103988     -0.28702029     15.843445    
     72000   1.0321542      0.00023249888  1000000       -0.00088517976  0.0012222045   0.00036047188  17.100624     -0.29668422     15.849146    
     73000   1.0391028      0.0027983646   1000000        0.0047258545   0.0010875695   0.0025816699   17.097281     -0.30390205     15.842598    
     74000   1.0310745     -0.00032804358  1000000       -0.0020631832   0.00054449541  0.00053455709  17.084234     -0.31235027     15.850042    
     75000   1.0338269      0.00076560528  1000000        0.0022346141   0.00021560032 -0.00015339855  17.07972      -0.32180487     15.850854    
     76000   1.0354867     -0.00062429604  1000000       -0.0011254553  -0.00014288889 -0.00060454395  17.078361     -0.32672477     15.851925    
     77000   1.035672       0.00023615339  1000000       -0.00024433664  0.0010547526  -0.00010195578  17.078239     -0.3293347      15.854135    
     78000   1.0409653      0.0026558355   1000000        0.0034684355   0.0034828135   0.0010162575   17.070518     -0.33907387     15.848213    
     79000   1.0347911     -0.00029797903  1000000       -0.00070234188 -0.0010205779   0.00082898272  17.06572      -0.34100907     15.854612    
     80000   1.0393669      4.8092852e-05  1000000       -3.0837866e-05  0.00071773456 -0.00054261814  17.060587     -0.35088532     15.852491    
     81000   1.0437225      0.0032979512   1000000        0.004147023    0.003613859    0.0021329716   17.058958     -0.35577626     15.84922     
     82000   1.0451273     -0.0012746015   1000000       -0.00030178892 -0.0022542512  -0.0012677645   17.054023     -0.36440153     15.850804    
     83000   1.0466301      0.0020717272   1000000        0.0020216772   0.0027661368   0.0014273677   17.046229     -0.37318246     15.849536    
     84000   1.0457906     -0.0011986156   1000000       -3.1980789e-05 -0.0015166691  -0.002047197    17.042655     -0.37843832     15.852477    
     85000   1.0425433      0.0013443404   1000000       -0.00058952007  0.0012356524   0.0033868888   17.028876     -0.38709239     15.852223    
     86000   1.0448567      0.00037750059  1000000        0.0013074591   0.0013829575  -0.0015579148   17.022558     -0.39728444     15.852627    
     87000   1.0496012      0.0012901898   1000000        0.00079201113  0.001412753    0.0016658051   17.018579     -0.40662225     15.85087     
     88000   1.0454451      0.0013651271   1000000        0.00071081595  0.00084569062  0.0025388747   17.006553     -0.41280512     15.851261    
     89000   1.0464548      0.00011613164  1000000       -0.00033520287 -0.00029330358  0.00097690138  17.001139     -0.41774828     15.849275    
     90000   1.0468187      0.00012600709  1000000        0.0015463235  -0.00024063516 -0.00092766703  16.994042     -0.42597925     15.849863    
     91000   1.0476092      0.00045692532  1000000       -0.00069053423  0.00043800679  0.0016233034   16.984586     -0.4340459      15.847288    
     92000   1.0448974      0.0014435945   1000000        0.0024511758   0.00070429823  0.0011753096   16.979688     -0.44346447     15.855876    
     93000   1.043187      -8.7909034e-05  1000000       -0.00017255249  0.0008555761  -0.00094675071  16.972604     -0.4476547      15.855548    
     94000   1.0386135      0.0017190906   1000000        0.0015199976   0.0021618982   0.0014753758   16.960111     -0.45173815     15.853998    
     95000   1.043943       0.00040861753  1000000        0.00068706933  0.00072460038 -0.00018581712  16.958164     -0.45711538     15.849434    
     96000   1.0420081      0.0013095436   1000000        0.00046786599  0.00067666617  0.0027840987   16.954759     -0.46478523     15.856602    
     97000   1.0436785     -0.00012217382  1000000       -0.00099803033  0.0013907257  -0.00075921684  16.945138     -0.47383824     15.853528    
     98000   1.0408664      0.0022286781   1000000        0.0013895208   0.0020354429   0.0032610705   16.934605     -0.47956277     15.852937    
     99000   1.0353155     -0.00062655626  1000000        0.00069279598 -0.0016894551  -0.00088300964  16.926873     -0.48696669     15.860935    
    100000   1.0453137      0.0042307957   1000000        0.0031118792   0.0044955453   0.0050849625   16.92615      -0.49575836     15.854007    
Loop time of 80.4105 on 1 procs for 100000 steps with 22500 atoms

Performance: 10744.861 tau/day, 1243.618 timesteps/s, 27.981 Matom-step/s
99.4% CPU use with 1 MPI tasks x no OpenMP threads

MPI task timing breakdown:
Section |  min time  |  avg time  |  max time  |%varavg| %total
---------------------------------------------------------------
Pair    | 25.394     | 25.394     | 25.394     |   0.0 | 31.58
Bond    | 11.292     | 11.292     | 11.292     |   0.0 | 14.04
Neigh   | 0.59353    | 0.59353    | 0.59353    |   0.0 |  0.74
Comm    | 2.5793     | 2.5793     | 2.5793     |   0.0 |  3.21
Output  | 0.0076396  | 0.0076396  | 0.0076396  |   0.0 |  0.01
Modify  | 38.353     | 38.353     | 38.353     |   0.0 | 47.70
Other   |            | 2.192      |            |       |  2.73

Nlocal:          22500 ave       22500 max       22500 min
Histogram: 1 0 0 0 0 0 0 0 0 0
Nghost:          10522 ave       10522 max       10522 min
Histogram: 1 0 0 0 0 0 0 0 0 0
Neighs:         133881 ave      133881 max      133881 min
Histogram: 1 0 0 0 0 0 0 0 0 0

Total # of neighbors = 133881
Ave neighs/atom = 5.9502667
Ave special neighs/atom = 1.9537778
Neighbor list builds = 63
Dangerous builds = 0

# ====================================================================== #
# SET UP SIMULATION
# =================
timestep 0.0001
reset_timestep 0

# Write polymer and crosslinker coordinates from simulation to file:
# - Write every 2000 timesteps
# - Write atom ID, molecule ID, atom type, and atom coordinates
# - Sort lines by atom ID
dump 1 all custom 2000 tetrahedral_20p500c.lammpstrj id mol type xu yu zu vx vy vz
dump_modify 1 sort id

# Write polymer bonds and polymer/crosslinker bonds to file
compute 1 all property/local btype batom1 batom2
dump 2 all local 2000 tetrahedral_20p500c.bond index c_1[1] c_1[2] c_1[3]
dump_modify 2 sort 3

# ====================================================================== #
# DEFINE MOLECULE TEMPLATES
# =========================
molecule forward_unbonded unreacted.data_template
Read molecule template forward_unbonded:
  1 molecules
  0 fragments
  4 atoms with max type 3
  2 bonds with max type 2
  0 angles with max type 0
  0 dihedrals with max type 0
  0 impropers with max type 0
molecule forward_bonded reacted.data_template
Read molecule template forward_bonded:
  1 molecules
  0 fragments
  4 atoms with max type 3
  3 bonds with max type 3
  0 angles with max type 0
  0 dihedrals with max type 0
  0 impropers with max type 0
molecule reverse_bonded reacted.data_template
Read molecule template reverse_bonded:
  1 molecules
  0 fragments
  4 atoms with max type 3
  3 bonds with max type 3
  0 angles with max type 0
  0 dihedrals with max type 0
  0 impropers with max type 0
molecule reverse_unbonded unreacted.data_template
Read molecule template reverse_unbonded:
  1 molecules
  0 fragments
  4 atoms with max type 3
  2 bonds with max type 2
  0 angles with max type 0
  0 dihedrals with max type 0
  0 impropers with max type 0

# ====================================================================== #
# DEFINE POLYMER/CROSSLINKER BONDING REACTION
# ===========================================
# - Apply reaction site stabilization (apply nve/limit to reacting atoms
#   for fixed number of timesteps to disallow immediate participation in
#   further reactions)
# - Perform bonding reaction (rxn1) if reacting atoms are within distance
#   [0, 1.1] (1.0 = harmonic bond equilibrium length)
# - Perform unbonding reaction (rxn2) if reacting atoms are within distance
#   [0.9, 1.1] (1.0 = harmonic bond equilibrium length)
# - Set prob = 1.0 to ensure that the reaction proceeds if all constraints
#   (including the Arrhenius constraint) is satisfied
fix myrxns all bond/react stabilization yes statted_group 0.5     react rxn1 all 1 0.0 1.1 forward_unbonded forward_bonded forward_map prob 1.0 1234     react rxn2 all 1 0.9 1.1 reverse_bonded reverse_unbonded reverse_map prob 1.0 12345
dynamic group bond_react_MASTER_group defined
dynamic group statted_group_REACT defined

# ====================================================================== #
# SET UP ENSEMBLES
# ================
# - Apply NVT ensemble on unreacting atoms throughout the simulation
# - Apply Langevin dynamics on reacting atoms throughout the simulation
fix fx1 statted_group_REACT nvt temp $g $g 2.0
fix fx1 statted_group_REACT nvt temp 1 $g 2.0
fix fx1 statted_group_REACT nvt temp 1 1 2.0
fix fx2 bond_react_MASTER_group langevin $g $g 2.0 12345
fix fx2 bond_react_MASTER_group langevin 1 $g 2.0 12345
fix fx2 bond_react_MASTER_group langevin 1 1 2.0 12345

# ====================================================================== #
# RUN SIMULATION
# ==============
run 2000000

CITE-CITE-CITE-CITE-CITE-CITE-CITE-CITE-CITE-CITE-CITE-CITE-CITE

Your simulation uses code contributions which should be cited:

- fix bond/react: reacter.org doi:10.1016/j.polymer.2017.09.038, doi:10.1021/acs.macromol.0c02012

@Article{Gissinger17,
 author = {J. R. Gissinger and B. D. Jensen and K. E. Wise},
 title = {Modeling Chemical Reactions in Classical Molecular Dynamics Simulations},
 journal = {Polymer},
 year =    2017,
 volume =  128,
 pages =   {211--217}
}

@Article{Gissinger20,
 author = {J. R. Gissinger, B. D. Jensen, K. E. Wise},
 title = {{REACTER}: A Heuristic Method for Reactive Molecular Dynamics},
 journal = {Macromolecules},
 year =    2020,
 volume =  53,
 number =  22,
 pages =   {9953--9961}
}

CITE-CITE-CITE-CITE-CITE-CITE-CITE-CITE-CITE-CITE-CITE-CITE-CITE

Generated 0 of 3 mixed pair_coeff terms from geometric mixing rule
Neighbor list info ...
  update: every = 1 steps, delay = 1 steps, check = yes
  max neighbors/atom: 2000, page size: 100000
  master list distance cutoff = 6.4
  ghost atom cutoff = 6.4
  binsize = 3.2, bins = 32 32 32
  2 neighbor lists, perpetual/occasional/extra = 1 1 0
  (1) pair lj/cut, perpetual
      attributes: half, newton on
      pair build: half/bin/newton
      stencil: half/bin/3d
      bin: standard
  (2) fix bond/react, occasional, copy from (1)
      attributes: half, newton on
      pair build: copy
      stencil: none
      bin: none
Per MPI rank memory allocation (min/avg/max) = 17.9 | 17.9 | 17.9 Mbytes
   Step          Temp          Press          Volume          Pxx            Pyy            Pzz           TotEng         E_pair         E_bond    
         0   1.0453137      0.0042307957   1000000        0.0031118792   0.0044955453   0.0050849625   16.92615      -0.49575836     15.854007    
      1000   1.1931131      0.00092828997  1000000        0.0019662273   0.00044737907  0.00037126354  17.212757     -0.4973493      15.920516    
      2000   1.3107806     -0.00094648524  1000000       -0.0010178849   0.00032771156 -0.0021492824   17.443407     -0.50075491     15.978078    
      3000   1.4097787      0.0013051947   1000000        0.00079404148  0.0012683321   0.0018532104   17.646201     -0.49487038     16.026497    
      4000   1.4831715      0.001903889    1000000        0.0023451939   0.0029384341   0.00042803916  17.802861     -0.49523386     16.073437    
      5000   1.5541192      0.0012682388   1000000        0.00256404     0.0002190451   0.0010216313   17.946555     -0.49509176     16.110571    
      6000   1.6050004     -0.00081620418  1000000       -0.0027073469   0.0010115903  -0.00075285593  18.07119      -0.49441417     16.158211    
      7000   1.6635923      0.0037210152   1000000        0.00022925464  0.0062565956   0.0046771953   18.185407     -0.49306825     16.183197    
      8000   1.7081926      0.0026268864   1000000        0.0056005386   0.0013537836   0.00092633692  18.286504     -0.49434711     16.218676    
      9000   1.7351935      0.0021354192   1000000        0.0057642796   0.00052183441  0.00012014348  18.351269     -0.49601491     16.24461     
     10000   1.7687847     -0.0003912326   1000000       -0.0011570913  -0.00068220065  0.00066559417  18.420005     -0.49865518     16.265601    
     11000   1.7899048      0.0027307134   1000000       -0.00046170321  0.0031115201   0.0055423235   18.482697     -0.50052483     16.298484    
     12000   1.8079847      0.0041480499   1000000        0.0042426698   0.002325694    0.005875786    18.522492     -0.50579842     16.316434    
     13000   1.826396       0.0025033616   1000000        0.0025055395   0.0047049979   0.00029954755  18.560433     -0.50969599     16.330657    
     14000   1.8453188      0.0014322108   1000000       -0.00052406538  0.0024729002   0.0023477975   18.598169     -0.5065347      16.336849    
     15000   1.8595404      0.0010569646   1000000        0.00056431979 -0.00030079576  0.0029073699   18.626387     -0.51431859     16.351519    
     16000   1.8691933      0.00057897117  1000000        0.0021826086  -0.0011648821   0.000719187    18.654506     -0.51791327     16.368754    
     17000   1.8845385     -0.0034275335   1000000       -0.0041393986  -0.0022603333  -0.0038828687   18.677554     -0.52660671     16.377479    
     18000   1.8797315     -0.0014590964   1000000       -0.0014495117   0.00017377274 -0.0031015503   18.693379     -0.52919786     16.403105    
     19000   1.8907158      0.0016719627   1000000        0.00098404903  0.0016053308   0.0024265081   18.704834     -0.53253643     16.401422    
     20000   1.9036352      0.0042587592   1000000        0.004242991    0.0039459655   0.0045873211   18.7162       -0.54390851     16.404783    
     21000   1.9123142      0.0030703643   1000000        0.0042345124   0.0036429298   0.0013336507   18.719282     -0.54791254     16.398851    
     22000   1.9283271      0.0030027014   1000000        0.002570266    0.0036758922   0.0027619459   18.740326     -0.56530029     16.413265    
     23000   1.9324435      0.0044101458   1000000        0.003096664    0.0054695116   0.0046642617   18.737872     -0.56735075     16.406687    
     24000   1.9209709      0.0050001956   1000000        0.0048678753   0.0054914829   0.0046412286   18.736275     -0.56839155     16.423339    
     25000   1.9443569      0.0046850575   1000000        0.0053013985   0.0014983999   0.0072553743   18.750605     -0.57383304     16.408032    
     26000   1.933755       7.6310408e-05  1000000        0.0013539726  -0.00091261882 -0.00021242254  18.734681     -0.58774353     16.421921    
     27000   1.9338414      9.4971055e-05  1000000       -0.0021677869   0.0057091746  -0.0032564745   18.73831      -0.59186796     16.429545    
     28000   1.9308472      0.00051049563  1000000       -0.0013350193   0.0030459865  -0.00017948027  18.722159     -0.59645219     16.42247     
     29000   1.9241993      0.0045627042   1000000        0.0039595433   0.0069226171   0.0028059521   18.705257     -0.60250193     16.421588    
     30000   1.9229085      0.0018720561   1000000        0.0023935322   0.0027975273   0.00042510872  18.700757     -0.62055624     16.437078    
     31000   1.9156493     -0.0013518011   1000000       -0.0022590468   0.001245507   -0.0030418636   18.69265      -0.61900836     16.438312    
     32000   1.9212135      0.0017947156   1000000        0.00015484483  0.0041695662   0.0010597358   18.685569     -0.63720215     16.441079    
     33000   1.9311042      0.00335244     1000000        0.0043998434   0.0066260441  -0.00096856745  18.688338     -0.63995164     16.431763    
     34000   1.9361754      0.00082014394  1000000        0.00043071034  0.00076187663  0.0012678449   18.67575      -0.65790076     16.429517    
     35000   1.9202857     -0.00027129775  1000000       -0.0029682769   0.0014061823   0.00074820131  18.677628     -0.65712499     16.454452    
     36000   1.9272458      0.0021382096   1000000        0.0032131762  -0.0017557594   0.0049572121   18.675561     -0.65791144     16.442732    
     37000   1.938189       0.0019921887   1000000        0.0025967003   0.0011902509   0.0021896149   18.67774      -0.67082589     16.441411    
     38000   1.9559403      0.0036539134   1000000        0.0025034896   0.0049866539   0.0034715966   18.680433     -0.68213624     16.428789    
     39000   1.9407338     -0.00078206073  1000000       -0.0024422805   0.00041699054 -0.00032089221  18.6728       -0.6868555      16.448684    
     40000   1.9421387      0.0024377168   1000000        0.005065155    0.0018499549   0.00039804049  18.65692      -0.69941716     16.443258    
     41000   1.9474007      0.00025298865  1000000       -0.0004357079  -0.0011815834   0.0023762572   18.665847     -0.70275548     16.447631    
     42000   1.9596012      0.0017619046   1000000        0.0030224871   0.0016062292   0.0006569975   18.66873      -0.71426976     16.443729    
     43000   1.9529164     -0.00012902662  1000000        0.00045082014  0.00043438488 -0.0012722849   18.642929     -0.72781427     16.441499    
     44000   1.9575251      0.0031708009   1000000        0.0032773154   0.00090948188  0.0053256055   18.638993     -0.73649809     16.439334    
     45000   1.9514886     -0.0016210037   1000000       -0.0018643775  -0.001796272   -0.0012023616   18.636977     -0.7458597      16.455734    
     46000   1.9415483      0.001016296    1000000        0.0017757626   0.0029274813  -0.0016543561   18.615997     -0.74798648     16.45179     
     47000   1.9488451     -0.00019468021  1000000        0.0008661918  -0.00078714946 -0.00066308298  18.608291     -0.76320912     16.448363    
     48000   1.939481       0.00044689836  1000000       -0.003390716    0.0042183243   0.00051308672  18.588923     -0.76996678     16.449798    
     49000   1.939521      -0.00052705764  1000000       -0.0030016621  -7.4681066e-05  0.0014951702   18.583447     -0.77642112     16.450716    
     50000   1.9536787      0.0022014096   1000000        0.0027088202  -7.1441534e-05  0.0039668501   18.581755     -0.78945173     16.440819    
     51000   1.9292891      0.00077332021  1000000        0.00021880338  0.0014468036   0.00065435368  18.560104     -0.78909875     16.455398    
     52000   1.9450613      0.0015065145   1000000       -0.0030127312   0.0035960791   0.0039361954   18.561303     -0.80403099     16.447871    
     53000   1.9467214      0.00029082622  1000000       -0.00093516519  0.00094871624  0.0008589276   18.543364     -0.81157699     16.434989    
     54000   1.9271752     -0.0013215909   1000000       -0.0025335889  -0.0019750209   0.00054383707  18.52275      -0.81408289     16.446199    
     55000   1.9376847      0.0028817909   1000000        0.0012460028   0.0071446453   0.00025472456  18.512598     -0.83316223     16.439363    
     56000   1.9338595      0.0024698225   1000000        0.0051733846   0.0014681333   0.00076794946  18.508988     -0.8365434      16.444871    
     57000   1.9466843      0.0027577209   1000000        0.0022224185   0.0014695622   0.0045811821   18.502033     -0.84739077     16.429527    
     58000   1.9431279      0.0028657293   1000000        0.0039560491   0.0038308984   0.00081024057  18.4784       -0.86302661     16.426865    
     59000   1.939848      -2.7272594e-05  1000000        0.0002592154   5.7595266e-06 -0.00034679271  18.467127     -0.87353501     16.43102     
     60000   1.9323427     -0.00079241999  1000000       -0.0030878951  -0.002652241    0.0033628761   18.452961     -0.87221914     16.426795    
     61000   1.9221989     -0.0019141656   1000000        0.00011118761 -0.0064670163   0.00061333187  18.436864     -0.8822866      16.43598     
     62000   1.9298295      0.001419199    1000000        0.0017765765   0.0018156119   0.00066540878  18.443557     -0.89762955     16.446571    
     63000   1.9288143      3.0753093e-05  1000000       -0.0027199446   0.0027981986   1.4005311e-05  18.430412     -0.9125445      16.449864    
     64000   1.9371904      0.0022380267   1000000        0.0018251223   0.0023197733   0.0025691845   18.436082     -0.916325       16.44675     
     65000   1.9407655      0.001741384    1000000       -0.0010432383   0.0027256504   0.0035417399   18.42553      -0.93444118     16.448952    
     66000   1.9291146     -0.0034055068   1000000       -0.005373227   -0.0027698975  -0.0020733959   18.403862     -0.94904682     16.459366    
     67000   1.941039       0.00099693885  1000000        0.00072326478  0.0020237288   0.00024382298  18.402108     -0.94973645     16.440416    
     68000   1.9427723     -0.0010226621   1000000        0.0012975912  -0.0036508862  -0.00071469139  18.405868     -0.9534504      16.44529     
     69000   1.9424696      0.0018948032   1000000       -0.00074766701  0.0049644091   0.0014676676   18.392481     -0.95700493     16.435911    
     70000   1.9273711     -0.0015410748   1000000       -0.0027362426  -0.0014786545  -0.00040832739  18.383016     -0.96146988     16.453558    
     71000   1.9434636      0.00026564158  1000000        0.00010250236 -0.00039568005  0.0010901024   18.381443     -0.98436249     16.45074     
     72000   1.9442917      0.0026672623   1000000        0.0037142308   0.0043526679  -6.5111785e-05  18.367347     -0.98629328     16.437333    
     73000   1.9267761      0.0014152912   1000000        0.0020250882   0.0027802572  -0.00055947181  18.344187     -0.98654642     16.440698    
     74000   1.9277452      8.2605857e-05  1000000       -0.0010980953   0.00051168191  0.00083423099  18.332289     -0.98975851     16.430558    
     75000   1.9368849      0.00097970766  1000000       -0.0005273727   0.0012414347   0.002225061    18.324222     -1.0007249      16.419749    
     76000   1.9551934     -0.0019148649   1000000       -0.00024735013 -0.0033315568  -0.0021656877   18.335863     -1.0111564      16.414359    
     77000   1.9385294      0.00089351318  1000000        0.0035330643  -0.0021342553   0.0012817306   18.312815     -1.0175802      16.42273     
     78000   1.9222842      0.0010597043   1000000        0.0015761476   0.0010325983   0.00057036711  18.296517     -1.0116904      16.42491     
     79000   1.9289231      0.00082274842  1000000        0.0027988655  -0.0013820202   0.0010514      18.274508     -1.0222855      16.403538    
     80000   1.9280095     -0.00079718661  1000000        0.00096720282 -0.002322884   -0.0010358786   18.26674      -1.0428125      16.417667    
     81000   1.9221134      0.0020964357   1000000        0.0033241187   0.00026648773  0.0026987005   18.271516     -1.0449536      16.433427    
     82000   1.9069867     -0.00032735671  1000000       -0.00094442414 -0.0015739883   0.0015363423   18.241672     -1.0496444      16.430963    
     83000   1.9132899     -0.0013448443   1000000       -8.4200959e-05 -0.0011644762  -0.0027858556   18.229537     -1.0573819      16.417111    
     84000   1.9182997      0.0016896412   1000000        0.0021656148   0.0013434556   0.0015598534   18.237878     -1.0536139      16.41417     
     85000   1.9206673     -0.00025187574  1000000        0.0018507252  -0.0027114015   0.00010504913  18.240308     -1.0617827      16.421218    
     86000   1.9267397     -0.0019790352   1000000        0.0014620782  -0.0022102079  -0.0051889761   18.244391     -1.0700448      16.424455    
     87000   1.9174522     -0.00047683649  1000000       -0.0006194014   0.00028038574 -0.0010914938   18.234026     -1.0697076      16.427683    
     88000   1.9276391     -0.0023786972   1000000       -0.00087913797 -0.003026553   -0.0032304006   18.245104     -1.0879456      16.441719    
     89000   1.939387       0.0010784926   1000000        0.005742389   -0.00073440408 -0.0017725072   18.246191     -1.0843302      16.42157     
     90000   1.9468923     -0.00044106073  1000000        0.00094398446  0.00041904665 -0.0026862133   18.25506      -1.099204       16.434055    
     91000   1.9518935     -0.001701852    1000000        0.00022128098 -0.0048471409  -0.00047969612  18.24875      -1.1000107      16.42105     
     92000   1.9326216      0.0018512177   1000000        0.0002411606   0.0064631907  -0.0011506984   18.211082     -1.0918095      16.404087    
     93000   1.9272061      0.00027425746  1000000        0.0010972957   0.0015136844  -0.0017882077   18.188968     -1.1110809      16.409368    
     94000   1.9217978      0.001299905    1000000        0.0032639763   0.00053792519  9.7813412e-05  18.171515     -1.1249241      16.413871    
     95000   1.9187691     -0.0031871326   1000000       -0.0021402813  -0.007029725   -0.00039139159  18.165421     -1.1317797      16.419175    
     96000   1.9250458      0.00011279081  1000000        0.00030134916  0.0034084359  -0.0033714126   18.154784     -1.1434457      16.41079     
     97000   1.9244676      0.0042131946   1000000        0.0078238713   0.0030583883   0.0017573243   18.141298     -1.146497       16.401222    
     98000   1.9226688     -0.00066251489  1000000       -0.00026999875  0.0015246345  -0.0032421804   18.135623     -1.1619521      16.4137      
     99000   1.9247703     -0.0031679409   1000000       -0.006694705   -0.0021847353  -0.00062438253  18.144212     -1.167016       16.424201    
    100000   1.9302316     -0.0026005374   1000000       -0.0044385051  -0.00088467798 -0.002478429    18.129544     -1.1778986      16.412224    
    101000   1.9285106     -0.0025287837   1000000       -0.003299711    0.00032003582 -0.0046066757   18.122029     -1.1798178      16.409209    
    102000   1.9239451     -0.0049100188   1000000       -0.0048023892  -0.0057801623  -0.004147505    18.112621     -1.1883981      16.415229    
    103000   1.9045963     -0.0025366419   1000000       -0.0020697391  -0.0027617156  -0.0027784708   18.094617     -1.1871364      16.424986    
    104000   1.9097101      2.9975674e-06  1000000       -0.0010335937   0.00061836994  0.00042421651  18.084256     -1.1906299      16.410448    
    105000   1.9059595     -0.00042867865  1000000       -9.8717683e-05 -0.00020367747 -0.00098364081  18.080102     -1.1994694      16.420759    
    106000   1.9201416     -0.00095207068  1000000        0.0021201593  -0.0033292999  -0.0016470715   18.094393     -1.2129048      16.427213    
    107000   1.9167748      0.0021957262   1000000        0.0034203863   0.0023400526   0.00082673979  18.077873     -1.2091629      16.412001    
    108000   1.9233827      0.00025141367  1000000        0.0035342519   0.00050043917 -0.00328045     18.076666     -1.2174369      16.409157    
    109000   1.9266606     -0.0016897523   1000000        1.9156728e-05 -0.0034923686  -0.001596045    18.072284     -1.2225555      16.404977    
    110000   1.9123297      0.00019704759  1000000       -0.0025919232  -0.0014219961   0.0046050621   18.059988     -1.2196286      16.41125     
    111000   1.9272832      0.00022912925  1000000        0.0017343269  -0.0043014014   0.0032544623   18.063205     -1.2285045      16.400913    
    112000   1.932855       0.00063440379  1000000        0.0035271737  -0.00018554483 -0.0014384175   18.062069     -1.242216       16.405131    
    113000   1.9370157      0.0016013819   1000000        0.00049759549  0.004519306   -0.00021275589  18.04345      -1.2570774      16.395134    
    114000   1.9267697     -0.00077033403  1000000       -0.0018814756   0.003768436   -0.0041979625   18.02158      -1.2645214      16.396075    
    115000   1.9308377     -0.00044236578  1000000       -8.1570335e-05  0.00056510322 -0.0018106302   18.028459     -1.2758828      16.408214    
    116000   1.9219607     -0.0015194861   1000000       -0.0010356054  -0.0046369297   0.0011140769   18.008802     -1.2836213      16.409611    
    117000   1.9252417      0.001507213    1000000        0.0022187824   0.0013275854   0.00097527123  18.011435     -1.2902926      16.413993    
    118000   1.9253132      0.00023311926  1000000        0.0011166367  -0.0014612664   0.0010439875   17.991919     -1.2978472      16.401925    
    119000   1.9080593      0.0022722294   1000000        0.0065166477  -0.00092697789  0.0012270185   17.970357     -1.3065229      16.414919    
    120000   1.9123597      0.0014399012   1000000        0.0010598984   0.00042515849  0.0028346466   17.961929     -1.3203473      16.413864    
    121000   1.8994056      0.00026124292  1000000        0.00013027005  0.00051372239  0.00013973632  17.958541     -1.3172496      16.426809    
    122000   1.9045221      0.00026377327  1000000        0.00045481567 -0.0011291069   0.0014656111   17.969074     -1.306603       16.419021    
    123000   1.9056874      0.002571046    1000000        0.0036544866   0.00013851441  0.003920137    17.974753     -1.3135982      16.429947    
    124000   1.9104425     -0.0017965725   1000000       -0.00099980887 -0.0037138349  -0.00067607368  17.970903     -1.3175802      16.422946    
    125000   1.9236098      0.0019930255   1000000        0.00054793357  0.0011841382   0.0042470047   17.975522     -1.321648       16.411883    
    126000   1.9108755      0.0055148154   1000000        0.0056152135   0.0045681773   0.0063610555   17.954806     -1.3329796      16.4216      
    127000   1.9231818     -0.00077045901  1000000       -0.00037863524  0.0013837174  -0.0033164592   17.949008     -1.3581564      16.42252     
    128000   1.9185391      0.002377447    1000000        0.0022878759   0.0037195615   0.0011249035   17.937319     -1.3549206      16.414559    
    129000   1.9228819     -0.0024290942   1000000        0.0010566397  -0.0033360507  -0.0050078716   17.92531      -1.36699        16.408105    
    130000   1.9064404     -0.0024458654   1000000       -0.0026016301  -0.0028932127  -0.0018427534   17.923825     -1.3634565      16.427748    
    131000   1.9289033     -0.00048569189  1000000       -0.0026060426   0.00026148719  0.00088747976  17.916811     -1.3838484      16.407433    
    132000   1.9085989      0.00071260218  1000000       -0.0030016552   0.0025950146   0.0025444472   17.89816      -1.3770805      16.41247     
    133000   1.9117941     -0.0006999158   1000000        0.0031778564  -0.0026631461  -0.0026144577   17.898648     -1.3948086      16.425893    
    134000   1.9151871     -0.00065466018  1000000       -0.0014965484  -0.0025070033   0.0020395712   17.892247     -1.3933404      16.412934    
    135000   1.9106023     -0.0044751447   1000000       -0.0056880671  -0.0052124862  -0.0025248809   17.888244     -1.4007852      16.423253    
    136000   1.9300192      0.0015316361   1000000        0.00043534352  0.0022833844   0.0018761804   17.886156     -1.406945       16.398201    
    137000   1.931502      -0.0010347454   1000000       -0.0022897812   0.00041468607 -0.0012291412   17.894173     -1.4107683      16.407817    
    138000   1.9149666      0.0019431468   1000000        0.0012246575   0.00017363858  0.0044311444   17.881572     -1.415343       16.424593    
    139000   1.9339162      0.0012663687   1000000        0.0023870781   0.00021144628  0.0012005818   17.876662     -1.4338843      16.409801    
    140000   1.9265029      0.0035945068   1000000        7.5229306e-05  0.0084404259   0.0022678652   17.859207     -1.4369669      16.406548    
    141000   1.9291491      0.0027005311   1000000        0.0053528309  -0.00047335456  0.0032221168   17.861876     -1.4432192      16.4115      
    142000   1.9136544      0.0023022393   1000000        0.0037583056   0.0022824905   0.00086592166  17.841667     -1.4417846      16.413097    
    143000   1.9279874     -0.001921926    1000000       -0.00042161644 -0.0053646609   2.0499378e-05  17.842089     -1.4483573      16.398594    
    144000   1.9143769      0.00037880774  1000000       -0.00068186223 -0.00020781145  0.0020260969   17.828517     -1.4577393      16.414819    
    145000   1.926201      -0.0017293025   1000000       -0.002168064   -0.00086709066 -0.0021527528   17.814142     -1.4750755      16.400044    
    146000   1.9121755     -0.00053195967  1000000       -1.8907072e-05 -0.0017921137   0.00021514171  17.799521     -1.4722059      16.403592    
    147000   1.9091161      0.0012360551   1000000        0.00017820387  0.0044200803  -0.00089011892  17.806232     -1.4837988      16.426484    
    148000   1.9195717     -9.8952109e-05  1000000       -0.0010766432   7.0039531e-05  0.00070974738  17.793224     -1.5071678      16.421163    
    149000   1.9101993      0.00010179101  1000000        0.00067376747 -0.00048808394  0.00011968951  17.78473      -1.5181581      16.437717    
    150000   1.9147215     -0.0015922319   1000000       -0.0019109916  -0.0021944637  -0.00067124034  17.761155     -1.5145288      16.403729    
    151000   1.9109304     -0.001432698    1000000        0.0016521815  -0.0056267669  -0.00032350865  17.770582     -1.5075812      16.411895    
    152000   1.9112898     -0.0015828196   1000000       -0.0020156559  -0.0028297981   9.6995275e-05  17.756126     -1.529104       16.418423    
    153000   1.9239757      0.0018785563   1000000        0.0036700342   0.0018594341   0.00010620055  17.755166     -1.5269878      16.396318    
    154000   1.9055787     -0.0026956125   1000000       -0.00055480628 -0.0038890052  -0.0036430261   17.746485     -1.5169786      16.405223    
    155000   1.8985698     -0.00097939156  1000000        0.0014220475  -0.0012846611  -0.0030755611   17.732637     -1.5326097      16.417519    
    156000   1.8975175      0.0017497893   1000000        0.0019893417  -0.00083977064  0.004099797    17.724626     -1.5274572      16.405933    
    157000   1.901675       0.00061542205  1000000        0.0039772386  -0.0036042537   0.0014732812   17.730685     -1.5390282      16.417327    
    158000   1.9012981     -0.00060195109  1000000       -0.0017206354   0.0013717176  -0.0014569355   17.726777     -1.5440522      16.419009    
    159000   1.9134632      0.0032486281   1000000        0.0055178609   0.0028953054   0.001332718    17.706483     -1.5544548      16.39087     
    160000   1.8971679      0.00069037713  1000000       -0.00039727267  0.0038104342  -0.0013420302   17.693184     -1.5497452      16.397304    
    161000   1.8905254      0.0011339703   1000000        0.0031045995  -0.00050586128  0.00080317271  17.678774     -1.5616507      16.404763    
    162000   1.8920703     -0.00034317836  1000000        0.0029221897  -0.0022118463  -0.0017398785   17.658568     -1.5705706      16.391159    
    163000   1.8916559     -0.0016506722   1000000       -0.0026804214  -0.0023117461   4.0150773e-05  17.663242     -1.5830551      16.40894     
    164000   1.8939681      0.00051046187  1000000       -0.0016288697   0.0016720961   0.0014881592   17.6433       -1.588463       16.390937    
    165000   1.8915194      0.0018096781   1000000       -0.00065290728  0.0050029697   0.0010789719   17.625825     -1.5965259      16.385198    
    166000   1.8876103      0.00034262528  1000000       -1.2899527e-05  0.00029643183  0.00074434354  17.615423     -1.6008896      16.385023    
    167000   1.8936884      0.00071122078  1000000       -0.0002055146  -5.0267726e-05  0.0023894447   17.620191     -1.6108958      16.390681    
    168000   1.8900733     -0.0017930837   1000000        0.0014904786  -0.0044133705  -0.0024563594   17.603125     -1.6156456      16.383786    
    169000   1.8883674     -0.0046091571   1000000        0.00034225401 -0.0050610645  -0.0091086608   17.5993       -1.6175097      16.384384    
    170000   1.9005212      0.0034572975   1000000        0.0072393873   0.00091576556  0.0022167396   17.599613     -1.6303715      16.37933     
    171000   1.8989823     -0.0013631761   1000000       -0.0011074696  -0.00089356677 -0.0020884918   17.604459     -1.6435231      16.399635    
    172000   1.8990186     -0.0028768634   1000000       -0.0051896518  -0.0027567083  -0.00068423006  17.616759     -1.6368873      16.405245    
    173000   1.8957728     -0.0012961144   1000000       -0.00080422808  9.3874223e-05 -0.0031779894   17.59576      -1.640344       16.392571    
    174000   1.8869931     -0.00024152473  1000000       -0.00025936181  0.0013089436  -0.001774156    17.589389     -1.6444284      16.403453    
    175000   1.9045642     -0.0010370637   1000000       -0.0017180493   0.0018883995  -0.0032815412   17.588684     -1.6562631      16.388228    
    176000   1.9039733      0.0017919441   1000000        0.0016367408   0.0040800895  -0.00034099786  17.580402     -1.6573341      16.381903    
    177000   1.8913354     -0.0015228847   1000000       -0.00087780094 -0.0027224603  -0.00096839296  17.562431     -1.6673069      16.392861    
    178000   1.8977242      0.0042776432   1000000        0.0030118973   0.0038286497   0.0059923827   17.567051     -1.6686665      16.389258    
    179000   1.9023165     -0.0014241267   1000000       -0.0037578843   0.0004374902  -0.00095198606  17.556631     -1.6783758      16.381659    
    180000   1.9054529      0.00094927667  1000000       -5.2092928e-05  0.00098550109  0.0019144219   17.561501     -1.6745377      16.377986    
    181000   1.9019874      0.0012744744   1000000        0.0035573446   0.0013552689  -0.0010891903   17.556899     -1.6856497      16.389695    
    182000   1.8945895     -0.00011604625  1000000       -0.00066083282  0.0010933997  -0.00078070565  17.558179     -1.6821063      16.398527    
    183000   1.8977469      0.0016603958   1000000       -0.00084586997  0.0020489296   0.0037781276   17.562209     -1.6860371      16.401752    
    184000   1.9112367      0.0023474516   1000000        0.0025486964  -0.00031388228  0.0048075405   17.553396     -1.7018389      16.388508    
    185000   1.9130862      0.00011123087  1000000       -0.00020354805  0.00039746321  0.00013977746  17.554457     -1.7055473      16.390502    
    186000   1.9088069      0.001363494    1000000        0.0024253606  -0.0014259847   0.0030911062   17.550655     -1.7110181      16.39859     
    187000   1.8961658      0.00084976841  1000000       -0.00050452432  0.0015179643   0.0015358653   17.522437     -1.7199763      16.398291    
    188000   1.8993573     -0.0019181387   1000000       -0.0028652267  -0.0046918297   0.0018026405   17.512884     -1.7252528      16.389228    
    189000   1.8951743      0.002097693    1000000        0.0034187889   0.0038812451  -0.0010069551   17.50195      -1.7236557      16.38297     
    190000   1.8940199      0.0014981509   1000000       -0.0017810888   0.0041094134   0.0021661282   17.492584     -1.7238773      16.375557    
    191000   1.9008827      0.0011515237   1000000        0.00018847084 -0.00031241965  0.0035785198   17.496446     -1.7281724      16.373421    
    192000   1.8929277     -9.3994325e-05  1000000       -0.0013191895   0.0010423246  -5.1180426e-06  17.48596      -1.7374482      16.384143    
    193000   1.8922602     -0.0029561601   1000000       -0.0022450924  -0.0048430235  -0.0017803643   17.475903     -1.7422154      16.379854    
    194000   1.8986454     -0.0041904097   1000000       -0.0043620705  -0.0075100663  -0.00069909229  17.48132      -1.7624317      16.39591     
    195000   1.9076728     -0.0015481536   1000000       -0.0042787483  -0.0011325319   0.00076681942  17.49426      -1.7640722      16.396951    
    196000   1.909376      -6.9426837e-05  1000000        0.0022612924  -0.0022065436  -0.00026302933  17.482687     -1.7681681      16.386919    
    197000   1.9021522     -0.0010081091   1000000        0.00081151241 -0.0013875076  -0.0024483322   17.480972     -1.7724798      16.40035     
    198000   1.9030292     -0.0017173392   1000000       -0.0029147555  -0.0024868268   0.00024956485  17.474235     -1.7799729      16.399791    
    199000   1.9091001     -0.00061003333  1000000       -0.00082311326  0.0009835374  -0.0019905241   17.458356     -1.7991075      16.393941    
    200000   1.9093942     -0.0010616895   1000000       -0.00066351816 -6.7119322e-05 -0.0024544311   17.467964     -1.7942897      16.39829     
    201000   1.8978689      0.00087253062  1000000        0.0015874684  -0.0016843292   0.0027144527   17.448068     -1.7961533      16.397545    
    202000   1.9013578      0.00070480199  1000000       -0.00410091     0.0046651193   0.0015501967   17.431456     -1.8029561      16.382502    
    203000   1.8888895     -0.0001941074   1000000        0.00034208483 -0.00062352726 -0.00030087977  17.425275     -1.8050998      16.397166    
    204000   1.8991439     -0.0009165317   1000000        0.00059497286 -0.0027638798  -0.00058068815  17.427521     -1.8093663      16.388298    
    205000   1.8922107     -0.0014368359   1000000       -0.00055824232 -0.0038685884   0.00011632311  17.424702     -1.8047405      16.391252    
    206000   1.9041607     -0.0041180285   1000000       -0.0046231877  -0.0056849439  -0.0020459539   17.433519     -1.8149418      16.392347    
    207000   1.9023785      0.0027686632   1000000       -0.0006930962   0.0057581943   0.0032408915   17.420457     -1.8110806      16.378097    
    208000   1.8988083      0.0026022356   1000000        0.0021846246   0.0045440666   0.0010780157   17.426498     -1.81381        16.392222    
    209000   1.9041688      0.001511523    1000000        0.0010751157   0.0016282763   0.0018311771   17.42577      -1.811103       16.380747    
    210000   1.8935149     -0.0030020407   1000000       -0.0047794392  -0.0012366009  -0.002990082    17.41548      -1.8165035      16.391838    
    211000   1.8914234      0.00019210767  1000000        0.00076875143  0.0015398258  -0.0017322542   17.40901      -1.8226128      16.394614    
    212000   1.8917149      0.0020676054   1000000        0.0042617065   0.0010561801   0.00088492979  17.404834     -1.8259142      16.393301    
    213000   1.8938062     -0.00099688241  1000000       -0.0016227506  -0.00030847296 -0.0010594237   17.400403     -1.8305027      16.390323    
    214000   1.8954764     -0.00052258848  1000000        0.0029852397  -0.0021885228  -0.0023644824   17.392212     -1.8387215      16.387846    
    215000   1.8882596     -0.0021820328   1000000        0.0033077695  -0.00027010414 -0.0095837637   17.379381     -1.8284231      16.375541    
    216000   1.8861347      0.0026924131   1000000        0.0032663548   0.0028391925   0.0019716919   17.375121     -1.8355574      16.381602    
    217000   1.9024605      0.0029556006   1000000        0.0053156629   0.0011985754   0.0023525634   17.387299     -1.8448384      16.378573    
    218000   1.9046135     -0.0045308208   1000000       -0.0023906323  -0.007533665   -0.003668165    17.403942     -1.8435444      16.390693    
    219000   1.8849297      0.000740003    1000000       -0.0020525996   0.0051345808  -0.00086197225  17.370893     -1.8660839      16.409708    
    220000   1.8907479     -0.0015422103   1000000        0.0022330541  -0.0026236403  -0.0042360448   17.351245     -1.8798059      16.395055    
    221000   1.8995961      0.00055285792  1000000        0.0008318122   0.00049294918  0.00033381239  17.344416     -1.8928279      16.387977    
    222000   1.8933739     -0.0044004235   1000000       -0.0065399435  -0.0020018691  -0.0046594578   17.332473     -1.8975868      16.390125    
    223000   1.8947803      0.00038182539  1000000       -0.00014145008  0.0022703475  -0.00098342127  17.324204     -1.8964643      16.378624    
    224000   1.8925605      0.0012454609   1000000       -0.0022061001   0.0034295185   0.0025129644   17.328674     -1.9001243      16.390084    
    225000   1.8934916     -0.00075111809  1000000       -0.00095233581  5.7681928e-05 -0.0013587004   17.335573     -1.9120519      16.407514    
    226000   1.9044399      0.0012793176   1000000        0.00079129861  0.0023939207   0.00065273359  17.333163     -1.9233816      16.400012    
    227000   1.9061787     -0.00078791377  1000000       -0.0016436483   0.00075079854 -0.0014708915   17.328361     -1.9257075      16.394927    
    228000   1.8967102      0.0010098489   1000000        0.0047443346   0.00067267684 -0.0023874646   17.324169     -1.9176419      16.396872    
    229000   1.8841041      0.0017420261   1000000        1.806408e-06   0.0038796942   0.0013445778   17.311257     -1.9210156      16.406242    
    230000   1.8953045     -0.0023740649   1000000       -0.0040574338  -0.0026173356  -0.00044742531  17.304406     -1.9368304      16.398406    
    231000   1.8902339     -0.0018386675   1000000       -0.0038790735  -0.0019298747   0.0002929456   17.299814     -1.9339385      16.398527    
    232000   1.879044       0.0016452623   1000000        0.00037662098  0.0025242461   0.0020349197   17.286858     -1.9300349      16.398453    
    233000   1.8879984     -0.0028444967   1000000       -0.0012696654  -0.0051219842  -0.0021418405   17.291589     -1.9265857      16.386303    
    234000   1.8784903     -0.00081898662  1000000       -0.00054301008  0.00021305507 -0.0021270049   17.28071      -1.9228969      16.385996    
    235000   1.8825946     -0.0010778786   1000000       -0.0013531812  -0.0014683628  -0.00041209189  17.282677     -1.9306528      16.389564    
    236000   1.8963384     -0.0012422107   1000000       -0.0039082747  -0.00017187047  0.00035351312  17.284627     -1.9494884      16.389735    
    237000   1.884879      -0.0009515974   1000000       -0.0024423368   0.00013667576 -0.00054913113  17.272061     -1.9493204      16.394189    
    238000   1.9002983     -0.00040589323  1000000       -0.00093569188 -0.0020232793   0.0017412915   17.276337     -1.9536282      16.379644    
    239000   1.8950938      0.0021506549   1000000        0.0015209834   0.0026559553   0.002275026    17.256299     -1.9654588      16.379244    
    240000   1.8777358      0.0003851862   1000000        0.0039058597   0.0013797092  -0.0041300103   17.232388     -1.9702554      16.386165    
    241000   1.8859513      0.0016091844   1000000        0.0014924713   0.00018042764  0.0031546541   17.245718     -1.9709459      16.387862    
    242000   1.8827081      0.0011394402   1000000        0.00091972179  0.0018666046   0.00063199412  17.23758      -1.9798229      16.393466    
    243000   1.8957962     -0.00026441066  1000000        0.00032789077 -0.00074326012 -0.00037786262  17.246984     -1.9802601      16.383676    
    244000   1.8855946     -0.00052536126  1000000        0.00035299581 -0.001166933   -0.00076214661  17.239524     -1.989369       16.400627    
    245000   1.8928009     -0.00015851161  1000000        0.00023834919  0.00027578258 -0.0009896666   17.232431     -1.9928561      16.386212    
    246000   1.8870266     -0.0018828403   1000000       -0.004428759   -0.001862724    0.00064296202  17.230195     -1.982862       16.382643    
    247000   1.8932958     -0.0012429548   1000000       -0.003408686   -1.3359905e-05 -0.00030681855  17.226163     -1.9979668      16.384312    
    248000   1.8829584      0.0039415138   1000000        0.0057173712   0.0037901847   0.0023169854   17.204642     -1.995573       16.375903    
    249000   1.888245       0.0016783287   1000000        0.00029490783  0.0042452423   0.00049483612  17.209318     -1.9921485      16.369225    
    250000   1.8926196     -0.00049464221  1000000       -0.0013026188  -0.00044227638  0.00026096848  17.21652      -2.0037449      16.381462    
    251000   1.8942509     -0.0015718419   1000000        0.0016821102  -0.0060563021  -0.00034133381  17.221017     -2.0110927      16.390859    
    252000   1.8991922      0.0034775869   1000000        0.0043721583   0.0030879862   0.002972616    17.208259     -2.0054647      16.365062    
    253000   1.8902923      0.0020545458   1000000        0.00080359572  0.0026773201   0.0026827214   17.20584      -2.0079318      16.378459    
    254000   1.8956163     -0.00095210631  1000000       -0.0032662483  -0.0023831766   0.002793106    17.204344     -2.010476       16.371522    
    255000   1.8833887      0.0017344668   1000000        0.0038971458  -0.00025545884  0.0015617135   17.1933       -2.0079404      16.376282    
    256000   1.8840406      0.0006804047   1000000        0.00054320804 -0.00013171284  0.0016297189   17.176303     -2.0140133      16.364381    
    257000   1.882783      -0.0019489837   1000000       -0.0013821298  -0.00055872381 -0.0039060975   17.174215     -2.0232081      16.373374    
    258000   1.8826563     -0.0033211983   1000000       -0.00084764298 -0.0095886339   0.000472682    17.16618      -2.0270062      16.369327    
    259000   1.8805211     -0.001834023    1000000        0.0010650614  -0.0027922849  -0.0037748456   17.164767     -2.0311671      16.375278    
    260000   1.8831537      0.00093421875  1000000        0.0034054115  -0.00082824911  0.00022549383  17.182353     -2.0392793      16.397028    
    261000   1.8784264      0.0016145058   1000000        0.002753182    0.0060631541  -0.0039728188   17.174443     -2.0441389      16.401067    
    262000   1.9009796     -0.0033179736   1000000       -0.0018188803  -0.0013638245  -0.0067712159   17.178722     -2.0463603      16.37374     
    263000   1.8834562      0.0015492442   1000000        0.0011708095  -0.0020861894   0.0055631126   17.164391     -2.0475354      16.386868    
    264000   1.8857622      0.0021747037   1000000        0.0035867085  -0.0011613505   0.0040987531   17.158432     -2.0419662      16.37188     
    265000   1.8809758      0.0025448222   1000000        0.0013361469   0.0070495495  -0.00075122983  17.151843     -2.0454191      16.375924    
    266000   1.8794382     -0.0017410439   1000000       -0.0037480755  -0.00096410908 -0.00051094702  17.149073     -2.0624219      16.392463    
    267000   1.8861703      0.001863364    1000000        0.0010937081   0.0028427466   0.0016536372   17.144236     -2.066088       16.381194    
    268000   1.8832018     -0.00013824513  1000000       -0.00021737893  0.00068599363 -0.00088335007  17.137685     -2.0729545      16.385962    
    269000   1.8824077     -0.0012699346   1000000       -0.0046707107  -0.00041014231  0.0012710492   17.139698     -2.0668129      16.383025    
    270000   1.8960723     -0.00039858575  1000000        0.00067778277  0.0007791987  -0.0026527387   17.148941     -2.0748407      16.3798      
    271000   1.8954948     -0.0017751779   1000000       -0.0015487437  -0.0020388533  -0.0017379366   17.152964     -2.0784544      16.388303    
    272000   1.9122505     -0.0020352766   1000000        0.0007537591  -0.0052752045  -0.0015843846   17.159706     -2.0791817      16.37064     
    273000   1.8984492     -7.9157857e-05  1000000        0.0016406174   0.00010591835 -0.0019840094   17.141414     -2.0824076      16.376275    
    274000   1.8929488     -0.003950489    1000000        0.00012872469 -0.0042935461  -0.0076866455   17.133271     -2.0907288      16.384703    
    275000   1.8930108      0.00028883169  1000000       -0.0010369876   0.00025118403  0.0016522986   17.110078     -2.0940813      16.36477     
    276000   1.8785174      0.0011594211   1000000       -0.0023238708   0.0039564188   0.0018457154   17.095213     -2.0991807      16.376743    
    277000   1.8867618     -0.0031696526   1000000       -0.0030000815  -0.0054117787  -0.0010970977   17.083054     -2.1214695      16.374507    
    278000   1.8820991     -0.00066946531  1000000       -0.00089850185  4.8400339e-05 -0.0011582944   17.076827     -2.1228514      16.376655    
    279000   1.8767836     -0.0033857823   1000000       -0.0039608253  -0.0034518108  -0.0027447109   17.072175     -2.1227592      16.379884    
    280000   1.8768219      0.00047471414  1000000        0.0017020635  -0.0017741254   0.0014962043   17.054924     -2.143712       16.383528    
    281000   1.8665473     -0.004116573    1000000       -0.0073235692  -0.0041782209  -0.00084792909  17.046049     -2.1386741      16.385026    
    282000   1.8791073      0.00089661312  1000000        0.0014690441   0.0015681504  -0.00034735516  17.042057     -2.1395321      16.363053    
    283000   1.8706689     -0.00081141409  1000000       -0.00024868413 -0.0017695114  -0.00041604676  17.03702      -2.1449651      16.376106    
    284000   1.8684432     -0.0011400451   1000000        0.00097089365 -0.0036838854  -0.00070714337  17.024408     -2.1420747      16.363942    
    285000   1.8632915     -0.00068540343  1000000        4.5031145e-06 -0.0030170656   0.00095635221  17.02493      -2.1458307      16.375948    
    286000   1.8743069     -0.0043720387   1000000       -0.0033510854  -0.0076755646  -0.002089466    17.028624     -2.1487738      16.366062    
    287000   1.8775251     -0.00042107354  1000000        0.00076657452 -0.0020885003   5.870519e-05   17.043094     -2.1455605      16.372492    
    288000   1.8824355      0.00036301244  1000000        0.0028041922  -0.00080592846 -0.00090922636  17.043402     -2.1550008      16.374875    
    289000   1.8701553     -0.00072801176  1000000       -0.0012009523   0.000424934   -0.001408017    17.02052      -2.1536326      16.369044    
    290000   1.8723275     -0.006328039    1000000       -0.0071506227  -0.0067807859  -0.0050527083   17.021375     -2.156453       16.369461    
    291000   1.8799164     -0.0030200662   1000000       -0.0035070319  -0.0041410865  -0.0014120804   17.034257     -2.1560135      16.370521    
    292000   1.8776935      0.002068258    1000000        0.0045550561  -0.00078833543  0.0024380532   17.024084     -2.1640443      16.371713    
    293000   1.8741227     -0.0011456058   1000000       -0.0024032486   0.0038182626  -0.0048518313   17.029254     -2.1585733      16.376769    
    294000   1.8773585      0.00058376088  1000000       -0.00014835069 -0.00094229099  0.0028419243   17.018143     -2.1650467      16.367277    
    295000   1.8781026     -0.0021092531   1000000        0.0015040136  -0.0065012347  -0.0013305382   17.021849     -2.1756997      16.38052     
    296000   1.8759011     -0.0064300913   1000000       -0.0039185918  -0.0082000757  -0.0071716065   17.010143     -2.1809965      16.377413    
    297000   1.8723092     -0.0023881059   1000000        0.00057019728 -0.0018189466  -0.0059155684   17.01285      -2.1758429      16.380354    
    298000   1.8800562      0.0014433073   1000000        0.00080012367  0.0047540394  -0.0012242411   17.004466     -2.1856338      16.370141    
    299000   1.8737155     -0.0010384243   1000000       -0.00073193622  0.0013647878  -0.0037481245   16.999541     -2.1871039      16.376196    
    300000   1.8853489      0.00027255817  1000000       -0.00042988794  0.00039562468  0.00085193778  17.00002      -2.1876152      16.359737    
    301000   1.881649      -0.0020510855   1000000       -0.0022339259  -0.0038071904  -0.0001121402   16.996967     -2.2040882      16.378708    
    302000   1.8847691     -0.00076278393  1000000       -0.0040132994  -0.0014545971   0.0031795447   16.990472     -2.2083769      16.371821    
    303000   1.8914886      0.0040590728   1000000        0.0026230275   0.0023854563   0.0071687346   16.988046     -2.2089034      16.359843    
    304000   1.8838991     -0.0010020861   1000000       -0.0025865292  -0.00075985314  0.00034012416  16.98033      -2.2166313      16.371238    
    305000   1.8732867     -0.0025679701   1000000       -0.0037725225  -0.0023544951  -0.0015768928   16.97411      -2.2116893      16.375994    
    306000   1.8817983      0.0025986787   1000000        0.001855068    0.0044214518   0.0015195164   16.975187     -2.2222133      16.374828    
    307000   1.8922         0.0011898971   1000000       -0.001280326    0.0043485791   0.00050143832  16.975672     -2.2282747      16.365773    
    308000   1.8851446      0.00028180506  1000000       -0.0015421632   0.001889002    0.00049857636  16.971902     -2.2352023      16.379513    
    309000   1.8860437     -0.0031615409   1000000        0.0020305461  -0.0065578441  -0.0049573247   16.970148     -2.2347881      16.375996    
    310000   1.8850853      0.00034446492  1000000        0.0022923103  -0.00084829347 -0.00041062212  16.961563     -2.2396692      16.37373     
    311000   1.894478      -0.00079178623  1000000       -0.00021087193 -0.00098649414 -0.0011779926   16.96901      -2.2434322      16.370852    
    312000   1.883193       0.0034392603   1000000        0.0010384629   0.0036372035   0.0056421144   16.950983     -2.2470073      16.373326    
    313000   1.8883774     -0.00018993363  1000000       -0.00083833975 -0.0016686844   0.0019372232   16.957345     -2.2583408      16.383245    
    314000   1.8959826      0.0021552454   1000000        0.0037467693   0.0014362594   0.0012827076   16.961537     -2.264136       16.381826    
    315000   1.8959632     -0.0018346315   1000000       -0.0022674333  -0.001444192   -0.0017922692   16.961028     -2.2692013      16.386411    
    316000   1.8902943      0.0005266191   1000000        1.1441025e-05  0.0021322835  -0.00056386725  16.946443     -2.2749792      16.386107    
    317000   1.887637      -0.00017403693  1000000        0.0011886298  -0.0014855489  -0.00022519164  16.935449     -2.2788006      16.38292     
    318000   1.900334      -0.0013343944   1000000       -0.0015318932  -0.0031965251   0.00072523518  16.931869     -2.2849966      16.366491    
    319000   1.8928292     -0.003206915    1000000        0.0015490458  -0.0056042817  -0.0055655091   16.920578     -2.2814626      16.362923    
    320000   1.8830515      0.0021375089   1000000        0.0072394134   0.00070994197 -0.0015368287   16.913234     -2.2868025      16.375584    
    321000   1.8889923     -0.0010255589   1000000       -0.0022178748  -0.0022929477   0.0014341459   16.907725     -2.2949764      16.369339    
    322000   1.8699582     -0.00063234623  1000000       -0.0021345735   0.00026560582 -2.8071059e-05  16.894914     -2.2827366      16.372838    
    323000   1.8677729     -0.0018164725   1000000       -0.0025624555  -0.0014158397  -0.0014711223   16.900261     -2.2819421      16.380668    
    324000   1.8677443     -2.4273673e-06  1000000       -0.00059626661  4.4013698e-05  0.00054497081  16.897169     -2.2718046      16.367481    
    325000   1.8816772     -0.0011310723   1000000       -0.0023336244   3.8244003e-05 -0.0010978365   16.903141     -2.2840045      16.364755    
    326000   1.8766148      0.00024078554  1000000       -0.0014441029   0.0048715829  -0.0027051234   16.909934     -2.2799569      16.375094    
    327000   1.8920742      4.3295398e-05  1000000        0.0003817187  -0.0026176401   0.0023658076   16.91453      -2.2875946      16.36414     
    328000   1.8840872     -0.0017917511   1000000        0.0014895012  -0.0028479594  -0.0040167951   16.912255     -2.2853         16.37155     
    329000   1.8897426     -0.00098569223  1000000       -0.002176601    0.0017212329  -0.0025017086   16.898521     -2.3010121      16.365045    
    330000   1.88726       -0.0009737921   1000000        4.1931394e-05 -0.00051497505 -0.0024483326   16.889724     -2.3066982      16.365658    
    331000   1.887928      -0.00033788387  1000000       -0.0030523728   0.0010340889   0.0010046323   16.892506     -2.3116268      16.372367    
    332000   1.8856671      0.0040562186   1000000        0.0019612533   0.0042773747   0.0059300278   16.887279     -2.3093954      16.368299    
    333000   1.8861216      0.0028314757   1000000        0.0024163598   0.0032808508   0.0027972166   16.886849     -2.3015973      16.35939     
    334000   1.8726688      0.0023279483   1000000       -0.0025768951   0.005385971    0.0041747691   16.882208     -2.2962835      16.369613    
    335000   1.8758362      0.0017246148   1000000        0.0016429448   0.001238892    0.0022920075   16.883446     -2.3046832      16.3745      
    336000   1.8823805      2.8625147e-05  1000000        2.7188491e-05 -0.002290391    0.0023490779   16.886978     -2.31025        16.373783    
    337000   1.8833958      0.00054353069  1000000        0.0026970158  -0.00028957848 -0.00077684524  16.894987     -2.3056485      16.375668    
    338000   1.8798687     -0.001862353    1000000       -0.0018730615   0.00044090648 -0.0041549039   16.87034      -2.316294       16.366956    
    339000   1.8786261     -0.00076283292  1000000       -0.003104565   -0.000760196    0.0015762623   16.86599      -2.3157632      16.363939    
    340000   1.8604052     -0.0036837889   1000000       -0.0037441528  -0.0056859922  -0.0016212218   16.847614     -2.3221804      16.379311    
    341000   1.8733822      0.0023371441   1000000       -0.0008212651   0.0041110202   0.0037216772   16.852432     -2.3251576      16.367641    
    342000   1.8678941     -0.00095803425  1000000       -0.00056298011 -0.00029833472 -0.0020127879   16.840604     -2.3287144      16.367602    
    343000   1.880695       0.00073496623  1000000        0.0017224416  -0.001333558    0.0018160151   16.843481     -2.3404044      16.362969    
    344000   1.8695781      0.004195165    1000000        0.0056167671   0.0024815751   0.0044871529   16.832769     -2.3424185      16.370945    
    345000   1.8682955      0.0010741214   1000000        0.0022591749  -0.00011790545  0.0010810948   16.830769     -2.3369675      16.365418    
    346000   1.8702986     -0.00092431648  1000000       -0.0021782079  -0.0023260017   0.0017312602   16.846389     -2.3299099      16.370976    
    347000   1.8803419      0.00040695617  1000000        0.0005054088  -0.0022036505   0.0029191102   16.831986     -2.3368188      16.348417    
    348000   1.8803026     -0.0040847673   1000000       -0.0061125941  -0.005280997   -0.00086071083  16.846364     -2.33405        16.360086    
    349000   1.8726099     -0.00083206008  1000000       -0.0010090236  -0.0024342914   0.00094713473  16.840465     -2.3277658      16.359441    
    350000   1.8653608     -0.0011391085   1000000       -0.0051300669  -0.00090501551  0.0026177568   16.852548     -2.3257399      16.380371    
    351000   1.8772393      0.00016375321  1000000        0.0036084064  -0.0023173037  -0.00079984305  16.846376     -2.3414256      16.372068    
    352000   1.8841884      0.0013604937   1000000        0.0025396866  -0.0010198933   0.0025616879   16.852693     -2.3339465      16.360483    
    353000   1.8849354     -0.00063751304  1000000       -0.0030610095   0.0016499217  -0.00050145125  16.844199     -2.3633781      16.3803      
    354000   1.8881101      0.0032984691   1000000        0.0025024263   0.0030922106   0.0043007703   16.843519     -2.351047       16.362526    
    355000   1.8759319      0.0012559368   1000000        0.00089718228  0.0026734059   0.00019722233  16.846091     -2.3371929      16.369511    
    356000   1.8796725      0.00097049044  1000000        0.00060927248  0.0019495355   0.00035266336  16.835384     -2.3464999      16.362501    
    357000   1.8839464      0.00065596816  1000000       -0.00037266945  0.0007278978   0.0016126761   16.851449     -2.3472511      16.372906    
    358000   1.8837817     -0.0040427991   1000000       -0.0043279171  -0.0049726979  -0.0028277824   16.8673       -2.3457762      16.38753     
    359000   1.8966494      0.00071999339  1000000        0.0015182723   0.0020590071  -0.0014172992   16.860733     -2.3467951      16.36268     
    360000   1.8813284     -0.00061500844  1000000        0.0022922429  -0.0022777974  -0.0018594708   16.841852     -2.35076        16.370744    
    361000   1.8822043      0.00062875369  1000000       -0.0010330411   0.00081105343  0.0021082487   16.84538      -2.3552872      16.377487    
    362000   1.8958346      0.0021812246   1000000        0.0050441069   0.0030374437  -0.0015378766   16.850056     -2.363762       16.370192    
    363000   1.8804161     -0.00066503009  1000000       -0.0011868413   0.00072204191 -0.0015302909   16.859232     -2.3564991      16.395232    
    364000   1.8903671     -0.0022574631   1000000       -0.0018053205  -0.0011256744  -0.0038413942   16.864296     -2.3591221      16.387993    
    365000   1.8927951      0.0023405025   1000000       -0.0002689852   0.0018009216   0.005489571    16.86068      -2.3622166      16.38383     
    366000   1.8885464     -0.0013712159   1000000       -0.0027636094   0.00084080028 -0.0021908387   16.851899     -2.3698618      16.389067    
    367000   1.8900711     -0.00054863066  1000000       -0.0024354714   0.00096365096 -0.00017407157  16.849803     -2.365462       16.380284    
    368000   1.8873753     -0.00016018101  1000000       -0.00084348687  0.0019716234  -0.0016086796   16.841613     -2.3751808      16.385857    
    369000   1.8850421     -0.0020737989   1000000       -0.0041745883   0.00039177749 -0.0024385859   16.837552     -2.3779033      16.388018    
    370000   1.8912027     -0.0027601774   1000000       -0.0021583413  -0.0021084023  -0.0040137884   16.817502     -2.3757269      16.356551    
    371000   1.8908375     -0.00057788553  1000000        0.0026749559   0.00041053975 -0.0048191522   16.810488     -2.3727083      16.347066    
    372000   1.8748184      0.00011220321  1000000       -0.0013648246   0.0010240334   0.00067740076  16.81622      -2.3722373      16.376355    
    373000   1.8781065     -0.00079555101  1000000       -0.00089045878 -0.0043506548   0.0028544605   16.800622     -2.3679462      16.351533    
    374000   1.8574432     -0.0026321617   1000000       -0.0015675089  -0.0046291601  -0.0016998161   16.788062     -2.3664062      16.368428    
    375000   1.8755567      0.0004876201   1000000        0.0043863714  -0.00085440136 -0.0020691097   16.779668     -2.3738788      16.340337    
    376000   1.86958        0.001058746    1000000        0.0031729781  -0.00054434562  0.00054760548  16.770238     -2.3765966      16.342589    
    377000   1.8647185      0.0014069021   1000000       -0.00023307477  0.0025029437   0.0019508372   16.765451     -2.3789293      16.347427    
    378000   1.8640311     -0.0020479071   1000000       -0.0031059439   0.0017327198  -0.0047704973   16.77563      -2.3823405      16.362048    
    379000   1.8698301     -0.0021458996   1000000       -0.0014359795  -0.0010058842  -0.003995835    16.774111     -2.3844864      16.353977    
    380000   1.8783586      0.00014292711  1000000        0.0010919592  -0.0013781432   0.00071496533  16.786215     -2.391761       16.360563    
    381000   1.8827058      0.0029481323   1000000        0.0017979743   0.0027196697   0.0043267529   16.781672     -2.4001699      16.357909    
    382000   1.8783913     -0.00068423338  1000000        0.00066726263 -0.00015587627 -0.0025640865   16.772528     -2.4103147      16.365381    
    383000   1.8827841     -0.0010504246   1000000        0.0024839057  -0.004958752   -0.00067642742  16.766025     -2.4089378      16.350913    
    384000   1.8772779     -0.00043923499  1000000       -0.0008112039  -0.0011613793   0.00065487818  16.759643     -2.415833       16.359684    
    385000   1.8717475      0.0012402832   1000000        0.00083233043  0.0026241082   0.00026441097  16.740834     -2.4176177      16.350955    
    386000   1.8581488      0.00074216041  1000000        0.0020471978  -0.00077836358  0.00095764706  16.711946     -2.4238464      16.348693    
    387000   1.864676      -0.0009338732   1000000       -6.3929561e-05  0.00014034092 -0.002878031    16.718793     -2.4354644      16.357368    
    388000   1.8670088      0.0004249944   1000000        0.002520484   -0.00075317889 -0.00049232195  16.722583     -2.4296117      16.351806    
    389000   1.8549696     -0.0011595509   1000000       -0.0011921918  -0.0018744101  -0.00041205092  16.718725     -2.4302792      16.366673    
    390000   1.8682121     -0.0016640821   1000000       -0.0014587444  -0.0034929337  -4.0568186e-05  16.719966     -2.4363625      16.354135    
    391000   1.8643383      0.00064890099  1000000        0.00059640806 -0.0010992256   0.0024495205   16.708975     -2.4393512      16.351943    
    392000   1.8695094     -0.00070909807  1000000        6.0422032e-05  0.00029189131 -0.0024796076   16.712459     -2.4352462      16.343565    
    393000   1.8604911      5.4439796e-06  1000000        0.0023617821  -0.0014979615  -0.00084748864  16.698841     -2.4369193      16.345147    
    394000   1.8692196      0.0021962017   1000000        0.0017073505   0.0027812361   0.0021000186   16.696116     -2.4510288      16.34344     
    395000   1.8496395      0.0045045269   1000000        0.0043169091   0.0057764563   0.0034202154   16.687785     -2.4421177      16.355566    
    396000   1.8555325      0.0032688192   1000000        0.0026136827   0.0040987978   0.0030939771   16.674296     -2.4470881      16.338209    
    397000   1.8502352     -0.0030461488   1000000       -0.005396612   -0.0018211934  -0.001920641    16.661675     -2.4611522      16.347598    
    398000   1.8471236     -0.0013229287   1000000       -0.00059906339 -0.001260991   -0.0021087317   16.656536     -2.4685757      16.354549    
    399000   1.8504392     -0.0028614674   1000000       -0.001481488   -0.0011195281  -0.0059833859   16.658524     -2.4720592      16.355048    
    400000   1.8386118      0.002384823    1000000       -0.0032249353   0.004578778    0.0058006262   16.640552     -2.4656918      16.348449    
    401000   1.8651224     -0.0021803988   1000000       -0.0053410875  -0.0022710819   0.001070973    16.661265     -2.4854771      16.349183    
    402000   1.8536116      0.0010980004   1000000        0.0026080847  -0.00010509759  0.00079101419  16.668969     -2.4671094      16.355784    
    403000   1.8564711      0.0031980736   1000000        0.0025930699   0.0036708083   0.0033303426   16.657497     -2.4803013      16.353216    
    404000   1.862575      -0.00072147145  1000000        0.0010428685  -0.0024967558  -0.00071052708  16.66058      -2.4902463      16.357088    
    405000   1.8654678      0.0018017774   1000000        0.0051327639  -0.00078133808  0.0010539064   16.680391     -2.4822359      16.36455     
    406000   1.8609096      0.002606271    1000000        0.0049827473   0.0007166855   0.0021193801   16.658276     -2.4787727      16.345808    
    407000   1.8628625      0.0020103727   1000000        0.0017029836  -0.0021885184   0.0065166528   16.654594     -2.4783187      16.338743    
    408000   1.8552467     -0.0018122803   1000000       -0.0059821225  -5.6541369e-05  0.00060182279  16.652092     -2.4828351      16.35218     
    409000   1.8593034      0.0013822128   1000000        0.0026579743  -0.0019803518   0.0034690159   16.656844     -2.4752769      16.34329     
    410000   1.8584898      0.00061098522  1000000        0.002056983    0.0014996817  -0.001723709    16.649795     -2.4882379      16.350422    
    411000   1.849106      -0.0027138507   1000000       -0.0024429029  -0.0051509948  -0.00054765456  16.632763     -2.4829288      16.342156    
    412000   1.8355408      0.0038722096   1000000        0.0032769715   0.0031862686   0.0051533886   16.625166     -2.486784       16.358761    
    413000   1.848072       0.0006825845   1000000       -0.00079887307 -0.00028550307  0.0031321297   16.629908     -2.4974241      16.355347    
    414000   1.8540206     -7.1735284e-05  1000000        0.0031768302  -0.0034402497   4.8213714e-05  16.639692     -2.4958148      16.3546      
    415000   1.8540638      0.0015501784   1000000        0.0031054973   0.0021230831  -0.00057804518  16.635177     -2.5051498      16.359355    
    416000   1.8716038      0.0023934733   1000000        0.00035166714  0.0016529692   0.0051757837   16.638756     -2.5122535      16.343729    
    417000   1.8716098      0.0021154351   1000000        0.0023883587   0.00023272738  0.0037252194   16.64741      -2.5095911      16.349711    
    418000   1.8644823      0.001663169    1000000        0.0028478621   0.0036134287  -0.0014717839   16.656296     -2.5022176      16.361914    
    419000   1.8630895     -0.0011086592   1000000       -0.0007259403  -0.0031654204   0.00056538316  16.658632     -2.5150147      16.379137    
    420000   1.8605694     -0.0015163107   1000000        0.0036798561  -0.0047637112  -0.003465077    16.650402     -2.5144211      16.374093    
    421000   1.8646136     -0.0028772207   1000000       -0.00020662507 -0.0017677621  -0.006657275    16.650732     -2.5085177      16.362453    
    422000   1.8795721      0.0020150784   1000000        0.0028876977  -4.6171615e-05  0.003203709    16.65301      -2.5247216      16.358498    
    423000   1.8679584     -7.8739637e-05  1000000        0.0021188763  -0.00087171629 -0.0014833789   16.640965     -2.5168046      16.355957    
    424000   1.8630215     -0.00021498172  1000000       -0.004788525    0.0018181156   0.0023254643   16.637073     -2.5046419      16.347307    
    425000   1.8596246     -0.0033102308   1000000        0.0009910803  -0.0036631437  -0.0072586292   16.647122     -2.5061645      16.363974    
    426000   1.8662706     -0.0043833396   1000000       -0.0027794916  -0.0049773763  -0.0053931508   16.642795     -2.5211677      16.364681    
    427000   1.8672243     -0.0037883447   1000000       -0.00015295848 -0.0072391053  -0.0039729702   16.640024     -2.5256115      16.364923    
    428000   1.8782869      0.0011395449   1000000        0.0060418321  -0.0013114635  -0.0013117339   16.641741     -2.5342077      16.358643    
    429000   1.8804769      0.00043839996  1000000       -0.0024212591   0.00093544981  0.0028010092   16.653451     -2.5284898      16.361351    
    430000   1.8701974      0.00020815996  1000000       -0.00053632336  0.001499513   -0.0003387098   16.647059     -2.5229683      16.364856    
    431000   1.8562619     -0.00020573353  1000000       -0.00055052149 -0.00069603262  0.00062935351  16.632053     -2.5222155      16.369999    
    432000   1.8640483     -0.00077394485  1000000       -0.0016308256   0.00035322189 -0.0010442309   16.631403     -2.5394974      16.374953    
    433000   1.8671451     -0.0015088276   1000000       -0.0038068567   1.1728216e-05 -0.00073135421  16.633329     -2.5337982      16.366534    
    434000   1.8497864     -0.0027564657   1000000       -0.0017744267  -0.0067759946   0.00028102407  16.615559     -2.5233441      16.364347    
    435000   1.8510861     -0.00038287531  1000000        0.00067946744 -0.0040674774   0.0022393841   16.615477     -2.5259114      16.364883    
    436000   1.8685627      0.0022497658   1000000       -3.8119265e-05  0.0023904382   0.0043969785   16.627911     -2.5322178      16.357409    
    437000   1.8673547      0.0015269517   1000000       -7.0130569e-05  6.6642443e-05  0.0045843431   16.627678     -2.5356079      16.362379    
    438000   1.8632273      0.0018361528   1000000        0.00072378212  0.0022492439   0.0025354325   16.623572     -2.5325177      16.361373    
    439000   1.8539446     -0.0047091532   1000000       -0.004534459   -0.0039867062  -0.0056062945   16.616369     -2.528696       16.364272    
    440000   1.8600378     -0.00094716929  1000000        0.00083335607 -0.0023956819  -0.0012791821   16.629689     -2.5272354      16.366992    
    441000   1.868018      -0.0001035379   1000000       -0.00040296446  0.0019308931  -0.0018385424   16.621682     -2.5349717      16.354751    
    442000   1.8533811     -0.00082886328  1000000        0.0016274433   0.0028749051  -0.0069889382   16.616263     -2.5371334      16.373449    
    443000   1.8597496     -0.00012433288  1000000        0.0020615011  -0.0019403565  -0.00049414323  16.605831     -2.5358127      16.352143    
    444000   1.8712973      0.0015018571   1000000        0.0017475154   0.00075940136  0.0019986545   16.612729     -2.5403568      16.346265    
    445000   1.8725349      0.0026882428   1000000        0.0031347072  -9.5297196e-05  0.0050253185   16.614283     -2.5443904      16.349995    
    446000   1.8724477     -0.0018240165   1000000       -0.00058952409 -0.0022129703  -0.002669555    16.617251     -2.5572002      16.365905    
    447000   1.8779194     -0.0025633461   1000000       -0.0010730267  -0.001961606   -0.0046554056   16.614448     -2.5538979      16.351592    
    448000   1.866888      -0.0018856984   1000000       -0.0023930689  -0.0021667189  -0.0010973075   16.614702     -2.5586762      16.37317     
    449000   1.8857536     -0.00058116868  1000000        0.0012967212  -0.0025567951  -0.00048343217  16.607224     -2.573855       16.352574    
    450000   1.8831426     -0.00019345321  1000000       -0.0015809899   0.00056625079  0.00043437949  16.597817     -2.5764816      16.34971     
    451000   1.8702455      0.0062908935   1000000        0.0035149928   0.0070044483   0.0083532394   16.599597     -2.5601381      16.354492    
    452000   1.8762618      0.0014490162   1000000        0.00022250049  0.0037196015   0.00040494663  16.587826     -2.5708436      16.344402    
    453000   1.8748316     -0.0023637077   1000000       -0.0013374987  -0.003739767   -0.0020138573   16.586674     -2.5771329      16.351684    
    454000   1.8806723      0.00069595458  1000000        0.0014983561  -0.0025691221   0.0031586298   16.589689     -2.5876738      16.35648     
    455000   1.8779306      0.00093666926  1000000        0.00072308821  0.0010407978   0.0010461218   16.59071      -2.5813454      16.355285    
    456000   1.8650339      0.0015890923   1000000        0.0028929718   0.0028427576  -0.00096845258  16.586812     -2.5691241      16.358509    
    457000   1.8706194     -0.00071311351  1000000       -0.000639833   -0.0027251208   0.0012256133   16.582413     -2.5790716      16.35568     
    458000   1.8648467     -0.00074420414  1000000        0.00052728342 -0.0030432563   0.00028336049  16.575641     -2.5843717      16.362867    
    459000   1.8695166     -0.0040785307   1000000       -0.0025748226  -0.0072259299  -0.0024348396   16.563159     -2.5956122      16.354621    
    460000   1.8624835      0.0016461166   1000000        0.0022617446   0.00094950215  0.0017271031   16.57243      -2.5882535      16.367083    
    461000   1.8811737      0.00046577546  1000000       -0.00056578415  0.0011494361   0.00081367447  16.58036      -2.5937573      16.352482    
    462000   1.8856955      0.0003499876   1000000       -0.00022870879  0.0048020693  -0.0035233977   16.581832     -2.6017075      16.355122    
    463000   1.8702808     -0.0025506577   1000000       -0.00018668055 -0.0029115002  -0.0045537923   16.569005     -2.6030255      16.366734    
    464000   1.8702321     -0.0033544312   1000000       -0.0038630698  -0.0033845711  -0.0028156526   16.562053     -2.5958138      16.352644    
    465000   1.8681187     -0.0017660178   1000000       -0.0024183585  -0.0022567653  -0.00062292953  16.560453     -2.6044604      16.36286     
    466000   1.8680357      0.00025273888  1000000        0.00046355051  0.00092685838 -0.00063219225  16.56093      -2.6005386      16.35954     
    467000   1.8675836      0.0036624055   1000000        0.0033690719   0.0036941955   0.0039239489   16.555923     -2.6105923      16.365264    
    468000   1.8643496      0.00035823481  1000000        0.0051035298  -0.0032018849  -0.00082694046  16.548536     -2.6151918      16.367328    
    469000   1.8665049     -0.0036982339   1000000       -0.0031041599  -0.0028529043  -0.0051376373   16.556355     -2.6082147      16.364937    
    470000   1.8741869     -0.0018641044   1000000       -0.0037602156  -0.0023463436   0.00051424606  16.554611     -2.6197456      16.363201    
    471000   1.881395      -0.0011269542   1000000       -0.00096417458  0.00030543495 -0.0027221229   16.543254     -2.6305196      16.351806    
    472000   1.8751347     -0.0012845852   1000000       -0.0018872051   0.0018295677  -0.0037961181   16.555508     -2.6229606      16.365892    
    473000   1.8794764     -0.0022364852   1000000       -0.0014712936  -0.0025963287  -0.0026418334   16.558115     -2.6212532      16.360279    
    474000   1.8786858      0.00011917906  1000000       -0.00050690821  0.00062910286  0.00023534252  16.545609     -2.6239574      16.351663    
    475000   1.8769156     -0.0021759761   1000000       -0.00052978406 -0.0034030889  -0.0025950553   16.529702     -2.6280591      16.342513    
    476000   1.8624919     -0.00059197691  1000000        0.00038998677  0.001304903   -0.0034708205   16.525517     -2.6260596      16.357963    
    477000   1.859444       0.00039462513  1000000        0.0025963556   0.00051531508 -0.0019277953   16.527825     -2.6345315      16.373315    
    478000   1.8689226     -0.00050237887  1000000       -0.0016422769   0.0011696488  -0.0010345085   16.528171     -2.6429406      16.367852    
    479000   1.8655929     -0.0013041996   1000000       -0.0044202728  -0.00030249815  0.00081017218  16.5255       -2.6334534      16.360689    
    480000   1.8608092     -0.0020910786   1000000       -0.0042386769   0.00051118702 -0.0025457458   16.520508     -2.6281329      16.357551    
    481000   1.856386       0.0023650175   1000000        0.0045983673   0.0028185503  -0.00032186497  16.52316      -2.6227751      16.36148     
    482000   1.8668059     -0.0017510685   1000000        0.00065432998 -0.0043498604  -0.0015576751   16.528784     -2.6272239      16.355923    
    483000   1.8843676     -0.0031267523   1000000       -0.00098793217 -0.0046778923  -0.0037144324   16.538854     -2.6319182      16.344347    
    484000   1.8722136      0.00091594144  1000000        0.0046410862   0.003634093   -0.0055273549   16.537256     -2.6395601      16.368621    
    485000   1.885296       0.0030216999   1000000        0.0027749186   0.0047587931   0.001531388    16.534115     -2.6473716      16.353668    
    486000   1.8815026     -0.0022279241   1000000       -0.00090954046 -0.001660833   -0.0041133987   16.538961     -2.6457924      16.362625    
    487000   1.8653454     -0.0016107127   1000000        0.0014896513  -0.0032474451  -0.0030743443   16.525742     -2.638311       16.36616     
    488000   1.87438       -0.0010401363   1000000        0.00043532613 -0.0041730422   0.00061730708  16.520437     -2.6483906      16.357382    
    489000   1.8647156     -0.00022327118  1000000        0.0034817333  -0.0064686974   0.0023171505   16.507573     -2.6547535      16.365377    
    490000   1.8728784      0.00025316784  1000000       -0.0012836289   0.0020253557   1.7776743e-05  16.498552     -2.6545982      16.343958    
    491000   1.8698762     -0.0011976935   1000000       -0.0028450565   0.0033639865  -0.0041120106   16.49337      -2.6644199      16.3531      
    492000   1.8783373     -0.0028230171   1000000       -0.0029931617  -0.0015772671  -0.0038986225   16.506118     -2.6665338      16.355271    
    493000   1.8772391      0.00053141766  1000000        0.0021842094  -0.0014710367   0.00088108026  16.509204     -2.6710234      16.364494    
    494000   1.8867897      9.4017784e-05  1000000       -0.0028560028   0.0014596627   0.0016783935   16.509615     -2.6658444      16.345401    
    495000   1.8712772      0.0029373262   1000000        0.0023912335   0.0046663652   0.00175438     16.504772     -2.6686923      16.366673    
    496000   1.8848035     -0.0017015491   1000000       -0.0013245499   5.2055673e-06 -0.0037853028   16.49279      -2.6842437      16.349954    
    497000   1.8720292     -0.0006955246   1000000       -0.0020029309  -0.0021992327   0.0021155898   16.480534     -2.6752906      16.347905    
    498000   1.8734222      0.0012713895   1000000        0.0041102024  -0.0011169617   0.00082092786  16.483807     -2.6689652      16.342764    
    499000   1.8670309     -0.0014389427   1000000       -0.0060193708   0.0024100325  -0.00070748986  16.478253     -2.6678862      16.345717    
    500000   1.8697964      0.0001046827   1000000       -0.0014509441   0.0022457433  -0.00048075113  16.486912     -2.6685885      16.350931    
    501000   1.868978       0.0012455424   1000000        0.0023386169  -0.00052585802  0.0019238684   16.479712     -2.6774865      16.353856    
    502000   1.8730779     -0.00041026422  1000000        0.00014778813  0.00011152006 -0.0014901009   16.477283     -2.6872875      16.355079    
    503000   1.8663961      0.0014801215   1000000        0.00067572549  0.0021870712   0.0015775679   16.477559     -2.6828184      16.360907    
    504000   1.8613513     -0.0027256744   1000000       -0.0057245169  -0.00068012036 -0.0017723859   16.462174     -2.681938       16.352209    
    505000   1.8624255     -0.001491837    1000000        0.0027283686  -0.0034625189  -0.0037413606   16.45515      -2.6952316      16.356868    
    506000   1.882253       0.0026277185   1000000        0.0022126535   0.0019623661   0.0037081358   16.474378     -2.7092913      16.360416    
    507000   1.882231      -0.00060053179  1000000        0.00027528107 -0.0026353081   0.00055843171  16.47647      -2.7132486      16.366497    
    508000   1.8651414     -0.0025108966   1000000       -0.0022246623  -0.0056492855   0.00034125801  16.466099     -2.6981895      16.3667      
    509000   1.8812661     -0.0036811247   1000000        0.00043859693 -0.0061671973  -0.0053147739   16.4772       -2.7127389      16.368166    
    510000   1.8767963     -0.00048673738  1000000        0.00083075725  0.00097754948 -0.0032685189   16.462658     -2.7207876      16.368377    
    511000   1.878982      -0.0056879186   1000000       -0.0032505311  -0.0040580853  -0.0097551392   16.475499     -2.7116747      16.368826    
    512000   1.8788478      0.003878636    1000000        0.0055792688   0.0045445097   0.0015121295   16.472145     -2.7169841      16.370983    
    513000   1.8780577     -0.0024292309   1000000       -0.0017401552  -0.00078703078 -0.0047605066   16.482        -2.7140222      16.379061    
    514000   1.8772766     -0.0015297108   1000000       -0.0008004666  -0.0011534011  -0.0026352646   16.473215     -2.702323       16.359748    
    515000   1.8712506      0.00022398368  1000000        0.0021268178   0.0014577394  -0.0029126061   16.463698     -2.6942947      16.351242    
    516000   1.8618315     -0.00010994769  1000000       -0.004909538    0.0017451596   0.0028345353   16.452283     -2.7023147      16.361974    
    517000   1.8594434      0.00014934058  1000000       -0.0020969597   0.0020785138   0.00046646771  16.446692     -2.6987987      16.35645     
    518000   1.8707196      0.0019846725   1000000        0.0016618423   0.0031938712   0.0010983039   16.438623     -2.708269       16.340937    
    519000   1.8758462      0.001811498    1000000        0.0061934005  -0.004697916    0.0039390094   16.445865     -2.7241313      16.356352    
    520000   1.8721918      0.001917228    1000000        0.0052181097  -0.0039459983   0.0044795725   16.446061     -2.7332999      16.371198    
    521000   1.8777019      0.0047067015   1000000        0.0050281989   0.0037647375   0.0053271682   16.447588     -2.7196982      16.350859    
    522000   1.8619979     -0.00090866916  1000000       -0.0038930863   0.00047615096  0.00069092784  16.442945     -2.7097255      16.359798    
    523000   1.8758463     -0.0004213032   1000000       -0.001748653    0.00016153924  0.0003232042   16.440383     -2.7205512      16.347289    
    524000   1.8667683     -0.0011550248   1000000       -0.0023611972   7.7218381e-05 -0.0011810956   16.441441     -2.7215883      16.363001    
    525000   1.866867      -0.0021003787   1000000       -0.0010943515  -0.0037862646  -0.0014205202   16.434609     -2.7350343      16.369467    
    526000   1.8706462      0.000941813    1000000       -0.0036548959   0.0017585021   0.0047218328   16.434936     -2.7325718      16.361663    
    527000   1.8611913     -0.0023794508   1000000       -0.0029975715   0.00077603236 -0.0049168132   16.419266     -2.7285243      16.356128    
    528000   1.8497079     -0.0017406163   1000000       -0.0038958956  -0.00013740832 -0.0011885449   16.40789      -2.7156043      16.349055    
    529000   1.8686109      1.9194371e-05  1000000        0.00098293676 -0.0029645768   0.0020392231   16.420971     -2.731374       16.349553    
    530000   1.8580161     -0.0002311665   1000000        0.0026432727  -0.0056373778   0.0023006056   16.41643      -2.7326704      16.3622      
    531000   1.8707872     -0.004567227    1000000       -0.0065838017  -0.0023632743  -0.0047546051   16.428285     -2.7337705      16.355999    
    532000   1.8590657     -0.0010485405   1000000       -0.00017694323 -0.0028177032  -0.00015097505  16.425065     -2.7273479      16.363939    
    533000   1.8714496      0.0022750055   1000000        0.0020750752   0.0024626343   0.0022873071   16.424172     -2.7282075      16.345329    
    534000   1.8644412     -0.0042006608   1000000       -0.0025140533  -0.0034487511  -0.0066391779   16.408239     -2.7377802      16.349482    
    535000   1.8629946     -0.0031244056   1000000       -0.0015075258  -0.0041273328  -0.003738358    16.411209     -2.7372251      16.354067    
    536000   1.8528686      0.00081708514  1000000       -0.001212856    0.00042736137  0.0032367501   16.40321      -2.7220599      16.34609     
    537000   1.8559581      0.0019389282   1000000        0.0022920726   0.0012777157   0.0022469963   16.408939     -2.7325153      16.357641    
    538000   1.8746484      0.0017005341   1000000        0.0011109442   0.00056454022  0.003426118    16.427328     -2.7399564      16.355437    
    539000   1.8733845      0.00089475018  1000000       -0.0047941943  -0.00034870957  0.0078271544   16.423082     -2.7379401      16.351071    
    540000   1.8743632     -0.0047433964   1000000       -0.0063132834  -0.0053484698  -0.0025684361   16.43512      -2.7429861      16.366687    
    541000   1.8666167     -0.0024033414   1000000       -0.0023046893  -0.0004782806  -0.0044270544   16.42566      -2.7338304      16.35969     
    542000   1.8619322     -0.00075290667  1000000       -0.0023746203   0.0003262279  -0.00021032764  16.404188     -2.7396581      16.351072    
    543000   1.8736202     -0.0011587195   1000000       -0.0011406046  -0.0014226138  -0.00091294006  16.401609     -2.7584996      16.349804    
    544000   1.8698124      0.00062873675  1000000        0.0021065221  -0.00018952843 -3.0783445e-05  16.404823     -2.7477854      16.348014    
    545000   1.8560848     -0.0021080326   1000000        0.00028942603 -0.0026872404  -0.0039262836   16.406747     -2.7472073      16.369951    
    546000   1.868211      -0.00018321112  1000000        0.0014411347  -0.00054169747 -0.0014490706   16.412485     -2.7531221      16.363416    
    547000   1.8625893      0.00059358436  1000000        0.00039500546 -0.002617545    0.0040032926   16.396594     -2.7501449      16.352979    
    548000   1.8711902      0.0018788341   1000000        0.0049034263  -0.0017843576   0.0025174337   16.414489     -2.7528131      16.360642    
    549000   1.8737698      0.004253093    1000000        0.0068156047   0.0011574558   0.0047862187   16.412592     -2.7643896      16.366452    
    550000   1.8736331     -0.0013255119   1000000       -0.0014234839  -0.0037847666   0.0012317148   16.421451     -2.7678535      16.37898     
    551000   1.870234      -0.0013532539   1000000       -0.00042042596 -0.00057893497 -0.0030604008   16.408447     -2.7664074      16.369628    
    552000   1.8768249      0.0022867255   1000000        8.0827889e-05  0.0048226677   0.0019566809   16.40401      -2.7648283      16.353726    
    553000   1.8818746      0.0010112559   1000000        0.0023466162   0.00088218138 -0.00019503     16.419208     -2.7597021      16.356223    
    554000   1.8684705     -0.0011924503   1000000       -8.068398e-05   0.0008337264  -0.0043303934   16.415263     -2.7643751      16.377057    
    555000   1.8813979     -0.00036135892  1000000        0.00011607418 -0.0006883789  -0.00051177203  16.418715     -2.7631431      16.359887    
    556000   1.8810002     -0.0021015292   1000000        0.00012948174 -0.0038565065  -0.0025775629   16.39936      -2.7771196      16.355105    
    557000   1.8712184      0.0018076237   1000000        0.00076011068  0.0031753539   0.0014874065   16.413651     -2.762551       16.369499    
    558000   1.8742836     -6.3155532e-05  1000000       -0.0017727624  -0.00020099865  0.0017842944   16.404647     -2.7736158      16.366962    
    559000   1.8661835      0.00030790052  1000000        0.0012162133   0.0016911377  -0.0019836494   16.408752     -2.7647166      16.374318    
    560000   1.8723196      0.0015776095   1000000        0.003547244   -0.0012865369   0.0024721213   16.402672     -2.7706037      16.364921    
    561000   1.8757278      0.0001072446   1000000        0.0012082304  -0.0017639459   0.00087744924  16.410044     -2.7730209      16.369598    
    562000   1.8730152     -0.0003439201   1000000        0.00027589946  7.6754889e-05 -0.0013844147   16.415186     -2.7687493      16.374538    
    563000   1.8667493     -0.0017882298   1000000       -0.0031670469  -0.00087735797 -0.0013202846   16.400016     -2.7619437      16.36196     
    564000   1.8654824     -0.00043605974  1000000       -0.0035849256   0.00060130994  0.0016754365   16.396745     -2.7750322      16.373678    
    565000   1.8650508     -0.00098530704  1000000       -0.0026240701   0.0025503064  -0.0028821574   16.401171     -2.7733665      16.377085    
    566000   1.8797715      0.00051477776  1000000        0.0022844156  -0.0021062436   0.0013661613   16.400492     -2.7791102      16.36007     
    567000   1.8710895      0.0019760432   1000000        0.0053446384  -0.0021283368   0.0027118279   16.402539     -2.7727852      16.368815    
    568000   1.8703083     -0.0025337517   1000000       -0.0016964935  -0.0044880271  -0.0014167345   16.396913     -2.7697017      16.361277    
    569000   1.8703131      0.0026395905   1000000       -0.001462881    0.0056359125   0.0037457399   16.394487     -2.7701992      16.359342    
    570000   1.8687655      0.0015129187   1000000        0.0032774782  -0.0022631537   0.0035244316   16.382055     -2.7814408      16.360472    
    571000   1.8652344      0.0038104805   1000000        0.0030447916   0.0053012863   0.0030853637   16.377759     -2.7821124      16.362144    
    572000   1.8591745      0.0006079948   1000000       -0.00028529438  8.0313512e-05  0.0020289653   16.349567     -2.782963       16.343892    
    573000   1.8516545      0.00080436012  1000000        0.0025290916  -0.00051123365  0.00039522237  16.342673     -2.7848454      16.35016     
    574000   1.8355823      0.0013260621   1000000       -0.00048856461  0.0032888381   0.0011779128   16.322508     -2.8051605      16.374418    
    575000   1.852614       0.0025003631   1000000        0.0053698806   0.0012491539   0.00088205484  16.332363     -2.7985993      16.352165    
    576000   1.8398274     -0.0025741973   1000000       -0.0028130172   0.00044613994 -0.0053557148   16.31706      -2.7915976      16.349039    
    577000   1.8467677      0.00058896795  1000000       -0.0014670872   0.0052406918  -0.0020067008   16.325628     -2.7965867      16.352186    
    578000   1.8482648     -0.0016481108   1000000        0.00086460136 -0.0030893255  -0.0027196084   16.320531     -2.804932       16.353189    
    579000   1.8467479     -0.0029902896   1000000       -0.0012791632  -0.0057703669  -0.0019213388   16.327731     -2.7985122      16.356245    
    580000   1.858846       0.001360164    1000000        0.00034380082 -0.0006324515   0.0043691428   16.324233     -2.7991693      16.335258    
    581000   1.854793       5.4764104e-05  1000000       -0.0056762365   0.0037385258   0.0021020031   16.302639     -2.8225581      16.343132    
    582000   1.8589527      0.00018345276  1000000        0.00056866043 -0.0039771188   0.0039588167   16.309135     -2.8318324      16.352663    
    583000   1.8624111     -0.00043823725  1000000        0.0034098812  -0.0015705728  -0.0031540201   16.305444     -2.8391166      16.351068    
    584000   1.858035       0.0004638106   1000000       -0.0013637693   0.00093813643  0.0018170647   16.29471      -2.8430354      16.350817    
    585000   1.8492767     -0.00049245523  1000000       -0.00089373873  0.0009115962  -0.0014952231   16.303753     -2.8264239      16.356385    
    586000   1.8659371     -0.0029697138   1000000       -0.0018006661  -0.0040831935  -0.0030252819   16.310557     -2.8319743      16.34375     
    587000   1.8569294      0.0019315962   1000000        0.0041693522   0.0016446134  -1.9176937e-05  16.296837     -2.8301849      16.341752    
    588000   1.8640796     -0.0016508998   1000000       -0.004112912    0.0016441909  -0.0024839784   16.296372     -2.8329669      16.333344    
    589000   1.8498353     -0.00091108446  1000000       -0.0030258391   0.00033843662 -4.5850959e-05  16.287535     -2.8239869      16.336892    
    590000   1.8495352      0.0018705795   1000000       -0.00082792687  0.0027844436   0.0036552218   16.283664     -2.8338532      16.343338    
    591000   1.8348504     -0.0017383435   1000000        7.5583297e-05 -0.0031156746  -0.0021749392   16.274411     -2.8311841      16.353441    
    592000   1.8519916      0.00069077604  1000000        0.00023846289  0.0044366096  -0.0026027444   16.272903     -2.846506       16.341545    
    593000   1.8534143      0.0013220509   1000000        0.0019599437   0.0025058179  -0.00049960881  16.276374     -2.8493137      16.34569     
    594000   1.841125      -0.00067600415  1000000        0.00017864079 -0.0019083897  -0.00029826355  16.268016     -2.8578242      16.364276    
    595000   1.8543532      0.0024805637   1000000        0.002234115    0.0041862555   0.0010213205   16.260456     -2.8604098      16.33946     
    596000   1.8450682     -0.0008897852   1000000        0.002288031   -0.0026168543  -0.0023405323   16.26068      -2.85544        16.34864     
    597000   1.8418581     -0.0021769981   1000000       -0.0046729119  -0.0029423001   0.0010842177   16.25979      -2.8533588      16.350485    
    598000   1.8509313      0.0019304461   1000000        0.0031274739   0.0013049853   0.0013588791   16.267932     -2.8517034      16.343362    
    599000   1.8552718     -0.0021900807   1000000       -0.00047574905 -0.0043160967  -0.0017783962   16.266596     -2.8611443      16.344956    
    600000   1.8552934      0.0012698045   1000000        0.00089698611  0.00079652934  0.0021158979   16.260235     -2.8639625      16.341381    
    601000   1.8519759     -9.1072612e-05  1000000       -0.00039619343  5.868032e-05   6.4295271e-05  16.266165     -2.8537525      16.342077    
    602000   1.8494589      0.002462037    1000000        0.0011124544   0.0042150669   0.0020585896   16.2586       -2.8661115      16.350647    
    603000   1.8481042     -0.0018518565   1000000       -0.0021715456  -0.0015055227  -0.0018785012   16.259198     -2.858891       16.346056    
    604000   1.8576085     -0.00080204849  1000000       -0.00066263431 -0.00065696854 -0.0010865426   16.261362     -2.8543077      16.32938     
    605000   1.8620377      0.0017050552   1000000        0.0027413453  -7.7386671e-05  0.002451207    16.263487     -2.8547742      16.325329    
    606000   1.8508533      0.00013540295  1000000        5.4548339e-05  0.0012237138  -0.00087205332  16.273757     -2.8439466      16.341547    
    607000   1.8583545      0.00068188575  1000000        0.0025857148  -0.0011296202   0.00058956261  16.270807     -2.8456582      16.329057    
    608000   1.860885      -0.0027696749   1000000       -0.0021652602  -0.0032361978  -0.0029075666   16.273159     -2.8596735      16.34163     
    609000   1.8461478     -0.0017644499   1000000       -0.00010885761 -0.00040593044 -0.0047785617   16.268808     -2.8494035      16.349112    
    610000   1.8501757      0.0016318899   1000000        0.0017750186  -0.00051574126  0.0036363924   16.272675     -2.8523548      16.34989     
    611000   1.8411602     -0.00091628462  1000000        0.00033093134  0.00095298626 -0.0040327715   16.257446     -2.8573005      16.353129    
    612000   1.8505605     -0.0014485854   1000000       -0.0029409774  -0.00010784516 -0.0012969335   16.253496     -2.8691273      16.346906    
    613000   1.8465527     -0.0019186515   1000000       -0.0024790343   0.00061094249 -0.0038878628   16.25138      -2.8648184      16.346492    
    614000   1.8331097     -0.00094699096  1000000       -0.0019076032   0.00065299116 -0.0015863608   16.252927     -2.852092       16.355477    
    615000   1.8615784     -0.00014721981  1000000       -0.00049154417 -0.0004242484   0.00047413314  16.261347     -2.8606816      16.329785    
    616000   1.8525004     -0.00042793678  1000000        0.00033264185  0.0015430502  -0.0031595024   16.266791     -2.8627705      16.350935    
    617000   1.850557       0.001944458    1000000       -0.00099305261 -0.0011909658   0.0080173923   16.256376     -2.8600067      16.340671    
    618000   1.8544792     -0.0032134123   1000000       -0.0022458117   4.0506054e-05 -0.0074349313   16.263506     -2.8679127      16.349823    
    619000   1.8473263     -0.0013942385   1000000        0.001280164   -0.0017653472  -0.0036975321   16.247227     -2.8683092      16.34467     
    620000   1.8609735     -0.0016444399   1000000        0.001151751   -0.0014504095  -0.0046346611   16.251548     -2.8855852      16.345797    
    621000   1.8523815      0.00094726385  1000000        0.00042737748  0.0015024847   0.00091192932  16.246505     -2.8834418      16.351498    
    622000   1.8684133      0.00042680767  1000000        0.0043472145   0.00083310368 -0.0038998951   16.26118      -2.8899753      16.348659    
    623000   1.8512865      0.0015132428   1000000       -0.00013679903  0.0039918744   0.00068465306  16.256612     -2.8742556      16.354061    
    624000   1.8649241     -0.00039209395  1000000       -0.0014202702  -0.0012411556   0.0014851439   16.258209     -2.8699462      16.330894    
    625000   1.8549884     -0.00017229889  1000000       -0.001039864   -0.00027361894  0.00079658631  16.248571     -2.8789082      16.34512     
    626000   1.8606204     -0.00019413421  1000000       -0.00095743582  0.0043482714  -0.0039732382   16.249108     -2.872629       16.33093     
    627000   1.8660941      0.0025877492   1000000        0.0033496086   0.0018853863   0.0025282529   16.246379     -2.8772807      16.324643    
    628000   1.8641538     -0.00045314201  1000000       -0.002584945    0.0020488151  -0.00082329613  16.260111     -2.8823679      16.346372    
    629000   1.8551426     -0.00022023787  1000000        0.0014155518   0.0011285377  -0.0032048031   16.255099     -2.8767612      16.34927     
    630000   1.8512875     -0.0019234055   1000000       -0.0023019227  -0.0019019056  -0.0015663883   16.231618     -2.8759143      16.330725    
    631000   1.859958      -0.0040237776   1000000       -0.0051628482  -0.0010664757  -0.005842009    16.239712     -2.8935177      16.343417    
    632000   1.8505999      3.8700013e-05  1000000       -0.0051483539   0.001539503    0.003724951    16.234986     -2.8845814      16.343791    
    633000   1.8638411      0.00096948656  1000000        0.0015155091   0.0007916855   0.00060126504  16.242423     -2.8975339      16.344319    
    634000   1.8519234     -0.0023391995   1000000       -0.0018483984  -0.0018356165  -0.0033335838   16.2177       -2.9047528      16.344691    
    635000   1.8531741     -0.00061351314  1000000       -0.0010451408   0.0012274842  -0.0020228828   16.219612     -2.8949004      16.334875    
    636000   1.8594398     -0.003070857    1000000       -0.0048822542  -0.0012314823  -0.0030988345   16.227136     -2.89638        16.33448     
    637000   1.8455934     -0.0012738639   1000000       -0.0012542845  -0.0010658467  -0.0015014605   16.221394     -2.8889526      16.34208     
    638000   1.8425554     -0.003997096    1000000       -0.0013980314  -0.0052326738  -0.0053605829   16.227707     -2.8744842      16.338481    
    639000   1.8543971      0.00012572306  1000000        0.0022191184  -0.00099523251 -0.00084671676  16.227165     -2.8842197      16.329912    
    640000   1.8648637      0.0019565091   1000000        0.0047285888  -0.0012340057   0.0023749444   16.233807     -2.8904916      16.327127    
    641000   1.8447975      0.0025388354   1000000        0.0044695818   0.000562756    0.0025841683   16.230957     -2.8832985      16.347182    
    642000   1.8566867      0.00020439138  1000000        0.00023329168 -0.0015212715   0.0019011539   16.243167     -2.88722        16.345481    
    643000   1.8654952     -0.0018465843   1000000       -0.0028265965   4.1744707e-05 -0.0027549012   16.24804      -2.8838063      16.333728    
    644000   1.8566299     -0.0010764901   1000000       -0.0012832599  -0.0034969181   0.0015507077   16.255132     -2.888107       16.358418    
    645000   1.8697         0.0012488622   1000000        0.0025613377   0.001681122   -0.00049587304  16.267769     -2.8783848      16.341729    
    646000   1.8514679     -0.0023827094   1000000       -0.0046241857  -0.0014030465  -0.0011208959   16.250345     -2.8798656      16.353132    
    647000   1.8532756     -0.0050770663   1000000       -0.0019326509  -0.0068069364  -0.0064916117   16.239043     -2.8936297      16.352883    
    648000   1.8421657     -0.0025572038   1000000       -0.0013005047  -0.0035332801  -0.0028378267   16.232035     -2.880397       16.349306    
    649000   1.8526774     -0.0017818008   1000000       -0.0013300637  -0.0039930696  -2.2269093e-05  16.232357     -2.8913179      16.344782    
    650000   1.8453693      0.00077356521  1000000        0.00045027481 -0.0030860266   0.0049564474   16.212225     -2.882936       16.32723     
    651000   1.8403881      0.0018977574   1000000        0.0014672373   0.0012970662   0.0029289688   16.20737      -2.8913542      16.338265    
    652000   1.8490341      2.0112491e-05  1000000       -0.00052123746  7.7820078e-05  0.00050375486  16.225468     -2.8980994      16.350139    
    653000   1.8482279      0.0035191971   1000000        0.00049326898  0.0060234281   0.0040408941   16.209245     -2.9057481      16.342774    
    654000   1.8583027      0.0020966146   1000000        0.0025832258  -0.0035274282   0.0072340462   16.209691     -2.9173136      16.339674    
    655000   1.8664591      0.0012701927   1000000       -0.0013673378  -0.0005432142   0.00572113     16.224852     -2.9214362      16.346724    
    656000   1.8652541     -0.0029508242   1000000       -0.00078333914 -0.0022741526  -0.0057949808   16.219493     -2.9361517      16.357887    
    657000   1.85871       -0.0019404795   1000000       -0.001551085   -0.0028889131  -0.0013814405   16.211815     -2.9288323      16.352706    
    658000   1.8391982     -0.0046905999   1000000       -0.0029293642  -0.0057136276  -0.0054288079   16.206541     -2.9193148      16.367181    
    659000   1.8523968     -0.0032187533   1000000       -0.0054536865  -0.0026529199  -0.0015496533   16.210037     -2.9242248      16.35579     
    660000   1.8547949     -0.00010148807  1000000        0.00088978233 -0.0017921774   0.00059793091  16.210536     -2.9230024      16.35147     
    661000   1.8550162      0.0022408431   1000000        0.0059064273   0.0033525698  -0.0025364678   16.193183     -2.9159291      16.326712    
    662000   1.8510512      0.00040691009  1000000       -0.00049427894  0.0029355401  -0.0012205309   16.185556     -2.9210964      16.330199    
    663000   1.8438142     -0.003963349    1000000       -0.0020452709  -0.0048023644  -0.0050424118   16.188685     -2.9248082      16.347895    
    664000   1.8588274      0.0013046908   1000000       -0.00022320913 -0.00011120589  0.0042484874   16.175085     -2.9389657      16.325934    
    665000   1.843503      -0.00061554818  1000000       -0.0034583792   0.0012571798   0.00035455492  16.180934     -2.9291941      16.344996    
    666000   1.8581876     -0.00078431506  1000000       -0.0021675364   0.00038089025 -0.00056629901  16.18013      -2.9313701      16.324343    
    667000   1.8538712      0.00030243124  1000000        0.001982951   -0.0024522268   0.0013765695   16.187759     -2.9401957      16.347272    
    668000   1.8441741      0.00010655102  1000000       -0.0001708492  -0.0010034711   0.0014939734   16.191391     -2.9281396      16.353393    
    669000   1.8378098     -0.0029966406   1000000       -0.0040936547  -0.005456985    0.00056071788  16.181283     -2.9233871      16.348078    
    670000   1.8590007      0.0019591244   1000000        0.0019031193  -0.00025171766  0.0042259716   16.184943     -2.9436508      16.340216    
    671000   1.8628555     -0.0018130277   1000000       -0.00046786261 -0.0032337662  -0.0017374544   16.183388     -2.9505488      16.339777    
    672000   1.867262      -0.0019605733   1000000       -0.0026255827  -0.0016802306  -0.0015759065   16.188884     -2.9591705      16.347286    
    673000   1.8436753      9.4713669e-05  1000000       -0.00068143641  0.0031778328  -0.0022122554   16.179075     -2.942947       16.356632    
    674000   1.8475989     -0.00080288171  1000000        0.00039343734  0.0003723186  -0.0031744011   16.169015     -2.9485904      16.34633     
    675000   1.86429       -0.0027219647   1000000       -3.2159083e-05 -0.0018290674  -0.0063046677   16.187018     -2.9620806      16.352787    
    676000   1.8622037     -0.0034153417   1000000       -0.0015711847  -0.0053266152  -0.0033482251   16.177393     -2.9672423      16.351454    
    677000   1.8543352      0.0017201771   1000000        0.00050629672  0.0020215763   0.0026326582   16.180869     -2.9495193      16.349009    
    678000   1.874133       0.00046927519  1000000        0.00050169249  0.00047395571  0.00043217738  16.187437     -2.9562403      16.332602    
    679000   1.8579663     -0.00047015003  1000000        0.00053516227 -0.0052396648   0.0032940525   16.183782     -2.9462251      16.343182    
    680000   1.8574722      0.0018803353   1000000        0.0037589486   0.00061784659  0.0012642107   16.179834     -2.9573475      16.351097    
    681000   1.8487953     -0.0027459758   1000000       -0.0022498691  -0.0037297545  -0.0022583037   16.175068     -2.9549862      16.356984    
    682000   1.8714388      0.0010629531   1000000       -0.0020995023   0.0028774214   0.0024109402   16.185764     -2.9730385      16.351769    
    683000   1.8590302      0.002438903    1000000        0.0045539659   0.0047643871  -0.0020016441   16.186595     -2.9529189      16.351093    
    684000   1.8584536      0.0013539584   1000000        0.0011089838  -0.00098401861  0.00393691     16.188794     -2.9540585      16.355296    
    685000   1.8561078      0.00080955783  1000000        0.0016656024   0.0028383205  -0.0020752494   16.187638     -2.9477339      16.351334    
    686000   1.8580595      0.00057231869  1000000        0.00017191478  0.00093567144  0.00060936985  16.17486      -2.9587775      16.346672    
    687000   1.8572146      0.0040213402   1000000        0.0036415743   0.0067441014   0.0016783449   16.176008     -2.9609649      16.351275    
    688000   1.8634537      8.2026105e-05  1000000       -0.0010671472   0.00012822019  0.0011850053   16.177176     -2.96276        16.34488     
    689000   1.8562716      0.0010553797   1000000       -0.00073243597 -0.00067828121  0.0045768563   16.167414     -2.9675059      16.350636    
    690000   1.8727949      0.0020389528   1000000        0.0018372547   0.0012986902   0.0029809134   16.17408      -2.9665809      16.331593    
    691000   1.856433      -0.00088019746  1000000       -0.00097004197 -0.0010340821  -0.00063646832  16.151628     -2.9760672      16.34317     
    692000   1.849465      -0.00068242192  1000000        0.00069371845 -0.0030859196   0.00034493543  16.145279     -2.9627382      16.333943    
    693000   1.8492218     -0.0029284587   1000000       -0.0023180653  -0.0013925404  -0.0050747704   16.143368     -2.9592557      16.328915    
    694000   1.8465641     -0.00049083294  1000000        0.00095242376  0.00298381    -0.0054087325   16.156451     -2.9586699      16.345398    
    695000   1.8529303      0.0004042541   1000000        0.00025294237 -0.00070127603  0.001661096    16.161071     -2.9574973      16.339296    
    696000   1.8742712     -0.0028216889   1000000       -0.00072399476 -0.0041794267  -0.0035616453   16.179928     -2.9622527      16.330899    
    697000   1.8687954     -0.00022878767  1000000        0.005651526   -0.0033643206  -0.0029735685   16.173976     -2.9612759      16.332183    
    698000   1.8650249     -0.0027794857   1000000       -0.0020128901  -0.0022935778  -0.0040319891   16.163157     -2.9663786      16.332122    
    699000   1.8625865      0.0009214819   1000000        0.00018296884 -0.00085110255  0.0034325794   16.154959     -2.9616937      16.322897    
    700000   1.8550303      0.0017870557   1000000        0.0026953795   0.0042649716  -0.001599184    16.151689     -2.9665091      16.335777    
    701000   1.8453951     -0.00096123223  1000000        2.4086431e-05 -0.0025454011  -0.00036238203  16.13512      -2.9693349      16.336485    
    702000   1.8444901     -0.00090362851  1000000       -0.00040444714 -0.0010763671  -0.0012300713   16.125195     -2.9743138      16.332897    
    703000   1.8569092     -0.0012404648   1000000        0.00048656357 -0.0014789755  -0.0027289824   16.133075     -2.9790382      16.326873    
    704000   1.8478552      0.0010848359   1000000        0.0019653511   0.00012003716  0.0011691193   16.130719     -2.9787197      16.337779    
    705000   1.8497024     -0.0022457187   1000000       -0.0019704252  -0.0047424626  -2.4268334e-05  16.124789     -2.9773945      16.327753    
    706000   1.8543926      0.0017859566   1000000        0.0027587473   0.00010078856  0.0024983341   16.136591     -2.9794921      16.334618    
    707000   1.8558665     -0.0015665951   1000000       -0.0026657065  -0.00058723322 -0.0014468457   16.134352     -2.9830393      16.333715    
    708000   1.8551594     -0.00055359943  1000000        0.0010020664  -9.9308066e-05 -0.0025635566   16.141489     -2.9921279      16.351001    
    709000   1.8680195     -0.003182334    1000000       -0.0012500348  -0.0047425584  -0.0035544089   16.146925     -2.9953138      16.340334    
    710000   1.8826252      0.0032760826   1000000        0.0033066772   0.0043591939   0.0021623767   16.171364     -2.9829865      16.330538    
    711000   1.874469      -0.0036803999   1000000       -0.0038319023  -0.00071402683 -0.0064952707   16.182995     -2.9835149      16.354931    
    712000   1.8663531     -0.00077519143  1000000       -0.0027840104   0.0012864254  -0.00082798931  16.171699     -2.9810459      16.35334     
    713000   1.8647032     -0.00097438854  1000000       -0.0010381899  -0.00088445988 -0.0010005158   16.147892     -2.9847988      16.33576     
    714000   1.8769006      0.0030997519   1000000        0.0074307217   0.00019677151  0.0016717623   16.148635     -2.9964421      16.329851    
    715000   1.8611352     -0.00057032079  1000000       -0.0033080251   0.0013248882   0.00027217451  16.140509     -2.9930936      16.342024    
    716000   1.8429143     -0.0013441538   1000000       -0.0052315351   0.0010488605   0.00015021315  16.145445     -2.9698967      16.351093    
    717000   1.8589856     -0.0019846602   1000000       -0.00462564     0.0031953787  -0.0045237192   16.149913     -2.9845488      16.346107    
    718000   1.8436209     -0.0026029611   1000000       -0.0037150417  -0.00067117656 -0.0034226651   16.14253      -2.9724409      16.349662    
    719000   1.8532148      0.00066898889  1000000        0.0027249402  -0.0012324285   0.00051445494  16.13196      -2.9994276      16.351689    
    720000   1.8556738     -0.0029257932   1000000       -0.0015981932  -0.0058840126  -0.001295174    16.130948     -3.002519       16.35008     
    721000   1.8508392     -0.0029753418   1000000       -0.0046203242  -0.0039356007  -0.00037010042  16.134734     -3.0012303      16.359829    
    722000   1.8641938     -0.0018944348   1000000       -0.0015537536  -0.001782144   -0.0023474069   16.144745     -3.005658       16.354236    
    723000   1.861407      -9.9376265e-06  1000000       -0.0010007418   0.0014775872  -0.00050665834  16.134998     -3.002657       16.345669    
    724000   1.8634836     -0.0016158897   1000000       -0.0041243408   0.0032771337  -0.0040004619   16.138501     -3.0078046      16.351204    
    725000   1.8596252     -0.0012939468   1000000       -0.0040404711   0.0019250604  -0.0017664297   16.138724     -3.0127737      16.362184    
    726000   1.8599182     -0.0026482876   1000000       -0.0011085407  -0.0037808443  -0.0030554779   16.144955     -3.0077917      16.362993    
    727000   1.8729366      0.0028023166   1000000        0.002749396    0.0026677702   0.0029897836   16.145482     -3.0042315      16.340434    
    728000   1.8829738      0.0035074472   1000000        0.00063961601  0.005245595    0.0046371306   16.151885     -3.0252576      16.352807    
    729000   1.8784325      0.00078055187  1000000       -0.00077608077  0.001869836    0.0012479004   16.146362     -3.0151003      16.343939    
    730000   1.8647578     -0.00086885498  1000000       -0.0017956839  -0.0012851038   0.00047422279  16.139185     -3.0213692      16.363542    
    731000   1.8739782      0.00015963887  1000000        0.0037940695  -0.0010065338  -0.0023086191   16.138755     -3.0184275      16.34634     
    732000   1.8691793      0.0010148395   1000000        0.0018481841   0.0012781851  -8.1850693e-05  16.136619     -3.0138678      16.346842    
    733000   1.8539066     -0.0020001057   1000000       -0.0020647486  -0.0017368843  -0.0021986842   16.112909     -3.0200964      16.352269    
    734000   1.8677437      0.0035302998   1000000        0.007933658   -0.0011116058   0.0037688473   16.123281     -3.0144608      16.336251    
    735000   1.8664611      0.00069121825  1000000        0.0026062468  -0.0027352703   0.0022026782   16.130462     -3.0144702      16.345365    
    736000   1.8502395      0.0015159315   1000000        0.0019607076   0.0005590474   0.0020280394   16.116635     -3.0119225      16.353321    
    737000   1.8587261     -0.0018804065   1000000       -0.0026849268  -0.0031515942   0.00019530142  16.107514     -3.0199903      16.339539    
    738000   1.8563757      0.0011909806   1000000       -0.00026507604 -0.00041041012  0.0042484278   16.089718     -3.0322284      16.337506    
    739000   1.8562441     -0.0013347712   1000000       -0.0010812087  -0.0011703365  -0.0017527684   16.096109     -3.0323103      16.344177    
    740000   1.8475919     -0.00090385296  1000000       -0.00079728272 -0.0024798798   0.00056560366  16.097194     -3.0308319      16.356761    
    741000   1.8499689      0.0011989736   1000000        0.0030170666  -0.0017205221   0.0023003764   16.078046     -3.0428091      16.346025    
    742000   1.84055       -0.00025346235  1000000        0.0021939749  -2.7960321e-06 -0.0029515659   16.06667      -3.0344064      16.340374    
    743000   1.8510249      0.0011886132   1000000       -0.00034029435  0.00011491766  0.0037912162   16.081147     -3.0317978      16.336531    
    744000   1.8473624     -0.00040526075  1000000       -0.0015862412   0.0014244315  -0.0010539727   16.072909     -3.0342316      16.33622     
    745000   1.8506619      0.0010361151   1000000        0.0011853979   0.0016296285   0.00029331895  16.077953     -3.0369249      16.339008    
    746000   1.8582526     -0.00096108759  1000000       -0.00011108607 -0.0010826747  -0.001689502    16.098055     -3.0359466      16.346746    
    747000   1.8603808     -0.00059084988  1000000       -0.00059119731  0.0010357378  -0.0022170901   16.090704     -3.0328948      16.333152    
    748000   1.8488872     -0.0034954704   1000000       -0.0045400858  -0.005326653   -0.00061967229  16.081881     -3.0305349      16.339208    
    749000   1.8460018      0.0021815501   1000000        4.5555109e-05  0.0039050018   0.0025940934   16.066798     -3.0422696      16.340188    
    750000   1.8503864     -0.0011886732   1000000       -0.00016538894  0.00092345413 -0.0043240847   16.073252     -3.0462118      16.344008    
    751000   1.8467531     -0.0033248417   1000000       -0.0045964836  -0.0024017172  -0.0029763243   16.068512     -3.046615       16.345121    
    752000   1.8439722     -0.00025585967  1000000        0.000706351   -0.0022073615   0.00073343151  16.058492     -3.0360134      16.32867     
    753000   1.839509      -0.00020625271  1000000        0.00077834092 -0.0023393492   0.00094225018  16.046321     -3.0316112      16.318792    
    754000   1.8377462      0.0020510411   1000000        0.002433529    0.0015673963   0.0021521981   16.06304      -3.0342943      16.340837    
    755000   1.846455       0.0018266218   1000000        0.0023592557   0.00016844485  0.0029521647   16.078465     -3.0405666      16.349472    
    756000   1.8532911     -0.0007991806   1000000        0.0017540652  -0.00047733448 -0.0036742725   16.073928     -3.0407139      16.334828    
    757000   1.8580033      0.0043136173   1000000        0.0047475021   0.00036770707  0.0078256427   16.078823     -3.0490784      16.341021    
    758000   1.8462863     -0.00095877905  1000000       -0.0024132305   0.0010905349  -0.0015536415   16.075018     -3.0436963      16.349408    
    759000   1.8495158     -0.00029431173  1000000       -0.0020143911   0.0031509754  -0.0020195194   16.074681     -3.0319786      16.332509    
    760000   1.8512524      0.0015205148   1000000        0.0017346601   0.0029308431  -0.000103959    16.070991     -3.0447921      16.339028    
    761000   1.8515127      0.0023889445   1000000        0.0053367256  -0.0013915609   0.0032216687   16.066521     -3.0482809      16.337656    
    762000   1.8486314     -0.0013690952   1000000       -0.00023750143 -0.0032009634  -0.00066882067  16.052535     -3.039108       16.318819    
    763000   1.8514966      0.0026673826   1000000        0.0023746259   0.00029831207  0.00532921     16.055024     -3.0498596      16.327762    
    764000   1.8525891      0.00052844848  1000000       -0.00025825002  0.0030765553  -0.0012329599   16.064613     -3.0513452      16.337198    
    765000   1.8409142      0.0013592894   1000000       -0.0031258073   0.0050530916   0.0021505839   16.055246     -3.0437814      16.337779    
    766000   1.8358207     -0.0030109064   1000000       -0.0019835607  -0.0031670763  -0.0038820823   16.045339     -3.0414277      16.333158    
    767000   1.8368272     -0.00082787617  1000000       -0.0026288808  -0.0021925588   0.0023378112   16.066342     -3.0321115      16.343335    
    768000   1.8518541     -0.0048495331   1000000       -0.0014744288  -0.0084586375  -0.0046155331   16.07423      -3.0346318      16.331204    
    769000   1.8392112      0.00028034426  1000000       -0.0017354135   0.0033415508  -0.00076510453  16.054088     -3.0420787      16.337473    
    770000   1.8516936     -0.0001707176   1000000       -0.0016355264   0.0017813222  -0.00065794861  16.057935     -3.038508       16.319026    
    771000   1.8500605     -0.0039003684   1000000       -0.0037894079  -0.0070435678  -0.00086812969  16.053419     -3.0432104      16.321662    
    772000   1.850621      -0.0035037444   1000000       -0.0029464998  -0.0029865914  -0.0045781419   16.065389     -3.0425479      16.332129    
    773000   1.841659       0.0017323926   1000000        0.0035664771   0.0038202862  -0.0021895855   16.048483     -3.0344695      16.320587    
    774000   1.8498682      0.0012031711   1000000        0.00067316621  0.003135701   -0.00019935378  16.059454     -3.0502233      16.334998    
    775000   1.8548918      0.00075149602  1000000        0.0013248129   0.00266455    -0.0017348749   16.05968      -3.0535438      16.331009    
    776000   1.8313271      0.0013220923   1000000        0.00073824127  0.00088908042  0.0023389552   16.046944     -3.0294302      16.329506    
    777000   1.847552       0.0012521161   1000000        0.0042836399  -0.00084635935  0.00031906786  16.057528     -3.0489163      16.33524     
    778000   1.8369348      0.0013197987   1000000       -0.000748009    0.00265342     0.0020539849   16.052483     -3.0298533      16.327056    
    779000   1.8493112     -0.0022464081   1000000       -0.0013438098  -0.00090804544 -0.004487369    16.066652     -3.0336402      16.326449    
    780000   1.8476174     -0.002432318    1000000        0.0015383363  -0.0073509872  -0.0014843032   16.066974     -3.0454114      16.341082    
    781000   1.8518997     -0.0010658557   1000000       -0.001850215   -0.0018541889   0.00050683682  16.063455     -3.0508812      16.33661     
    782000   1.8437618     -0.0017587443   1000000        0.00098802235 -0.00059919983 -0.0056650553   16.050434     -3.0444778      16.329392    
    783000   1.8405343      0.00044917022  1000000        0.0015712963  -0.00090397465  0.00068018903  16.060304     -3.0409967      16.340622    
    784000   1.8471672      0.0024495293   1000000        0.0056238562   0.0034093779  -0.0016846463   16.063543     -3.0466477      16.339563    
    785000   1.8607902      0.002199703    1000000       -0.00011712309  0.0059257767   0.00079045533  16.040326     -3.0632701      16.312535    
    786000   1.8505168     -0.00025750398  1000000       -0.0011597164   0.0015166457  -0.0011294412   16.046213     -3.0549729      16.325534    
    787000   1.8502339      0.0008575807   1000000       -0.0031791248   0.0039623545   0.0017895124   16.048055     -3.0605458      16.333373    
    788000   1.8559642     -0.00074952873  1000000       -0.0030103665   0.003374162   -0.0026123818   16.057696     -3.0643161      16.338189    
    789000   1.8545788      0.00010071661  1000000       -0.00031067274 -0.002188935    0.0028017576   16.063667     -3.0567179      16.33864     
    790000   1.855121       0.0019757981   1000000        0.0026940572  -0.00065269002  0.0038860273   16.054122     -3.0584409      16.330005    
    791000   1.8505358     -0.0016988343   1000000       -0.0016911897  -0.0031371368  -0.00026817646  16.059745     -3.0476884      16.331753    
    792000   1.8416023     -0.00041481956  1000000        0.0012091677   0.0012057667  -0.0036593931   16.049808     -3.0453838      16.332911    
    793000   1.8469099      0.0014905686   1000000       -0.0014018086   0.00079339778  0.0050801166   16.051996     -3.0479411      16.329695    
    794000   1.8488655      0.0027151647   1000000        0.0024125088   0.007044844   -0.0013118588   16.046861     -3.0624107      16.336096    
    795000   1.8565544      0.0015274818   1000000        0.0044940253   0.0011827512  -0.0010943311   16.062174     -3.048832       16.326298    
    796000   1.8383315     -0.00045404446  1000000        0.00098312968 -0.00022796974 -0.0021172933   16.05882      -3.0420965      16.343542    
    797000   1.8376872     -0.00037033235  1000000       -0.0023590503  -0.00070795436  0.0019560076   16.044508     -3.0486421      16.336742    
    798000   1.8512144      0.0060473063   1000000        0.0076868744   0.003534637    0.0069204074   16.044287     -3.0558051      16.323394    
    799000   1.8290187     -0.0010435901   1000000       -0.0010606889  -0.0050298608   0.0029597794   16.029969     -3.0516484      16.338211    
    800000   1.8346398      0.00014140004  1000000       -0.0030944992   0.0025638515   0.00095484785  16.040348     -3.0475723      16.336083    
    801000   1.8357614     -0.00039896656  1000000       -0.00035041428  0.00058608317 -0.0014325686   16.037804     -3.0511725      16.335457    
    802000   1.8359436     -0.0026265485   1000000       -0.005093321   -0.0012527861  -0.0015335385   16.032079     -3.0651677      16.343454    
    803000   1.8317933     -0.001781416    1000000        0.00094637118 -0.0051075199  -0.0011830991   16.031687     -3.0580311      16.34215     
    804000   1.8422887      0.0017699289   1000000        0.00060693016  0.0033942204   0.0013086363   16.033495     -3.0633895      16.333575    
    805000   1.8476646      0.00096927292  1000000       -0.00089111843  0.0033362277   0.00046270951  16.035786     -3.0672543      16.331666    
    806000   1.838953      -0.00050411259  1000000       -0.00012999753 -0.0026318116   0.0012494713   16.035173     -3.0580687      16.334935    
    807000   1.8384557      0.0022140362   1000000       -0.00067054751  0.0041075247   0.0032051314   16.036338     -3.0619418      16.340719    
    808000   1.8573862      0.0035021381   1000000        0.0031812011   0.0038413882   0.003483825    16.047356     -3.0639019      16.325302    
    809000   1.8559275      0.0002149016   1000000        0.00082767337  0.0015964411  -0.0017794097   16.047247     -3.0683026      16.331782    
    810000   1.8441049      0.0023356567   1000000        0.00036658764  0.0058613011   0.00077908147  16.042126     -3.0579081      16.333999    
    811000   1.849155       0.0041753749   1000000        0.0021528327   0.0050166722   0.0053566198   16.053743     -3.0553937      16.335527    
    812000   1.8634667      0.0032214894   1000000        0.0020002371   0.0021942193   0.0054700118   16.049053     -3.066519       16.320497    
    813000   1.8471641      0.001164325    1000000       -0.00065934494  0.0021039155   0.0020484044   16.03132      -3.0658891      16.326586    
    814000   1.8351631     -0.0020570944   1000000       -0.0012263919  -0.0022638568  -0.0026810343   16.02248      -3.0593093      16.329167    
    815000   1.8351602     -0.00069274534  1000000        0.0044691269  -0.0056191961  -0.00092816683  16.031284     -3.0640001      16.342666    
    816000   1.8453976      0.0036872632   1000000        0.0076865033   0.0020174771   0.0013578092   16.032644     -3.0679929      16.332664    
    817000   1.8478292     -0.0018110499   1000000       -0.0012563873  -0.0038390256  -0.00033773693  16.048395     -3.0689875      16.345762    
    818000   1.8507209     -5.3555085e-05  1000000        0.0008745139   0.0012621522  -0.0022973313   16.044066     -3.0704562      16.338564    
    819000   1.8512949     -0.0022797209   1000000       -0.0035464756  -0.0009386879  -0.0023539992   16.040612     -3.0816272      16.34542     
    820000   1.8534403     -0.0021204503   1000000       -0.0014941092  -0.00012691684 -0.0047403248   16.03803      -3.0705188      16.328512    
    821000   1.8482955      0.0036912933   1000000        0.0059360569   0.0035095503   0.0016282728   16.04149      -3.0711428      16.340313    
    822000   1.8548588      0.0014044535   1000000       -0.00040127165  0.0037407619   0.00087387031  16.032123     -3.0837432      16.333702    
    823000   1.8477614     -0.0016701715   1000000        0.0015667781  -0.0049102672  -0.0016670253   16.0293       -3.0797178      16.337499    
    824000   1.8399802     -0.0029596084   1000000       -0.0056286926   0.00037021151 -0.0036203442   16.015693     -3.0850081      16.340854    
    825000   1.8481885      0.0019855499   1000000       -0.0016965078   0.0039604919   0.0036926656   16.016137     -3.0725554      16.316532    
    826000   1.8382915      0.0022673679   1000000       -0.0012208593   0.0027174463   0.0053055166   16.022092     -3.0702334      16.33501     
    827000   1.8432312      0.0010290347   1000000        0.001096929   -0.00074211446  0.0027322895   16.009929     -3.0813467      16.326551    
    828000   1.856515       0.001605617    1000000        0.00082525432  0.0041184855  -0.00012688865  16.02596      -3.0791314      16.320442    
    829000   1.8413305     -0.00075107223  1000000       -0.00033362284 -0.0001263163  -0.0017932776   16.021511     -3.0806924      16.34033     
    830000   1.8442656      0.0013396423   1000000        0.00084336879  0.0027988596   0.00037669839  16.019608     -3.091805       16.345138    
    831000   1.8553768     -0.0022118969   1000000       -0.0015392401  -0.0016464252  -0.0034500252   16.01913      -3.0904152      16.326604    
    832000   1.8418889      0.0022704973   1000000        0.0015812054   0.0039391589   0.0012911275   16.013555     -3.0929536      16.343798    
    833000   1.8528723     -0.0039522319   1000000       -0.0013674085  -0.0047907288  -0.0056985583   16.015914     -3.1002357      16.336964    
    834000   1.8400469      0.00096253007  1000000        0.00048488861  0.0010308947   0.0013718069   15.998465     -3.0857976      16.324314    
    835000   1.8442614      0.0015544701   1000000        0.0019634328   0.00037305382  0.0023269237   15.996226     -3.0901507      16.320108    
    836000   1.8423586     -8.4103888e-05  1000000       -0.0022428836   0.00012629213  0.0018642798   15.988068     -3.0990194      16.323673    
    837000   1.8277189     -0.0056415968   1000000       -0.0055827807  -0.0059729816  -0.0053690282   15.987085     -3.0937704      16.339399    
    838000   1.8342496      0.0018952971   1000000        0.0016644337  -0.00041504987  0.0044365076   15.996873     -3.0871349      16.332755    
    839000   1.8426792     -0.00055764261  1000000       -0.005265649    0.0010399371   0.0025527841   16.006505     -3.1038363      16.346445    
    840000   1.8392091     -0.0021274242   1000000       -0.0013822571  -7.7635307e-05 -0.0049223802   15.998825     -3.1079766      16.348111    
    841000   1.8482561     -0.00047878897  1000000       -0.0023702481  -0.0012872785   0.0022211596   16.00674      -3.1118455      16.346325    
    842000   1.8557612     -0.0011390149   1000000       -0.00021593766 -0.0018029492  -0.0013981578   16.006916     -3.1090046      16.332403    
    843000   1.8476219      0.00082070215  1000000        0.00022033202  0.00097272247  0.001269052    16.00386      -3.1021298      16.33468     
    844000   1.851199       0.0018404115   1000000        0.0020372895   0.00016994616  0.0033139989   16.007781     -3.1065041      16.33761     
    845000   1.8534364      0.00027656398  1000000        0.00061287871 -0.0019500306   0.0021668439   16.011152     -3.0962291      16.32735     
    846000   1.8300595      0.0013522963   1000000        0.00046519209  0.0034088051   0.00018289153  15.992992     -3.084899       16.332924    
    847000   1.838537      -0.002759174    1000000       -0.006383413    0.0016334087  -0.0035275178   15.995403     -3.0930514      16.330771    
    848000   1.8345961      0.00061520751  1000000        0.0022139242   0.001033389   -0.0014016906   15.979717     -3.0944466      16.322392    
    849000   1.830847       0.0014842191   1000000        0.0024627211   0.0024794143  -0.00048947805  15.972408     -3.0984705      16.32473     
    850000   1.830015       0.0016581164   1000000        0.0032884322   0.0041809459  -0.0024950289   15.977492     -3.0931473      16.325739    
    851000   1.8333043      0.0010871502   1000000       -0.0029264517   0.0079223943  -0.001734492    15.978005     -3.0899428      16.318113    
    852000   1.8388787      0.0019411803   1000000        0.00080257336  0.0011341217   0.0038868458   15.963765     -3.107564       16.313134    
    853000   1.8314139     -0.0027582299   1000000       -0.0058983999  -0.0042025463   0.0018262563   15.960728     -3.1064095      16.320139    
    854000   1.8307066     -0.0018497381   1000000       -0.001462929   -0.0011865101  -0.0028997752   15.970154     -3.115399       16.339615    
    855000   1.8410428     -0.001900445    1000000       -9.2946027e-05 -0.0019011842  -0.0037072048   15.965366     -3.1252274      16.329152    
    856000   1.842896       0.003691561    1000000        0.0087495297   0.0013173589   0.0010077944   15.96733      -3.1221486      16.325257    
    857000   1.8214222      0.000717371    1000000        0.00027966528 -0.0014625607   0.0033350084   15.955337     -3.122418       16.345743    
    858000   1.8313504     -0.0010308414   1000000       -0.0010450139  -0.0024180711   0.00037056079  15.950939     -3.1252705      16.329306    
    859000   1.8361014      0.0013236559   1000000        0.00085032094  0.005568653   -0.0024480061   15.95697      -3.1297242      16.332664    
    860000   1.8420102     -0.0017624819   1000000        0.0011161882  -0.0032260792  -0.0031775547   15.972388     -3.1260184      16.335513    
    861000   1.8454391     -4.0638867e-05  1000000        0.0022039577  -0.0015931168  -0.00073275747  15.981928     -3.1354757      16.349368    
    862000   1.8498791      0.0026487281   1000000        0.0033961592  -0.00014227272  0.0046922979   15.958977     -3.1513481      16.33563     
    863000   1.8590237      0.0021197303   1000000        0.0014142625   0.0034882971   0.0014566314   15.964663     -3.1607109      16.336962    
    864000   1.8476193      0.0028575142   1000000        0.0052478466   0.0036456126  -0.00032091668  15.952543     -3.1568365      16.338074    
    865000   1.8352177     -0.0034447007   1000000       -0.0046003539  -0.005939779    0.00020603078  15.967698     -3.1454062      16.3604      
    866000   1.8500552     -0.0011117728   1000000       -0.0035483771  -0.0017009977   0.0019140563   15.97374      -3.1386176      16.337398    
    867000   1.8420965      0.00069699845  1000000       -0.00028708433  0.0013298227   0.001048257    15.976764     -3.1263769      16.340119    
    868000   1.8591686     -0.0025299581   1000000       -0.0061562239  -0.0012693131  -0.00016433717  15.9724       -3.145523       16.329294    
    869000   1.8434336     -0.0023910262   1000000       -0.0030785604   0.00013911307 -0.0042336314   15.96558      -3.1312271      16.33178     
    870000   1.8448944      0.0012135643   1000000       -0.00041480646 -0.00036390892  0.0044194083   15.960521     -3.1402153      16.333518    
    871000   1.8457778     -0.00054502479  1000000        0.00026082857 -0.001751999   -0.00014390397  15.953468     -3.160401       16.345325    
    872000   1.8299175      0.0017527815   1000000       -0.0012548366   0.002454646    0.0040585352   15.927589     -3.1481838      16.331019    
    873000   1.8392409      0.0004053878   1000000       -0.0016825746   0.00023361199  0.002665126    15.939209     -3.1430822      16.323553    
    874000   1.8419496     -0.00091332676  1000000       -0.0023330734  -0.0013434209   0.00093651405  15.946404     -3.1376855      16.321288    
    875000   1.8411355     -0.00050791228  1000000       -0.0015163835   0.00034940487 -0.00035675823  15.951661     -3.1441724      16.334253    
    876000   1.8581561     -0.00021382414  1000000       -0.0041657317   0.00090458281  0.0026196765   15.968001     -3.1563202      16.337211    
    877000   1.8664646      0.0018457549   1000000        0.00067383015  0.0025526735   0.002310761    15.975349     -3.1586706      16.334447    
    878000   1.8699299      0.0018587394   1000000        0.0023345794   0.001237336    0.0020043029   15.975381     -3.1608934      16.331505    
    879000   1.8557503      0.00029839366  1000000        0.0040020314  -0.0035825057   0.00047565522  15.962009     -3.1547861      16.333293    
    880000   1.8535543     -0.0013438658   1000000       -0.0034572714  -6.2091e-05    -0.00051223512  15.98211      -3.1417519      16.343654    
    881000   1.8571393      0.0026171728   1000000        0.00055861475  0.0038086165   0.003484287    15.984524     -3.1389637      16.337903    
    882000   1.8538955     -0.00041506766  1000000       -0.0037495811  -0.00048544023  0.0029898183   15.981359     -3.1431472      16.343787    
    883000   1.8569489     -0.00064982064  1000000       -0.0010875205  -0.0028117965   0.001949855    15.987965     -3.155592       16.358258    
    884000   1.8514678      0.001236045    1000000        0.0033483478   0.00087902115 -0.00051923387  15.974276     -3.1513309      16.348529    
    885000   1.8572883     -0.00072934746  1000000       -0.00032211243  0.0017017111  -0.003567641    15.968073     -3.1461859      16.32845     
    886000   1.860212      -0.0016466225   1000000       -0.00031807123 -0.0039726241  -0.00064917234  15.964293     -3.1642353      16.338334    
    887000   1.8598068     -0.0003395076   1000000       -0.0008973189  -0.0020609033   0.0019396994   15.969912     -3.1556059      16.335931    
    888000   1.8437638      0.0024249546   1000000        0.0006456072   0.0044672449   0.0021620116   15.967424     -3.1374005      16.339301    
    889000   1.864438      -0.0031724745   1000000       -0.0030154098  -0.002958105   -0.0035439087   15.980289     -3.1447263      16.328483    
    890000   1.8580692      0.0022349154   1000000        0.0034539988   0.0045680006  -0.001317253    15.974205     -3.1589649      16.34619     
    891000   1.8783691      0.0019710583   1000000        0.0015579765  -0.00019340347  0.004548602    15.981516     -3.1781103      16.342198    
    892000   1.8703841      0.00096541508  1000000       -0.00027701395  9.4320235e-05  0.003078939    15.985557     -3.1551975      16.335303    
    893000   1.8608375     -0.0022571562   1000000       -0.0011861512  -0.0054981628  -8.7154743e-05  15.983369     -3.1524086      16.344645    
    894000   1.8476526     -0.0042474521   1000000       -0.0010276322  -0.007542296   -0.0041724282   15.972066     -3.1406492      16.341359    
    895000   1.8452062     -0.0020933192   1000000       -0.0044565974  -0.0015844097  -0.00023895041  15.970514     -3.1454705      16.348298    
    896000   1.8621054     -0.0023118791   1000000       -0.00157927    -0.00012049253 -0.0052358747   15.975144     -3.1536618      16.335772    
    897000   1.8648724     -0.0028299409   1000000       -0.0017788804  -0.002588291   -0.0041226512   15.991441     -3.1549557      16.349213    
    898000   1.8570119     -0.0010286748   1000000        0.0009039216  -0.0051385148   0.0011485689   15.993644     -3.1545526      16.362803    
    899000   1.8567218      0.00090062727  1000000        0.0032350992   0.00083577858 -0.0013689959   15.98248      -3.1640686      16.36159     
    900000   1.854619      -0.0014614395   1000000        0.00030502468 -0.0041527174  -0.00053662566  15.979522     -3.1586505      16.356367    
    901000   1.8522238      0.0034353253   1000000        0.0029313635   0.0029740602   0.0044005522   15.968201     -3.1566294      16.346618    
    902000   1.8570565     -0.0007903034   1000000       -3.007537e-06  -0.00097808006 -0.0013898226   15.971083     -3.1677432      16.353365    
    903000   1.8469281     -0.004371402    1000000       -0.003537701   -0.0070644533  -0.0025120516   15.977934     -3.1588531      16.366518    
    904000   1.8630813      0.0029077301   1000000        0.004098139    0.00048971554  0.0041353359   15.962482     -3.1577505      16.325735    
    905000   1.852095       0.0027996789   1000000        0.0059619871  -0.00061072796  0.0030477775   15.968882     -3.1526099      16.343473    
    906000   1.8605471     -0.00091611094  1000000        0.0006312132  -0.0019106915  -0.0014688546   15.980059     -3.1441898      16.333552    
    907000   1.8526995      0.00080717703  1000000       -0.0024412896   0.00038719559  0.0044756251   15.969189     -3.1491744      16.339437    
    908000   1.8528596      0.0041641272   1000000        0.0056958268   0.0051761265   0.0016204282   15.955119     -3.1554355      16.331389    
    909000   1.8439078      0.0012412193   1000000       -0.0022179223   0.006319586   -0.00037800576  15.939125     -3.1583287      16.331715    
    910000   1.837187       0.0040548813   1000000        0.003833589    0.003932083    0.0043989719   15.936546     -3.1614354      16.342324    
    911000   1.8484227     -0.0024074752   1000000       -0.0040502421  -0.0013710167  -0.0018011669   15.934441     -3.158978       16.320908    
    912000   1.8608016     -0.0014738319   1000000        0.0013083763  -0.0021893517  -0.0035405202   15.936482     -3.1656557      16.31106     
    913000   1.8508573      0.00055629745  1000000        0.00077453683 -9.1101554e-05  0.00098545708  15.934363     -3.1737855      16.331986    
    914000   1.8478235     -0.0034650329   1000000       -0.0038029004  -0.004242611   -0.0023495872   15.934204     -3.1831104      16.345702    
    915000   1.845326      -0.00045612002  1000000        0.00044511779 -0.0013036763  -0.00050980152  15.93078      -3.1807125      16.343626    
    916000   1.8382246     -0.0011366979   1000000       -0.00085028059  0.00016228457 -0.0027220977   15.927995     -3.1707269      16.341507    
    917000   1.8313799      0.00091791169  1000000        0.00093310198 -0.001152992    0.002973625    15.926477     -3.1687624      16.348291    
    918000   1.8574018      0.002688099    1000000        0.0025920155   0.0038627647   0.0016095168   15.925595     -3.1809201      16.320536    
    919000   1.8544323     -0.0014696481   1000000       -0.00023164121 -0.0024854653  -0.0016918377   15.928083     -3.1853533      16.331911    
    920000   1.853606       0.0032680504   1000000        0.0012039307   0.0049422386   0.003657982    15.913441     -3.1895818      16.322738    
    921000   1.8462859     -0.0021690192   1000000        0.0011188218  -0.0031881422  -0.0044377372   15.90081      -3.1837554      16.31526     
    922000   1.8554033     -0.00076652203  1000000       -0.00094211339 -0.0013320068  -2.5445863e-05  15.917061     -3.1868742      16.320954    
    923000   1.8531692      0.0004918277   1000000       -0.00083354669  0.0023454413  -3.6411484e-05  15.920141     -3.1820198      16.322531    
    924000   1.8543609      0.00055296291  1000000       -0.00075943826  0.0028169734  -0.00039864635  15.922067     -3.1812792      16.321929    
    925000   1.849153      -0.00015639666  1000000        0.0014002593  -0.00092085051 -0.00094859879  15.927143     -3.1765269      16.330064    
    926000   1.8461853      0.002639291    1000000       -0.0023207219   0.0056530889   0.004585506    15.934932     -3.1633085      16.329085    
    927000   1.8507153      0.00084501184  1000000        0.0051626402  -0.00036683318 -0.0022607715   15.928882     -3.1781627      16.331095    
    928000   1.8657116      0.0021928465   1000000        0.0040760959   0.0016784583   0.00082398538  15.935695     -3.1891245      16.326376    
    929000   1.8462294      0.0014619067   1000000       -0.0010124212   0.0036909024   0.001707239    15.926775     -3.187333       16.344887    
    930000   1.8532389     -0.00069134217  1000000       -0.00093036884  0.00084255185 -0.0019862095   15.920274     -3.1967468      16.337286    
    931000   1.8491099      0.0015297379   1000000        0.00051504818  0.00085073348  0.003223432    15.906789     -3.2038167      16.337064    
    932000   1.8434209     -0.002150343    1000000       -0.0040921978  -0.0014061648  -0.00095266654  15.916533     -3.1917978      16.343322    
    933000   1.8562181     -0.00072257112  1000000        2.096338e-05   0.00018116093 -0.0023698377   15.940275     -3.1897036      16.345775    
    934000   1.8645326     -0.00149492     1000000        0.0020991225  -0.0039955166  -0.002588366    15.948235     -3.1905149      16.342076    
    935000   1.8496309     -7.6585897e-05  1000000       -0.00054471292 -0.0012963448   0.0016113      15.925173     -3.1907984      16.341648    
    936000   1.8600442      0.0045041108   1000000        0.006966904    0.0020918301   0.0044535982   15.90969      -3.2080918      16.327839    
    937000   1.8472113     -0.0009736012   1000000       -0.0010759357  -0.00059903935 -0.0012458285   15.903208     -3.2084306      16.340945    
    938000   1.8512085     -0.0031595073   1000000       -0.0054358686  -0.0013965729  -0.0026460803   15.890953     -3.2126096      16.326873    
    939000   1.8462991     -0.0018725613   1000000       -0.0048547541   0.0011799921  -0.0019429219   15.889956     -3.1997953      16.320426    
    940000   1.8433442     -0.0042461019   1000000       -0.0069730599   0.00037491164 -0.0061401574   15.899213     -3.2025488      16.336869    
    941000   1.84628       -0.0013174007   1000000       -0.0015739866   0.00089855564 -0.0032767712   15.908434     -3.1933466      16.332484    
    942000   1.8559349      0.0006183648   1000000        0.00071755759  0.00013726872  0.0010002681   15.908802     -3.2064485      16.331471    
    943000   1.852925      -0.00187126     1000000       -0.0016164211  -0.0014134194  -0.0025839396   15.894874     -3.2126722      16.328283    
    944000   1.8395799      0.00081724423  1000000        0.0016364993   3.859703e-05   0.00077663636  15.882276     -3.2020132      16.325042    
    945000   1.8492469     -6.904636e-05   1000000       -0.00046565504 -0.00030035464  0.00055887061  15.902744     -3.2016105      16.330608    
    946000   1.8541709      2.1964966e-05  1000000        0.00026812904  0.00055767202 -0.00075990616  15.907191     -3.2060799      16.332138    
    947000   1.8485699     -6.7844708e-05  1000000        0.0013774684   0.00067182796 -0.0022528305   15.919325     -3.1963521      16.342946    
    948000   1.8545503     -0.0039773199   1000000       -0.0046913397  -0.0056093808  -0.0016312394   15.933137     -3.2029897      16.354425    
    949000   1.8559543     -0.00011222858  1000000       -0.00085534876  0.0019457024  -0.0014270393   15.934326     -3.1916964      16.342214    
    950000   1.8565362     -0.00090726279  1000000        0.00068450177 -0.0019355578  -0.0014707323   15.925419     -3.2019627      16.342702    
    951000   1.8489611     -0.003118912    1000000       -0.0035902692  -0.0048296992  -0.00093676765  15.918586     -3.1972084      16.342476    
    952000   1.8618515      0.0022261027   1000000        0.0007774716   0.0019727237   0.003928113    15.923001     -3.2150046      16.345353    
    953000   1.8664621      0.0015639401   1000000        0.0024032486   0.002165033    0.00012353863  15.921439     -3.2117274      16.333598    
    954000   1.8620404     -0.00053919313  1000000        0.003813771    0.001347652   -0.0067790024   15.916382     -3.2119417      16.335387    
    955000   1.8471242     -0.0036366578   1000000       -0.0017326294  -0.0023377666  -0.0068395773   15.90568      -3.2039681      16.339085    
    956000   1.8522808     -0.0025125427   1000000       -0.0050305646  -0.0025159509   8.8871909e-06  15.913866     -3.2037453      16.339313    
    957000   1.8487721      0.00268935     1000000        0.0050480833  -0.0018221147   0.0048420814   15.916286     -3.1936302      16.336881    
    958000   1.8425929      0.001873636    1000000        0.0044232666  -0.0019958632   0.0031935046   15.904514     -3.2119055      16.352653    
    959000   1.8481049      0.00031915914  1000000       -0.0006797903   0.0013070035   0.00033026427  15.894445     -3.2201022      16.342513    
    960000   1.8412929     -0.00077344185  1000000        0.0015724585  -0.0019845426  -0.0019082414   15.878928     -3.2169351      16.334047    
    961000   1.8365456     -0.0025064607   1000000       -0.0013335992  -0.0018961221  -0.004289661    15.864697     -3.2087281      16.31873     
    962000   1.8504627      0.00298031     1000000        0.0034760151  -0.00045187116  0.0059167861   15.858383     -3.2203845      16.303197    
    963000   1.8469745     -0.0018580233   1000000       -0.0014802564  -0.0046076936   0.00051388013  15.863197     -3.2209983      16.313857    
    964000   1.8358764      0.00045029916  1000000        0.0021868188  -0.00089620162  6.0280344e-05  15.85733      -3.2173974      16.321036    
    965000   1.8430866      0.0015806367   1000000        0.0039853696   0.00069406122  6.2479381e-05  15.867666     -3.2130222      16.316181    
    966000   1.8399597      0.00050686559  1000000        0.0025479187  -0.0010508161   2.3494177e-05  15.87302      -3.2201019      16.333306    
    967000   1.8370287      0.0045847547   1000000        0.0067062728   0.004087548    0.0029604434   15.856946     -3.2168479      16.318374    
    968000   1.8409169      0.00082324511  1000000        0.0020191664  -0.00033299113  0.00078356008  15.880151     -3.2192732      16.338171    
    969000   1.8495992     -0.00077601755  1000000        0.0015501607  -0.0008082253  -0.003069988    15.881208     -3.2163428      16.323275    
    970000   1.838813       0.00092978892  1000000        0.0031927586   0.00018007769 -0.00058346955  15.876384     -3.2206955      16.338983    
    971000   1.8394927     -0.0040086869   1000000       -0.0031859141  -0.0077003482  -0.0011397985   15.868234     -3.2196903      16.328808    
    972000   1.8394239      0.00067934574  1000000       -0.0011191639   5.2522876e-05  0.0031046782   15.870093     -3.2280633      16.339143    
    973000   1.8451709      0.0015744307   1000000        0.0020052027  -0.00084326958  0.003561359    15.861999     -3.2335541      16.327919    
    974000   1.8367913      0.0017971824   1000000        0.0027273852   0.00036307958  0.0023010824   15.86196      -3.2318377      16.338733    
    975000   1.8526464     -0.0015066955   1000000       -0.0036676537  -0.0027122674   0.0018598347   15.87791      -3.2352612      16.334325    
    976000   1.8436308     -0.00047464086  1000000       -0.0022637674  -0.00079286112  0.001632706    15.866156     -3.2248055      16.325638    
    977000   1.866456      -0.00070001489  1000000        0.00057228963  0.0011710154  -0.0038433497   15.879666     -3.2401687      16.320275    
    978000   1.8591379      0.00058362848  1000000        0.0018513262   0.00018223327 -0.00028267407  15.886566     -3.2230229      16.321006    
    979000   1.8572287     -0.0033314825   1000000       -0.004705837   -0.0006279961  -0.0046606143   15.883853     -3.2237616      16.321895    
    980000   1.8335912     -0.0014291745   1000000       -0.0023442268   0.00085381247 -0.002797109    15.867922     -3.2181352      16.335792    
    981000   1.8434907     -0.0033904116   1000000       -0.0029196194  -0.002975978   -0.0042756375   15.85503      -3.2287689      16.318686    
    982000   1.8424017      0.0015704687   1000000        0.0016701627   0.0004007571   0.0026404862   15.849151     -3.2391206      16.324792    
    983000   1.8440954      0.0020658985   1000000        0.0030067467   0.0026225537   0.00056839509  15.84098      -3.2469669      16.321927    
    984000   1.8291275      0.0010453465   1000000        0.0014302558  -0.0014892822   0.0031950658   15.853979     -3.2352748      16.345685    
    985000   1.8270179     -0.0012310839   1000000       -0.0030317824   0.00025185657 -0.00091332596  15.858962     -3.2279917      16.346548    
    986000   1.8264473      0.0009345033   1000000       -0.00033656769  0.0037429644  -0.00060288685  15.859615     -3.2301429      16.350209    
    987000   1.8417483      0.0027815912   1000000        0.001190953    0.0058878781   0.0012659425   15.854164     -3.2395064      16.331171    
    988000   1.8429719      0.00077260637  1000000        0.0011812225   0.0012114731  -7.4876443e-05  15.84234      -3.2466045      16.32461     
    989000   1.8334293     -0.00040890959  1000000       -0.00079583642  0.0025238078  -0.0029547001   15.829643     -3.237394       16.317016    
    990000   1.8344341     -0.0019965699   1000000        6.7824413e-05 -0.0043546065  -0.0017029277   15.8351       -3.2594419      16.343013    
    991000   1.8382178      0.002277577    1000000        0.0014764479   0.00074065962  0.0046156236   15.840492     -3.2481931      16.331481    
    992000   1.8368703      0.0034703964   1000000        0.0039451664   0.0032270952   0.0032389275   15.839841     -3.2491347      16.333792    
    993000   1.8387443      0.00073557649  1000000        0.0023922187  -0.00011645516 -6.9034092e-05  15.836703     -3.2533588      16.332068    
    994000   1.8504201      0.0024826703   1000000        0.0035843625  -0.00017242632  0.0040360746   15.84839      -3.2619367      16.33482     
    995000   1.8621741     -0.00080695263  1000000        0.00080133311 -0.0001286582  -0.0030935328   15.867732     -3.2458748      16.32047     
    996000   1.8499333      0.00089388146  1000000       -0.0015336354   0.0049572947  -0.00074201491  15.859612     -3.258103       16.342938    
    997000   1.8454246     -0.0026634234   1000000       -0.0030491453  -0.0012653054  -0.0036758196   15.854235     -3.2641517      16.350372    
    998000   1.8531461      0.0024431824   1000000       -0.00029968674  0.0018722765   0.0057569576   15.843926     -3.2602846      16.324615    
    999000   1.8346841      0.0018420966   1000000        0.003078796   -5.3153628e-05  0.0025006474   15.828271     -3.2538089      16.330176    
   1000000   1.8406036      0.0058019804   1000000        0.0084177145   0.0042038561   0.0047843706   15.820587     -3.2590275      16.318831    
   1001000   1.8315181      0.0012916376   1000000        0.00097301062  0.0027751282   0.00012677392  15.82753      -3.254644       16.335019    
   1002000   1.8343734     -0.0017348098   1000000        0.00039402514 -0.004101114   -0.0014973404   15.826486     -3.2551512      16.330199    
   1003000   1.8352643     -0.0024143633   1000000       -0.0023792967  -0.0043761051  -0.000487688    15.825682     -3.2536868      16.326594    
   1004000   1.8417128     -0.003818487    1000000       -0.0032228864  -0.0066368572  -0.0015957174   15.831641     -3.258498       16.327693    
   1005000   1.8345573     -0.00089806627  1000000       -0.00077374834  2.7811181e-05 -0.0019482616   15.829235     -3.2455977      16.323119    
   1006000   1.8296167      0.0011391513   1000000        0.001871332    5.3639261e-05  0.0014924828   15.816047     -3.260378       16.332122    
   1007000   1.8268377     -0.00018255597  1000000       -0.0033794427   0.0013406874   0.0014910874   15.825413     -3.2524401      16.337719    
   1008000   1.8168126     -0.0027608877   1000000       -0.0051727141  -0.0015015895  -0.0016083596   15.808641     -3.2446751      16.328218    
   1009000   1.8308193     -0.0022782891   1000000       -0.0033015627  -0.00078587685 -0.0027474277   15.812653     -3.2480423      16.314588    
   1010000   1.8284154     -0.00029188201  1000000        0.0016659062  -0.0011703414  -0.0013712109   15.832098     -3.2427055      16.332302    
   1011000   1.8561925      0.0006008563   1000000        0.0021521523  -0.0014543659   0.0011047824   15.86625      -3.2408799      16.322965    
   1012000   1.8448933      0.00064193164  1000000       -0.00030431658  0.00073463698  0.0014954745   15.856248     -3.2383307      16.327362    
   1013000   1.8322776     -0.00029392948  1000000        0.0019961807  -0.0025171041  -0.00036086499  15.840885     -3.241359       16.33395     
   1014000   1.831648      -0.00010890041  1000000        0.0016377713   0.00024544844 -0.0022099209   15.847535     -3.2341722      16.334357    
   1015000   1.8282738     -0.0021412048   1000000       -0.0026316059  -0.0037903165  -1.6918632e-06  15.847181     -3.2378239      16.342716    
   1016000   1.8434301      0.0022904239   1000000        0.0055222839   0.0012905805   5.8407323e-05  15.856987     -3.2438927      16.335858    
   1017000   1.8393633     -0.0028962836   1000000       -0.0040057889  -0.0011613686  -0.0035216934   15.842762     -3.2367469      16.320587    
   1018000   1.8364725      0.0010739978   1000000        0.0018811803   0.0003918514   0.00094896167  15.845661     -3.2382493      16.329324    
   1019000   1.8376888     -0.00023295781  1000000       -0.0021683671  -0.0009592637   0.0024287574   15.826364     -3.2451287      16.315082    
   1020000   1.8404902      0.0008245258   1000000        0.00050791158  0.0028405106  -0.00087484474  15.819275     -3.2567045      16.315367    
   1021000   1.8356061      0.00099707372  1000000        0.0022732032   0.00014506766  0.00057295036  15.818594     -3.2602462      16.325553    
   1022000   1.8464548     -0.00065736871  1000000        0.0017716275  -0.0020961839  -0.0016475497   15.829733     -3.2561467      16.316321    
   1023000   1.8248343     -0.0015782501   1000000       -0.0017595487   0.00031548579 -0.0032906874   15.831265     -3.240466       16.334601    
   1024000   1.8204897      0.0021544379   1000000        0.0024660679   0.0034308022   0.00056644342  15.813142     -3.2490831      16.331612    
   1025000   1.8299906     -0.0010555588   1000000       -0.0035343261   0.00040635993 -3.8710391e-05  15.811802     -3.2572771      16.324215    
   1026000   1.8305035     -0.0047538213   1000000       -0.0017685139  -0.0055228359  -0.006970114    15.815924     -3.2601514      16.330442    
   1027000   1.838388      -0.00022918307  1000000        0.0033378943  -0.0019817319  -0.0020437116   15.809742     -3.2735061      16.325789    
   1028000   1.8302433      0.0010820204   1000000        0.0039631915   0.0020835355  -0.0028006657   15.808849     -3.2781634      16.341769    
   1029000   1.8370477      0.00064158497  1000000       -0.0014841983   0.0019184759   0.0014904774   15.802581     -3.2667769      16.313909    
   1030000   1.8254958     -0.0048829138   1000000       -0.0081549912  -0.0041722926  -0.0023214575   15.796544     -3.2697663      16.328188    
   1031000   1.8247754      0.00035047447  1000000        0.001409877   -2.6565951e-05 -0.00033188764  15.790563     -3.2743546      16.327877    
   1032000   1.817074       0.00065771612  1000000       -0.00051055504  0.0010088027   0.0014749007   15.77389      -3.2827401      16.331141    
   1033000   1.8313698     -0.00026416839  1000000       -0.00075471023 -0.0016740902   0.0016362952   15.770201     -3.2986007      16.32187     
   1034000   1.8189167      0.001471025    1000000        0.0039387595  -0.0014721415   0.0019464569   15.76797      -3.2827883      16.322505    
   1035000   1.8305157      0.00085305123  1000000        0.0058482657  -0.0022280452  -0.0010610668   15.773092     -3.285542       16.312983    
   1036000   1.8151446     -2.4048896e-05  1000000        0.0013090208   0.00067506739 -0.0020562349   15.756501     -3.2844016      16.318306    
   1037000   1.8157585     -0.0022477029   1000000       -0.00092138996 -0.0025110738  -0.0033106448   15.750296     -3.2757404      16.302519    
   1038000   1.8196356      2.4221189e-05  1000000       -0.002626694    0.00053063373  0.0021687238   15.758459     -3.2826852      16.311812    
   1039000   1.8201815      0.0014395753   1000000       -0.00058048066  0.0021437439   0.0027554627   15.772556     -3.2737347      16.31614     
   1040000   1.815043       0.0017806312   1000000        0.0041899011   0.0011543966  -2.404071e-06   15.782425     -3.2622832      16.322265    
   1041000   1.8231006      0.0022495341   1000000        0.0056848076   0.0021043242  -0.0010405295   15.781942     -3.2705907      16.318003    
   1042000   1.8218389      8.9367414e-05  1000000        0.00079453148 -0.0017776849   0.0012512557   15.771698     -3.2808674      16.319928    
   1043000   1.8447441      0.0029034221   1000000        0.0033019588  -0.0004090039   0.0058173114   15.78812      -3.2868983      16.308025    
   1044000   1.8330218      0.00044677263  1000000        0.0016005049   0.00055291867 -0.00081310566  15.778473     -3.2846525      16.313715    
   1045000   1.8201234      0.0036672758   1000000        0.00085632835  0.0066543238   0.0034911752   15.780806     -3.2760065      16.326748    
   1046000   1.8329206     -0.00033287767  1000000       -0.0043428794   0.0013612483   0.0019829981   15.788625     -3.2771187      16.316485    
   1047000   1.8311641     -0.0016090073   1000000       -0.004898493    0.00081573193 -0.00074426084  15.791815     -3.2808021      16.325993    
   1048000   1.8418622      0.0029590962   1000000       -0.00019400339  0.0056746598   0.0033966321   15.79415      -3.2866176      16.318097    
   1049000   1.837256      -0.00099029338  1000000       -0.00078610241 -0.0015560141  -0.00062876367  15.789799     -3.2884323      16.32247     
   1050000   1.8404304      3.9256666e-05  1000000        0.0023343478  -0.00065019783 -0.00156638     15.791967     -3.2919368      16.323381    
   1051000   1.8416712      0.00084820157  1000000        0.00010819612  0.0019551789   0.00048122968  15.795274     -3.2814922      16.314382    
   1052000   1.8366799      0.00079748866  1000000       -0.0028967581   0.0037405626   0.0015486615   15.785733     -3.2801148      16.31095     
   1053000   1.8462672     -0.001832653    1000000       -0.0029448309  -0.0019758408  -0.00057728743  15.791506     -3.2956572      16.317886    
   1054000   1.8373583     -0.00042904394  1000000       -0.0024652558  -8.0402988e-05  0.001258527    15.792014     -3.2781472      16.314246    
   1055000   1.8368596     -0.0012619624   1000000       -0.0045947962   0.002319917   -0.001511008    15.784716     -3.2893887      16.318938    
   1056000   1.8328117      0.0018392539   1000000        0.003134101    0.001794951    0.00058870979  15.783049     -3.2835889      16.317542    
   1057000   1.8331963     -0.004768043    1000000        0.00087777464 -0.010083776   -0.0050981282   15.787571     -3.2973699      16.335269    
   1058000   1.8234929     -0.00096319455  1000000        0.0015734314  -0.00099478124 -0.0034682338   15.777711     -3.294503       16.337096    
   1059000   1.8297677     -0.0040006663   1000000       -0.0055912052  -0.0019401048  -0.0044706889   15.762615     -3.2951663      16.313252    
   1060000   1.8292006     -0.00012589138  1000000       -0.0019109337   0.0015145866   1.8672946e-05  15.770874     -3.2958073      16.323002    
   1061000   1.824528      -0.00056610601  1000000        0.00085985822 -0.0033636448   0.00080546855  15.754751     -3.3044679      16.322549    
   1062000   1.8310452      0.00057530303  1000000        0.0025885084   0.00080222026 -0.0016648195   15.7614       -3.3061618      16.321116    
   1063000   1.8417144     -0.0042518341   1000000       -0.0020688175  -0.0053794262  -0.0053072585   15.772171     -3.3172675      16.32699     
   1064000   1.8368919      0.0034555757   1000000        0.0065500012   0.0015409356   0.0022757902   15.771397     -3.3152609      16.331443    
   1065000   1.8549632     -0.0021227094   1000000       -0.0017898423  -0.002770751   -0.0018075351   15.784293     -3.3345029      16.336474    
   1066000   1.8368892     -0.0010066294   1000000       -0.0011461123   0.00010229521 -0.0019760711   15.787072     -3.3027098      16.334571    
   1067000   1.8456981      0.0017784124   1000000        0.0015093072   0.0021215046   0.0017044252   15.785285     -3.311857       16.328718    
   1068000   1.8463533      0.0051225256   1000000        0.0047242154   0.0076318042   0.0030115573   15.795221     -3.3016945      16.327509    
   1069000   1.8526084      0.0011588118   1000000        0.0038359255  -0.00015428352 -0.00020520666  15.800422     -3.3091962      16.330829    
   1070000   1.8503655      0.0021589552   1000000        0.0028701651   0.001745642    0.0018610584   15.806745     -3.3011761      16.332496    
   1071000   1.8308788     -0.00089583933  1000000       -0.0001590157  -0.0024132166  -0.00011528571  15.800694     -3.2886038      16.343102    
   1072000   1.842171       0.0012913894   1000000        0.0016484566  -0.00025207137  0.002477783    15.794357     -3.295394       16.326617    
   1073000   1.8427336     -0.00029582863  1000000        0.00036466016  0.00061793888 -0.0018700849   15.794758     -3.3111221      16.341902    
   1074000   1.8403151     -0.0017645651   1000000        0.00013493588 -0.0014129053  -0.0040157258   15.802231     -3.3147164      16.356598    
   1075000   1.8517893      0.00088545588  1000000       -0.001224398    0.0013120274   0.0025687382   15.80408      -3.3160046      16.342524    
   1076000   1.8526104      0.00028583061  1000000       -0.001888921   -0.00042106254  0.0031674754   15.788005     -3.3139153      16.323129    
   1077000   1.8223074      0.0006729742   1000000        0.00093805614  0.00039496778  0.00068589868  15.772367     -3.3044138      16.343442    
   1078000   1.8351245     -0.0014445544   1000000       -0.00053483324 -0.0023114225  -0.0014874076   15.771905     -3.313325       16.332665    
   1079000   1.8349172     -0.0055951305   1000000       -0.0054990858  -0.010021194   -0.0012651114   15.765713     -3.3093551      16.322814    
   1080000   1.8405344      0.00061623238  1000000        0.0019048937   0.00020159435 -0.00025779091  15.755424     -3.3311448      16.325889    
   1081000   1.8301943     -0.0016234507   1000000       -4.8171328e-05 -0.0040364677  -0.00078571315  15.734759     -3.3349649      16.324554    
   1082000   1.8378287     -0.0017908434   1000000        0.00045115683 -0.0027643976  -0.0030592896   15.738728     -3.3408899      16.322998    
   1083000   1.8331959      0.0026164841   1000000        0.00079948834  0.003864617    0.0031853469   15.726775     -3.3311502      16.308253    
   1084000   1.8234548      0.0013292821   1000000        0.0027713627  -0.0011323362   0.0023488198   15.722886     -3.3312739      16.3191      
   1085000   1.8299319     -0.001982344    1000000       -0.0031224621  -0.00045775818 -0.0023668115   15.726327     -3.331969       16.313521    
   1086000   1.8318018      0.002394601    1000000        0.0024942996   0.0020233985   0.0026661048   15.737041     -3.3177173      16.307178    
   1087000   1.8238743     -0.0033884266   1000000       -0.0029709122  -0.0037393773  -0.0034549904   15.735396     -3.3280723      16.327778    
   1088000   1.8260014     -0.0043609793   1000000       -0.0038230727  -0.0065574405  -0.0027024247   15.751808     -3.3284622      16.34139     
   1089000   1.8273057     -0.0011392501   1000000       -0.00018870655 -0.0019093931  -0.0013196507   15.755136     -3.3304545      16.344754    
   1090000   1.8363306     -0.0010434677   1000000        0.0018675861  -0.00050200054 -0.0044959887   15.760727     -3.3214609      16.327814    
   1091000   1.8364557     -0.00050009901  1000000        0.0022080337  -0.0021491874  -0.0015591434   15.763442     -3.3179367      16.326818    
   1092000   1.8247955     -0.0047044414   1000000       -0.0043279705  -0.00571522    -0.0040701337   15.755391     -3.3194778      16.337797    
   1093000   1.8353927      0.0038310823   1000000        0.0037810998   0.0045003864   0.0032117607   15.75307      -3.3402276      16.34033     
   1094000   1.8413733     -0.0005719423   1000000       -0.0013922504  -0.0011386518   0.0008150753   15.750754     -3.3468136      16.33563     
   1095000   1.8263188     -0.001756704    1000000       -0.0072043196  -0.00323261     0.0051668174   15.742717     -3.3367485      16.340109    
   1096000   1.8297644      0.00099456381  1000000       -0.00027787494 -0.00098250824  0.0042440746   15.733836     -3.3276883      16.317       
   1097000   1.8291824     -0.0050243765   1000000       -0.0047579557  -0.0059123406  -0.0044028333   15.725657     -3.3375247      16.31953     
   1098000   1.8262964      0.00093884209  1000000        0.0011038842   0.0004500883   0.0012625538   15.734637     -3.3347659      16.33008     
   1099000   1.8237373     -0.0017403387   1000000       -0.0019393545  -0.0039749392   0.00069327775  15.729596     -3.3303779      16.324489    
   1100000   1.8356773      0.0022448223   1000000        0.0012587519   0.003281067    0.002194648    15.730076     -3.3413823      16.318065    
   1101000   1.8347824      0.0016251195   1000000        0.0018294581   0.0016032455   0.001442655    15.741596     -3.3452715      16.334816    
   1102000   1.8361746     -0.0010003069   1000000       -0.0036934426   0.0017061235  -0.0010136015   15.738447     -3.3416542      16.325961    
   1103000   1.8347198      3.420278e-05   1000000       -0.0012764175   0.00084719383  0.000531832    15.723136     -3.34237        16.313548    
   1104000   1.8195636     -0.0015467234   1000000       -0.002103158   -0.00039416747 -0.0021428449   15.718971     -3.3386036      16.32835     
   1105000   1.8285753     -0.0033760273   1000000       -0.0055129133  -0.0049330062   0.0003178376   15.735034     -3.336687       16.32898     
   1106000   1.825104      -0.0019890559   1000000       -0.0022756684  -0.0068240589   0.0031325595   15.741386     -3.3338169      16.337668    
   1107000   1.8208467     -0.00098452876  1000000       -0.0022357541  -0.00096813795  0.00025030579  15.720373     -3.3445055      16.33373     
   1108000   1.8341985     -0.00090342973  1000000       -0.0030005897   0.00044096173 -0.00015066116  15.715279     -3.3566983      16.320802    
   1109000   1.8277064     -0.0018089881   1000000       -0.0011718087  -0.002015906   -0.0022392496   15.713291     -3.3458689      16.317722    
   1110000   1.8367796     -0.00010963726  1000000       -0.0035413203   0.000814344    0.0023980645   15.729637     -3.343268       16.317858    
   1111000   1.8429267     -0.0022647719   1000000       -0.0041682904  -0.001573695   -0.0010523302   15.745386     -3.3469361      16.328055    
   1112000   1.8403576      0.0028541319   1000000        0.0043322231   0.0034454933   0.00078467922  15.724664     -3.3552698      16.31952     
   1113000   1.8425388     -7.4439719e-05  1000000        0.0013811369  -0.0033775325   0.0017730765   15.729164     -3.3562149      16.321693    
   1114000   1.8420767     -0.0029870198   1000000       -0.0026996309  -0.0019833264  -0.0042781021   15.723336     -3.3504875      16.310831    
   1115000   1.8206634     -0.0019918156   1000000       -0.00074546354 -0.0023767278  -0.0028532555   15.709393     -3.3454495      16.323969    
   1116000   1.8337748     -0.0015856799   1000000       -3.7956939e-05 -0.0030478901  -0.0016711926   15.718789     -3.3503428      16.318592    
   1117000   1.8417015      0.0033829582   1000000        0.0015659676   0.0028227808   0.005760126    15.712359     -3.3564091      16.306338    
   1118000   1.826902       0.0006797757   1000000       -0.0015981723  -0.0014762337   0.0051137331   15.702754     -3.3534825      16.316005    
   1119000   1.8179882      0.0015693546   1000000        0.0042210183   0.001348517   -0.00086147158  15.706072     -3.34863        16.32784     
   1120000   1.8366785      0.0013989247   1000000        0.0050853493   0.0002262895  -0.0011148646   15.706439     -3.3615435      16.313087    
   1121000   1.8241643      0.00094185016  1000000       -0.0011578168   0.0046059836  -0.00062261636  15.696057     -3.3473931      16.307325    
   1122000   1.8318025      0.0011884399   1000000       -0.00029629912  0.0038475375   1.4081372e-05  15.716521     -3.3387698      16.307709    
   1123000   1.8215234     -0.0015728435   1000000       -0.0018922959   0.0022372038  -0.0050634384   15.706928     -3.3400329      16.314797    
   1124000   1.8326526      0.0005701807   1000000        0.0016927786   0.00042918744 -0.00041142398  15.714072     -3.3507711      16.315986    
   1125000   1.8340005      0.003154363    1000000        0.0044908462   0.0011493253   0.0038229176   15.705821     -3.3571219      16.312065    
   1126000   1.835016       0.0039908244   1000000        0.0040065762   0.0026666995   0.0052991975   15.715279     -3.3634333      16.326311    
   1127000   1.8340729     -1.8244979e-05  1000000        0.0014014611  -0.0012938041  -0.00016239196  15.714911     -3.3692819      16.333206    
   1128000   1.8290305      0.00036722777  1000000        0.00016096655 -0.002249653    0.0031903697   15.711729     -3.3640671      16.332373    
   1129000   1.8272601     -0.00048922678  1000000        0.0012877723  -0.0002640536  -0.002491399    15.716171     -3.3580079      16.333411    
   1130000   1.8341226     -0.00089063355  1000000        1.9546599e-05 -0.0026337568  -5.769044e-05   15.714086     -3.3611254      16.32415     
   1131000   1.8356065      0.0028232784   1000000        0.0013833048   0.0045570081   0.0025295222   15.711642     -3.3574851      16.31584     
   1132000   1.8283504     -0.00068796072  1000000       -0.0028999839   0.0015133308  -0.00067722905  15.709392     -3.3536863      16.320674    
   1133000   1.8336812      0.00087735919  1000000       -0.00054873813  0.002046101    0.0011347147   15.712826     -3.3580101      16.320437    
   1134000   1.8450025      0.0024076115   1000000        0.0064286198   0.0031753879  -0.0023811733   15.712017     -3.3647207      16.309357    
   1135000   1.8202869      0.00014971006  1000000       -0.00035093799  0.0014293334  -0.00062926528  15.691426     -3.3656772      16.326794    
   1136000   1.8347163     -0.00034678442  1000000        0.00040272954 -0.0012058621  -0.00023722073  15.69862      -3.3738077      16.320475    
   1137000   1.8324964     -0.0020193497   1000000        0.00071546059 -0.0031284702  -0.0036450394   15.697888     -3.3762555      16.325521    
   1138000   1.8381312      0.00069007688  1000000        0.00064657471  0.0030109393  -0.0015872833   15.712928     -3.3709424      16.326796    
   1139000   1.842007       0.0012978994   1000000        0.00096764591  0.00023946708  0.0026865851   15.719149     -3.3548118      16.311073    
   1140000   1.8103514     -0.0031169818   1000000       -0.0031723164  -0.00086095401 -0.005317675    15.708281     -3.3418706      16.334746    
   1141000   1.807987      -0.00021350973  1000000        0.004211074   -0.0018745864  -0.0029770168   15.701979     -3.3380541      16.328173    
   1142000   1.8210573      0.003814161    1000000        0.0045264726   0.0034482673   0.0034677431   15.705626     -3.3476907      16.321852    
   1143000   1.8261876      0.00089219697  1000000        0.004359161   -0.002648584    0.00096601391  15.69826      -3.358462       16.317563    
   1144000   1.8329734     -0.0022521995   1000000        0.0010524187  -0.0051069104  -0.0027021068   15.703254     -3.3602502      16.314166    
   1145000   1.8243066      0.00033900052  1000000       -0.003769366    0.0033312919   0.0014550756   15.695703     -3.3697202      16.329085    
   1146000   1.8331813      0.00076203585  1000000        0.00067464149  0.0003549086   0.0012565575   15.706463     -3.3648046      16.321618    
   1147000   1.8257915     -0.0040496467   1000000       -0.0031141534  -0.0048057632  -0.0042290233   15.710046     -3.3582296      16.32971     
   1148000   1.830026       0.00016533943  1000000        0.00051915713 -0.0029267635   0.0029036247   15.712392     -3.3575173      16.324992    
   1149000   1.8426905      0.00022180008  1000000        0.0011493391  -0.0013097838   0.00082584496  15.702319     -3.361459       16.299865    
   1150000   1.8375127     -0.0022347944   1000000       -0.001170777   -0.0018606119  -0.0036729944   15.707367     -3.3632967      16.314517    
   1151000   1.8387777      0.0023231184   1000000        0.0055513896   0.0017625048  -0.00034453914  15.702101     -3.3647241      16.308781    
   1152000   1.8533793      0.00049944132  1000000        0.001753255    0.00040315668 -0.00065808776  15.713978     -3.370197       16.304229    
   1153000   1.8394493     -0.0024654635   1000000       -0.0026763299  -0.0044685789  -0.00025148175  15.693296     -3.3809996      16.315244    
   1154000   1.8391183     -0.0022106353   1000000       -0.0011528966  -0.0044987373  -0.00098027216  15.68941      -3.379285       16.31014     
   1155000   1.8450289     -0.0029240826   1000000       -0.0057524635  -0.0018491419  -0.0011706423   15.705566     -3.3762713      16.314417    
   1156000   1.8214001      0.0013397727   1000000        0.0026816523   0.0021544615  -0.00081679572  15.69978      -3.3630758      16.330877    
   1157000   1.848477       0.0032170009   1000000        0.0043644353   0.003656194    0.0016303733   15.702094     -3.3816936      16.311195    
   1158000   1.8417658     -0.0014316543   1000000       -0.0020070855  -3.1873725e-05 -0.0022560036   15.703404     -3.3800749      16.320953    
   1159000   1.8417484      0.00052683     1000000        0.0013914088   0.0014385168  -0.0012494355   15.687058     -3.3927683      16.317327    
   1160000   1.8473541      0.0022858015   1000000       -0.00046530835  0.001995926    0.0053267869   15.690053     -3.3988705      16.318015    
   1161000   1.8455706      0.0013495816   1000000       -0.0029239509  -0.00092387746  0.0078965731   15.678732     -3.3959858      16.306485    
   1162000   1.8259657      0.0014586505   1000000       -0.0012945991   0.0019726967   0.0036978539   15.672697     -3.3756455      16.309516    
   1163000   1.8333518     -0.0028851991   1000000       -0.0030256543  -0.0036403548  -0.001989588    15.683713     -3.3871977      16.321006    
   1164000   1.8420028     -0.00090525246  1000000       -0.0038457467  -0.002603876    0.0037338653   15.692982     -3.3850596      16.31516     
   1165000   1.8396385      0.004189223    1000000        0.0027121674   0.0055403659   0.0043151358   15.694031     -3.3791756      16.313872    
   1166000   1.8548601      0.0022345013   1000000        0.0046307373  -5.7766111e-05  0.0021305326   15.69637      -3.394271       16.308475    
   1167000   1.8343336      0.0036242706   1000000        0.0042476444   0.0019555175   0.0046696499   15.686302     -3.3859096      16.320833    
   1168000   1.8296223     -2.7412486e-05  1000000       -0.0010386149  -0.0011666071   0.0021229846   15.671913     -3.3969655      16.324567    
   1169000   1.8325834      0.0011668447   1000000        0.0016126629  -0.0009734474   0.0028613187   15.673721     -3.3953081      16.320276    
   1170000   1.8173873     -0.0026883393   1000000       -0.0031072044  -0.0037962279  -0.0011615857   15.655544     -3.3898955      16.31948     
   1171000   1.8210944     -0.00078024069  1000000       -0.0016099459   0.0012678364  -0.0019986126   15.656837     -3.3932327      16.318549    
   1172000   1.8205826      0.001876486    1000000        0.00060566747  0.0024338471   0.0025899433   15.647167     -3.3943834      16.310798    
   1173000   1.8266141     -0.00011859107  1000000        0.00076194553  0.00023557187 -0.0013532906   15.656188     -3.3971426      16.313531    
   1174000   1.8143928     -0.0019709211   1000000       -0.0029842299  -0.00067610119 -0.0022524322   15.647765     -3.3875037      16.3138      
   1175000   1.8032544     -0.00087745895  1000000       -0.00062295858  0.00095904926 -0.0029684675   15.654283     -3.3850551      16.334576    
   1176000   1.8233896      0.00084868046  1000000        0.0010761174   0.0017842568  -0.0003143329   15.656235     -3.4011891      16.322462    
   1177000   1.8398844     -0.00030794025  1000000       -0.0017198684   0.00011550562  0.00068054203  15.650013     -3.4198344      16.310144    
   1178000   1.8194488     -0.0019979324   1000000       -0.00092463666 -0.003235486   -0.0018336744   15.632612     -3.4108064      16.314367    
   1179000   1.8082369     -0.004369427    1000000       -0.0049103682  -0.004667997   -0.0035299159   15.62561      -3.4108955      16.324271    
   1180000   1.7998818     -0.0053909827   1000000       -0.0060915428  -0.0076635782  -0.0024178269   15.635102     -3.3877114      16.323111    
   1181000   1.8180032     -0.0011390679   1000000       -0.0014532329  -0.0023333527   0.0003693818   15.641378     -3.3991783      16.313672    
   1182000   1.8241862     -0.0011271513   1000000        0.0039844344  -0.0041403492  -0.003225539    15.653472     -3.4060721      16.323387    
   1183000   1.8266527      0.00085277482  1000000        0.0038732929   0.00062717589 -0.0019421444   15.647587     -3.4167211      16.324451    
   1184000   1.825448      -0.0040824203   1000000       -0.0039107032  -0.0044080829  -0.0039284747   15.646305     -3.4056179      16.313872    
   1185000   1.8265523      9.6420065e-05  1000000       -1.3738724e-05  0.0013269661  -0.0010239671   15.660882     -3.4021991      16.323375    
   1186000   1.8297402      0.0020516507   1000000       -0.0028341871   0.0051945832   0.0037945562   15.647128     -3.4033836      16.306023    
   1187000   1.8142448      0.0020252082   1000000        0.0022972164   0.00072752969  0.0030508786   15.634845     -3.4130932      16.326692    
   1188000   1.8251136      0.001833731    1000000        0.0035537426   0.00011558752  0.0018318628   15.636193     -3.4320595      16.330703    
   1189000   1.8117858     -0.0017183878   1000000       -0.00052707413 -0.00067960449 -0.0039484847   15.63411      -3.413444       16.329996    
   1190000   1.8288128     -0.001884775    1000000        0.0016267026  -0.0011674734  -0.0061135543   15.634754     -3.4189968      16.310653    
   1191000   1.8101142     -0.00015926505  1000000        0.0013842174  -0.00040473722 -0.0014572754   15.638308     -3.4172751      16.340533    
   1192000   1.8245928      0.00012865601  1000000       -0.0039571277   0.0019341175   0.0024089783   15.647094     -3.4129973      16.323323    
   1193000   1.8454613      0.002013279    1000000        0.00077053809  0.0025903385   0.0026789603   15.65887      -3.416631       16.307432    
   1194000   1.8423889     -0.00025258151  1000000       -0.0004383352   0.00063933875 -0.00095874809  15.650736     -3.4161641      16.30344     
   1195000   1.8336176     -0.00037660296  1000000       -0.0024364336  -0.0017679924   0.0030746171   15.657629     -3.4111454      16.31847     
   1196000   1.8360658     -0.00058435322  1000000       -0.0034232797  -0.00031246435  0.0019826844   15.670225     -3.4114741      16.327723    
   1197000   1.8394459     -0.001566359    1000000        0.00036733424 -0.0020891145  -0.0029772968   15.66919      -3.4143621      16.324506    
   1198000   1.833515      -0.00088115467  1000000       -0.00092400355 -0.0023504561   0.00063099566  15.658973     -3.3943178      16.303141    
   1199000   1.8356912     -0.0014500589   1000000       -0.00031937267 -0.0032916235  -0.0007391806   15.664901     -3.3937537      16.30524     
   1200000   1.8226772     -0.0018410749   1000000       -0.0035062299   0.0015542846  -0.0035712794   15.64301      -3.4067039      16.31582     
   1201000   1.8201462      0.0040797797   1000000        0.0037392175   0.0077222481   0.00077787359  15.654369     -3.3910732      16.315344    
   1202000   1.842635       0.0030866732   1000000        0.0027419094   0.0057217244   0.0007963859   15.671635     -3.4049801      16.312786    
   1203000   1.8253164      0.0016575554   1000000        0.00026982973  0.0065929465  -0.00189011     15.668717     -3.4041109      16.334975    
   1204000   1.8304406      0.0021717641   1000000        0.0025129187   0.0017213988   0.0022809749   15.663161     -3.4025749      16.320197    
   1205000   1.8450196      0.0007468426   1000000        0.00085086813 -0.0004464658   0.0018361255   15.670414     -3.4080245      16.311032    
   1206000   1.8375399     -0.0022780045   1000000       -0.0039355922  -0.0035849921   0.00068657066  15.670044     -3.4096352      16.323492    
   1207000   1.8423254     -0.003391144    1000000       -0.0029686737  -0.0049934501  -0.0022113082   15.663181     -3.4069546      16.30677     
   1208000   1.8376828      0.0011013283   1000000        0.0014102633   0.0001442478   0.0017494736   15.657205     -3.4088814      16.309684    
   1209000   1.8372362     -0.0024336886   1000000        0.0012176374  -0.0040761198  -0.0044425834   15.662752     -3.4096509      16.316671    
   1210000   1.8408945      0.0011624321   1000000        0.0011944094   0.0013275104   0.00096537646  15.660398     -3.4197946      16.318974    
   1211000   1.8485043      0.00065081454  1000000       -0.0017322852   0.0017824257   0.0019023032   15.667302     -3.4188444      16.313513    
   1212000   1.8399109     -0.0019346344   1000000       -0.00099380796 -0.0029064551  -0.0019036401   15.654559     -3.4273895      16.322205    
   1213000   1.8186011     -0.0016309541   1000000       -0.00010145088 -0.00075235422 -0.0040390573   15.649294     -3.4157001      16.337214    
   1214000   1.821125      -0.002477244    1000000       -0.0033123099  -0.0015456987  -0.0025737234   15.652872     -3.4123256      16.333631    
   1215000   1.8233255     -0.00093429233  1000000        0.00083114999 -0.0024696657  -0.0011643613   15.64421      -3.4211923      16.330535    
   1216000   1.8322488      0.0023062921   1000000        0.0020313967   0.00031038205  0.0045770976   15.655348     -3.4178895      16.324986    
   1217000   1.8294989      0.00020980863  1000000       -0.0019179357  -0.00094191486  0.0034892765   15.643947     -3.4238022      16.323623    
   1218000   1.8271608      0.00097035323  1000000        0.0028205969  -0.0016480249   0.0017384878   15.644139     -3.4240104      16.32753     
   1219000   1.8288874     -0.0032887638   1000000       -0.0017416016  -0.0031453039  -0.004979386    15.660563     -3.4123251      16.329679    
   1220000   1.8231287      0.0015369839   1000000        0.0011393012   0.0059277337  -0.0024560832   15.642756     -3.4125918      16.320776    
   1221000   1.827281       0.00082555019  1000000        0.00091031673 -0.0004218998   0.0019882336   15.637588     -3.4239693      16.320757    
   1222000   1.820374      -0.003709871    1000000       -0.0034005181  -0.0019015072  -0.0058275876   15.642325     -3.406677       16.318562    
   1223000   1.8270401      3.3458014e-06  1000000        0.0022590445  -0.002668775    0.0004197679   15.647499     -3.4195916      16.326652    
   1224000   1.8332004      0.00010453359  1000000        0.0012732322  -0.0025284105   0.0015687791   15.650526     -3.4180012      16.318849    
   1225000   1.8293974     -0.0014059043   1000000       -0.0015904093  -0.0018662096  -0.00076109394  15.667096     -3.4046705      16.327792    
   1226000   1.826345      -0.0037036307   1000000       -0.0045122399  -0.0022604116  -0.0043382407   15.663658     -3.4048715      16.329134    
   1227000   1.8439357     -0.00089131152  1000000       -0.00075302076 -0.0017415272  -0.00017938661  15.663264     -3.4217173      16.319201    
   1228000   1.8446809      0.00077897451  1000000        0.002803353   -0.00087585879  0.00040942933  15.666426     -3.4237576      16.323285    
   1229000   1.8409523      0.00056147496  1000000        0.0031117257  -0.0016093631   0.00018206236  15.659677     -3.4275565      16.325928    
   1230000   1.8333626      0.0014970669   1000000        0.0048576526   0.0010798937  -0.0014463457   15.644965     -3.4260891      16.321132    
   1231000   1.8317675     -0.0011697287   1000000       -0.00088542339 -0.0037196245   0.0010958618   15.637616     -3.429521       16.319608    
   1232000   1.8349559      0.0018779236   1000000       -0.00022939101  0.0010403628   0.0048227989   15.635831     -3.43992        16.323439    
   1233000   1.8342339      0.00021323485  1000000       -0.00091987082  0.0010245789   0.0005349965   15.640947     -3.4415629      16.331282    
   1234000   1.8424836     -0.003609817    1000000       -0.0026382288  -0.0014414418  -0.0067497803   15.641303     -3.4459614      16.323662    
   1235000   1.844984      -0.0010322368   1000000       -0.0039863389  -9.0239399e-05  0.00097986799  15.64451      -3.4385717      16.315728    
   1236000   1.8375021      0.002972382    1000000        0.0012610859   0.0018985676   0.0057574925   15.650255     -3.4292108      16.323336    
   1237000   1.8393408      0.0011993255   1000000        0.0007494331  -0.000107453    0.0029559964   15.642933     -3.4359604      16.320005    
   1238000   1.8531827      0.0025918374   1000000        0.0036459788   0.0015893953   0.0025401381   15.661175     -3.4337412      16.315266    
   1239000   1.847885       0.00098642014  1000000        0.0026057657  -0.0012386554   0.0015921501   15.655482     -3.4417804      16.325558    
   1240000   1.858838       0.0009005091   1000000        0.00097980481  0.00074972736  0.00097199513  15.66297      -3.4441624      16.318999    
   1241000   1.8476751     -0.0015259002   1000000       -0.0019433817  -0.00022372651 -0.0024105924   15.661205     -3.4394566      16.329272    
   1242000   1.8401958      0.0029787717   1000000        0.0016118944   0.0035116777   0.0038127428   15.63868      -3.4402524      16.318761    
   1243000   1.8475574      0.002564803    1000000        0.0032938619   0.0024600481   0.001940499    15.646182     -3.4399838      16.314953    
   1244000   1.8424528     -0.0011610701   1000000        1.8471343e-06 -0.0018213887  -0.0016636687   15.64848      -3.436669       16.321592    
   1245000   1.8372626     -0.0020129867   1000000       -0.00083993626 -0.001617756   -0.0035812678   15.660867     -3.4256         16.330696    
   1246000   1.8270198     -0.0017983312   1000000        0.003317805   -0.0056045009  -0.0031082978   15.634733     -3.4336249      16.32795     
   1247000   1.8377298      2.0034757e-05  1000000        0.0014644892   0.00046076629 -0.0018651513   15.645588     -3.4386519      16.327768    
   1248000   1.8377826     -0.0012443887   1000000       -0.0011869912   0.00079822732 -0.0033444021   15.645109     -3.4347719      16.32333     
   1249000   1.8409386      0.001117992    1000000       -0.0010186025   0.00053262793  0.0038399505   15.644431     -3.4481732      16.331319    
   1250000   1.8459853     -0.002242756    1000000       -0.0024203021  -0.0045533427   0.00024537687  15.647959     -3.4436264      16.322731    
   1251000   1.8304161     -0.0010152558   1000000       -0.0017666568  -0.0010303184  -0.00024879205  15.641892     -3.4282532      16.324644    
   1252000   1.8398618     -0.00057177026  1000000       -0.0018475607   0.00091628291 -0.00078403302  15.62737      -3.4436502      16.31135     
   1253000   1.8319873     -0.0012005022   1000000       -0.0012599369  -0.0015449304  -0.00079663934  15.615595     -3.4406392      16.308376    
   1254000   1.8243412     -0.0018131063   1000000        0.0036298281  -0.0060500245  -0.0030191224   15.627359     -3.4317627      16.322732    
   1255000   1.8259539     -0.00097850822  1000000        0.00064873728 -0.0024030181  -0.0011812439   15.635216     -3.4287433      16.32515     
   1256000   1.8320767     -0.0020277333   1000000       -0.0033167372  -0.0032486864   0.00048222362  15.645892     -3.4324018      16.330301    
   1257000   1.8502709      0.00048042078  1000000        0.0045497771  -0.0013996736  -0.0017088411   15.651516     -3.4448722      16.321105    
   1258000   1.8368031     -0.0014668617   1000000       -0.0033929499   0.00024095211 -0.0012485875   15.642619     -3.4397358      16.327272    
   1259000   1.8344114      0.00072244391  1000000       -0.00053834492  0.00054594997  0.0021597267   15.642725     -3.4372127      16.328443    
   1260000   1.8378712     -0.00015429024  1000000        0.002986465    0.0011564949  -0.0046058307   15.639711     -3.4324513      16.315479    
   1261000   1.8357186      0.0001733354   1000000        0.0034776188  -0.0035586265   0.00060101393  15.633986     -3.4386948      16.319225    
   1262000   1.8261564      0.0020382431   1000000        0.0041612692   0.0025537959  -0.00060033565  15.622191     -3.4293166      16.312395    
   1263000   1.8264214      0.002533196    1000000        0.0031323366   0.0018231023   0.0026441493   15.624123     -3.4341462      16.318759    
   1264000   1.8218057      2.1263516e-05  1000000       -0.00016234675 -0.0021485052   0.0023746425   15.622269     -3.4399257      16.329607    
   1265000   1.8437417     -0.0018073257   1000000       -0.0017548525  -0.00038827091 -0.0032788536   15.619795     -3.4604395      16.314745    
   1266000   1.8371415     -0.0054658069   1000000       -0.0044283009  -0.0020927885  -0.0098763314   15.631115     -3.4564273      16.331953    
   1267000   1.8318279      0.00052635355  1000000       -0.0014885093   0.0026130659   0.00045450397  15.63213      -3.4487601      16.33327     
   1268000   1.8422489     -0.0010012481   1000000        0.0023823785  -0.0011990538  -0.0041870689   15.644147     -3.4446432      16.325539    
   1269000   1.8339177     -0.0024829351   1000000       -0.0020601382  -0.0023959905  -0.0029926765   15.638221     -3.4532826      16.340749    
   1270000   1.837332      -0.00015339401  1000000       -0.00097545505  0.0023726184  -0.0018573454   15.645823     -3.4407804      16.330728    
   1271000   1.8451182      0.0020996652   1000000        0.0042628105   0.0007794495   0.0012567356   15.631949     -3.4569798      16.321375    
   1272000   1.8358591      0.0017263842   1000000        0.0055680848  -0.00058688718  0.00019795514  15.627611     -3.4650377      16.338982    
   1273000   1.8369252     -0.0020521032   1000000       -0.00056384898 -0.0031326877  -0.002459773    15.62031      -3.4608291      16.325874    
   1274000   1.8315964      0.00061602491  1000000       -0.0016807108   0.0011793535   0.002349432    15.619529     -3.4552974      16.327554    
   1275000   1.8251698      0.0010489524   1000000        0.0023798271   0.0013725479  -0.00060551774  15.623509     -3.4480736      16.333949    
   1276000   1.8453235     -0.00061881605  1000000        0.0055270731  -0.0023205833  -0.005062938    15.62974      -3.4651709      16.327048    
   1277000   1.835388       0.0011945449   1000000        0.0022312181   0.002629689   -0.0012772724   15.62873      -3.4568448      16.332616    
   1278000   1.8341499      0.0015702631   1000000        0.0020298037  -0.0022271462   0.0049081318   15.625059     -3.4519853      16.325942    
   1279000   1.819351      -0.002384723    1000000       -0.0046204403  -0.0009858399  -0.0015478889   15.606754     -3.4537078      16.331557    
   1280000   1.8222057      0.00084672307  1000000       -8.463341e-05   0.0019223404   0.00070246218  15.606535     -3.4508276      16.324176    
   1281000   1.8128593     -0.0019861033   1000000       -0.00027757268 -0.00058500865 -0.0050957285   15.599758     -3.4542859      16.334876    
   1282000   1.8146126      0.00085217557  1000000        0.0010529647   0.00024630835  0.0012572537   15.605723     -3.4397721      16.323697    
   1283000   1.8189703     -0.0014827063   1000000       -0.0064351594  -0.00062668241  0.0026137229   15.609922     -3.449207       16.330795    
   1284000   1.8183068      0.00017094913  1000000        0.0017352319  -0.0012544428   3.2058334e-05  15.605705     -3.4532029      16.331569    
   1285000   1.826692      -8.4407448e-05  1000000       -0.00039191711 -0.0021952646   0.0023339594   15.599055     -3.4602922      16.319431    
   1286000   1.8189275     -0.0003560686   1000000        0.0017226627  -0.0046299521   0.0018390836   15.589257     -3.4605769      16.321564    
   1287000   1.8280462     -0.0014874215   1000000        0.00039450925 -0.0034630504  -0.0013937235   15.575452     -3.4727061      16.306211    
   1288000   1.8143312     -0.0026675827   1000000        0.00068811942 -0.0021322842  -0.0065585832   15.574249     -3.4622501      16.315123    
   1289000   1.8246503      0.0012510117   1000000        0.0011762029   0.0049514014  -0.0023745692   15.579009     -3.465244       16.307399    
   1290000   1.8256486     -0.0025538938   1000000       -0.0038336208  -0.0046021139   0.00077405332  15.580414     -3.4718778      16.313941    
   1291000   1.8115498     -0.00016537923  1000000        0.0019720688  -0.0016539526  -0.00081425383  15.574002     -3.4612754      16.318074    
   1292000   1.8140826     -0.00033428496  1000000       -0.0014897159   0.00084586517 -0.00035900413  15.572639     -3.4623354      16.313972    
   1293000   1.8250886      0.0062481748   1000000        0.0054177549   0.0072624727   0.0060642968   15.583256     -3.4735244      16.31927     
   1294000   1.8108016     -0.00036839374  1000000        0.00025512495 -0.0010695829  -0.0002907233   15.568104     -3.4696522      16.321674    
   1295000   1.8126433     -0.00054779283  1000000        2.6771069e-05 -0.0030123276   0.001342178    15.564132     -3.4711333      16.316421    
   1296000   1.8156369     -0.0016925685   1000000       -0.0043057046  -0.0040589792   0.0032869782   15.552953     -3.4789981      16.308617    
   1297000   1.8191192      0.00053767293  1000000       -0.00074083892  0.0010700087   0.001283849    15.557254     -3.4896088      16.318305    
   1298000   1.8281453      0.00077101218  1000000       -0.0025605888   0.0033284556   0.0015451698   15.562228     -3.4880413      16.308173    
   1299000   1.8110891     -0.0014048766   1000000       -0.0033115453   0.0011485029  -0.0020515875   15.557637     -3.4772567      16.318381    
   1300000   1.8206054      0.0016410818   1000000       -0.0023658272   0.0038714864   0.003417586    15.569336     -3.4763729      16.314922    
   1301000   1.8243897      0.00012021006  1000000        0.0023678289   0.00011893388 -0.0021261326   15.569557     -3.4879471      16.321041    
   1302000   1.8375263     -0.00043655102  1000000        0.0004852975   0.0019444701  -0.0037394207   15.576847     -3.4874472      16.308127    
   1303000   1.8229513     -0.0032780363   1000000       -0.0038767827  -0.00023974559 -0.0057175807   15.56722      -3.4789516      16.311866    
   1304000   1.830152       0.00095476568  1000000        6.4831318e-05  0.0017497138   0.001049752    15.574166     -3.4843492      16.313409    
   1305000   1.8236245      0.00036143847  1000000        0.00064051339  5.5525585e-05  0.00038827642  15.575272     -3.47743        16.317387    
   1306000   1.8207197      0.0039175727   1000000        0.0028053251   0.0021888098   0.0067585832   15.58061      -3.4679682      16.31762     
   1307000   1.820584       0.0015918454   1000000        0.0047907274   0.00020358714 -0.0002187784   15.580855     -3.4793745      16.329474    
   1308000   1.8327825     -0.0033597102   1000000       -0.0030522312  -0.002838987   -0.0041879125   15.574981     -3.4917811      16.31771     
   1309000   1.8238087     -0.00014750936  1000000        0.00025465571  0.00058167807 -0.0012788618   15.594333     -3.4715346      16.330276    
   1310000   1.8203009     -0.0026081264   1000000       -0.002909369   -0.0033205455  -0.0015944647   15.584036     -3.4820453      16.335751    
   1311000   1.8323698     -0.0035049249   1000000       -0.0029691092  -0.0043400398  -0.0032056258   15.586741     -3.4810948      16.319403    
   1312000   1.8285604     -0.00095609643  1000000       -0.0012260902  -0.0021762512   0.00053405216  15.584308     -3.4738165      16.315406    
   1313000   1.8260057     -0.0018137273   1000000       -0.00061807687 -0.0046685831  -0.00015452204  15.588625     -3.4855203      16.335258    
   1314000   1.8379644     -0.0023718725   1000000       -0.0053473181  -0.001890379    0.00012207959  15.594469     -3.4851413      16.322787    
   1315000   1.847439       0.001377101    1000000       -0.0019958343   0.0020822168   0.0040449205   15.607723     -3.4829342      16.319622    
   1316000   1.8360294      0.0026850372   1000000        0.0040251658   0.00054425373  0.0034856921   15.593822     -3.4857514      16.325652    
   1317000   1.8287567     -0.0013578234   1000000        0.00023154509 -0.0032679881  -0.001037027    15.582511     -3.479779       16.319276    
   1318000   1.8278584     -0.0048400719   1000000       -0.0034973832  -0.0067188849  -0.0043039477   15.572423     -3.4845437      16.315301    
   1319000   1.8216323     -0.00013929952  1000000        0.00040584959 -0.0034088925   0.0025851444   15.565529     -3.4788906      16.312092    
   1320000   1.8250543     -0.00069189229  1000000       -0.0019528342  -0.00016585375  4.3011105e-05  15.568503     -3.4970868      16.32813     
   1321000   1.8192183     -0.0020631992   1000000       -0.003728381   -0.0031929176   0.00073170087  15.569843     -3.4816247      16.322761    
   1322000   1.8179659     -0.00088877337  1000000       -0.0042379798   0.0014492502   0.0001224095   15.555656     -3.4863465      16.315175    
   1323000   1.8321454      0.00069964142  1000000        0.0026152616  -0.0019389238   0.0014225864   15.576232     -3.4933811      16.321517    
   1324000   1.8383927      0.00052700118  1000000       -0.00094771319 -0.0014359321   0.0039646489   15.5827       -3.502277       16.327511    
   1325000   1.8252042      0.00020504009  1000000       -0.00019993717 -0.0026778894   0.0034929468   15.566507     -3.4945214      16.323344    
   1326000   1.8428024     -0.0020565704   1000000       -0.0025818948  -0.0029539565  -0.00063386004  15.576355     -3.5027595      16.315034    
   1327000   1.8288269      0.00068007356  1000000       -0.0013599941   0.0036477272  -0.00024751242  15.56822      -3.4936845      16.318786    
   1328000   1.8173712     -0.0016490311   1000000        0.0003777711  -0.0039637937  -0.0013610706   15.564233     -3.4844881      16.322786    
   1329000   1.8177399     -0.0036767554   1000000       -0.0044803038  -2.2711016e-05 -0.0065272513   15.564822     -3.4884654      16.326798    
   1330000   1.8333742     -0.0035605841   1000000       -0.0030685194  -0.0025616729  -0.00505156     15.56791      -3.4939618      16.311933    
   1331000   1.8321258      0.0019708002   1000000        0.00086051734  0.0016066034   0.0034452799   15.577086     -3.5074779      16.336497    
   1332000   1.8336951      0.00083049227  1000000       -0.0014101522   0.0041643038  -0.00026267478  15.565125     -3.5036248      16.318329    
   1333000   1.8308775      2.8631645e-05  1000000        0.0014537109  -0.0020317587   0.00066394276  15.555732     -3.5070945      16.316632    
   1334000   1.8277607     -0.00068315373  1000000       -0.0028110418   0.0020323793  -0.0012707987   15.543134     -3.5187321      16.320347    
   1335000   1.8340477     -0.00081690482  1000000       -0.0003874844  -0.003753849    0.0016906189   15.53894      -3.5127539      16.300745    
   1336000   1.8254215     -0.002640346    1000000       -0.0021635924  -0.0021486793  -0.0036087665   15.531001     -3.5066888      16.299679    
   1337000   1.817127      -0.0014498543   1000000       -0.0079077989   0.0020093256   0.0015489106   15.529908     -3.4895092      16.293848    
   1338000   1.8183824      0.00037382007  1000000        0.0020550794  -0.0015858495   0.00065223031  15.539595     -3.4900097      16.302153    
   1339000   1.8175739     -0.0039212818   1000000       -0.001231838   -0.0067057246  -0.0038262828   15.540784     -3.4914688      16.306013    
   1340000   1.8221973      0.0056091084   1000000        0.0080761466   0.0059002338   0.0028509447   15.55462      -3.4877033      16.309149    
   1341000   1.8293756     -0.0027385184   1000000       -0.001528955   -0.0036913697  -0.0029952303   15.560088     -3.5005397      16.316686    
   1342000   1.8315645      0.0035036811   1000000        0.0041940738   0.0032539496   0.00306302     15.553649     -3.4990302      16.305455    
   1343000   1.8283308     -0.00015500836  1000000       -0.002371262    0.0023001105  -0.00039387361  15.556752     -3.4852331      16.299611    
   1344000   1.8351274     -0.0032365825   1000000       -0.0021124044  -0.0071581425  -0.00043920043  15.559676     -3.4914761      16.298584    
   1345000   1.8165352     -0.0040171054   1000000       -0.00090134507 -0.0071460256  -0.0040039455   15.541779     -3.5040884      16.321185    
   1346000   1.8271721      0.00070998631  1000000        0.0024611864  -0.0018830463   0.0015518188   15.540443     -3.504876       16.304683    
   1347000   1.8245569      0.0023887084   1000000       -0.00095940803  0.0026754685   0.0054500648   15.540279     -3.5043439      16.307909    
   1348000   1.8289458     -0.002021332    1000000       -0.003275001   -0.0018029873  -0.00098600772  15.538363     -3.5124748      16.307541    
   1349000   1.8220182     -0.0019173617   1000000       -0.0018302799  -0.003077504   -0.00084430117  15.534527     -3.51396        16.315581    
   1350000   1.8464273     -0.00077358654  1000000       -0.00070019414  0.00033905854 -0.001959624    15.538721     -3.5198331      16.289037    
   1351000   1.8220886      0.0007919667   1000000        0.0026360927  -0.00019697373 -6.3218922e-05  15.530001     -3.5191164      16.316106    
   1352000   1.8154705      0.002413884    1000000        0.00050483038  0.00018240603  0.0065544155   15.509518     -3.518673       16.305107    
   1353000   1.8114836     -0.0016711271   1000000       -0.003072828    0.0014555959  -0.0033961494   15.507974     -3.5226852      16.313555    
   1354000   1.8066302     -0.00061885724  1000000       -0.00017187222  0.00011407377 -0.0017987733   15.502874     -3.5059503      16.299       
   1355000   1.8115055     -0.0028998086   1000000       -0.0017811465  -0.0050091008  -0.0019091783   15.511738     -3.518083       16.312684    
   1356000   1.8053379      0.00047681592  1000000        0.0025443611  -0.0015901399   0.00047622649  15.514987     -3.5149792      16.32208     
   1357000   1.8255922     -0.0010129649   1000000        0.00041245073 -0.003195316   -0.00025602943  15.531044     -3.5248514      16.317629    
   1358000   1.8270047      0.00079208337  1000000        0.00035348644  0.0028666007  -0.00084383707  15.541023     -3.5264681      16.327106    
   1359000   1.8330403      0.00070283136  1000000        1.6643558e-05  0.0022985998  -0.00020674929  15.534766     -3.5214858      16.306814    
   1360000   1.8294994     -0.0040062071   1000000       -0.0055989068  -0.0031540226  -0.0032656919   15.535729     -3.5293104      16.320913    
   1361000   1.8311489      0.00087835917  1000000       -0.002011731    7.9712788e-06  0.0046388372   15.530735     -3.5304607      16.314594    
   1362000   1.8281388     -0.0011577685   1000000       -0.0028734304   0.00053864661 -0.0011385218   15.531917     -3.5207708      16.310602    
   1363000   1.8314353      0.0016438905   1000000       -0.0017203839   0.0019477036   0.0047043517   15.536984     -3.5181466      16.3081      
   1364000   1.8261876     -0.0030614248   1000000       -0.0017554231  -0.0045488256  -0.0028800258   15.538717     -3.5337608      16.333318    
   1365000   1.8247136     -0.0025863865   1000000       -0.0018387292  -0.0035045131  -0.0024159172   15.530785     -3.5248246      16.318661    
   1366000   1.8283061      0.0056390173   1000000        0.0069119709   0.0048145269   0.0051905541   15.529938     -3.5220862      16.309687    
   1367000   1.8261561     -0.00084268456  1000000       -0.0025716844   0.0008728682  -0.00082923746  15.524117     -3.5413913      16.326396    
   1368000   1.8177956     -0.0031243092   1000000       -0.0013641795  -0.0015084151  -0.0065003328   15.527174     -3.5298876      16.33049     
   1369000   1.8340777     -0.00032368821  1000000       -0.00046078    -0.0039488005   0.0034385159   15.538007     -3.5332478      16.32026     
   1370000   1.8327661     -0.0026881617   1000000       -0.0007182314  -0.0054721174  -0.0018741362   15.546049     -3.5209354      16.317957    
   1371000   1.8306564      0.0010590155   1000000        0.0012585617   0.00011030277  0.0018081821   15.543083     -3.5179384      16.315159    
   1372000   1.8403534      0.0019579995   1000000        0.005017646   -0.0032302292   0.0040865817   15.55         -3.5256734      16.315266    
   1373000   1.8412375     -9.214889e-05   1000000       -0.00021169361 -0.0013420186   0.0012772656   15.559901     -3.5342147      16.332382    
   1374000   1.8432449      0.001847087    1000000        0.0024191085   0.0013246749   0.0017974777   15.558204     -3.5343728      16.327832    
   1375000   1.8445428     -0.0028264641   1000000       -0.0013048849  -0.0065645072  -0.00061000017  15.548618     -3.5332434      16.315171    
   1376000   1.8304587      0.00245749     1000000        0.0039314842   0.0036693264  -0.00022834055  15.523294     -3.5365383      16.314266    
   1377000   1.8407911     -7.5048933e-05  1000000       -0.0022048236   0.0038089736  -0.0018292968   15.535134     -3.5384539      16.312524    
   1378000   1.8312394     -0.001345735    1000000       -0.00050949926  0.0023079398  -0.0058356457   15.528397     -3.5378248      16.319485    
   1379000   1.8373871     -0.0015261144   1000000       -0.0017979818  -0.00076955516 -0.0020108063   15.531174     -3.5386529      16.313868    
   1380000   1.8433759     -0.0023559549   1000000       -0.0034929895  -0.0023623733  -0.0012125019   15.535963     -3.543393       16.314415    
   1381000   1.8352612      0.00090297905  1000000        0.001298759    0.0011897259   0.00022045226  15.535982     -3.5385238      16.321737    
   1382000   1.822271      -0.0030189207   1000000       -0.0051584488  -0.0032545508  -0.00064376258  15.514006     -3.5429967      16.323718    
   1383000   1.8175208      0.0013705764   1000000        0.002622151    0.0012955972   0.00019398099  15.500858     -3.5341353      16.308834    
   1384000   1.7986102     -0.00028137127  1000000       -0.0045127678   0.0028673726   0.00080128139  15.493139     -3.5262016      16.321545    
   1385000   1.8230729     -0.00071432179  1000000        0.0015824433  -0.0022426815  -0.0014827272   15.505254     -3.5389931      16.309759    
   1386000   1.823285      -0.0033855087   1000000       -0.001121323   -0.0052155053  -0.0038196978   15.500711     -3.5397957      16.305701    
   1387000   1.8178092      3.9925031e-05  1000000       -0.00046983743 -0.00047169443  0.001061307    15.48845      -3.5391733      16.301031    
   1388000   1.8144025     -0.0045252711   1000000       -0.0038354285  -0.00474805    -0.0049923347   15.484285     -3.549496       16.312299    
   1389000   1.8204579     -0.0032453445   1000000       -0.00082278995 -0.0060523678  -0.0028608758   15.493538     -3.541738       16.304711    
   1390000   1.8295618      0.00018213907  1000000        0.00021525386  0.0014479082  -0.0011167449   15.490137     -3.564897       16.310813    
   1391000   1.8101402      0.0013248035   1000000        0.002928443   -0.0024717876   0.0035177552   15.488018     -3.5496613      16.32259     
   1392000   1.8271078      0.00053164814  1000000       -0.0010662798   0.0010982942   0.0015629301   15.493634     -3.5545941      16.307688    
   1393000   1.8315664      0.00099511521  1000000       -0.00090773073  0.0014464065   0.0024466699   15.496689     -3.5637531      16.313214    
   1394000   1.8106913      0.00075318858  1000000        3.2878007e-05  0.0017137315   0.00051295626  15.492314     -3.5476028      16.324       
   1395000   1.8171616     -0.00018280697  1000000        0.0011360631  -0.0033839297   0.0016994457   15.518274     -3.5319027      16.324556    
   1396000   1.8298397      0.002500241    1000000        0.005052633    0.00018596578  0.0022621243   15.528667     -3.5428734      16.326903    
   1397000   1.8336228     -0.0026133862   1000000       -0.0033249549   0.0016867546  -0.0062019583   15.526766     -3.5436069      16.320061    
   1398000   1.8163309      0.0049747708   1000000        0.0077119457   0.0049520735   0.0022602932   15.511027     -3.5313643      16.318016    
   1399000   1.809823       0.0016243527   1000000        0.0012518838  -0.0014728775   0.0050940518   15.500085     -3.5260671      16.311538    
   1400000   1.8101964     -0.0039605804   1000000       -0.0029515017  -0.0037391603  -0.0051910791   15.501883     -3.5216609      16.30837     
   1401000   1.826664      -0.00025359165  1000000        0.0029970914   0.0014608492  -0.0052187155   15.518428     -3.5385257      16.317079    
   1402000   1.8253633     -0.0016097553   1000000       -0.0021516949  -0.0014536494  -0.0012239217   15.516286     -3.5410008      16.319363    
   1403000   1.8300803      0.0013191141   1000000        0.00023006224  0.0037135142   1.3765824e-05  15.506679     -3.5366808      16.298361    
   1404000   1.8151599     -0.0012503145   1000000       -0.00069675947  0.0030044302  -0.0060586141   15.502719     -3.5347127      16.314813    
   1405000   1.8067727     -0.00031813847  1000000        0.0016074817   0.00056170964 -0.0031236068   15.502896     -3.5204006      16.313258    
   1406000   1.8157136      0.0024050176   1000000        0.0021911172   0.004234722    0.00078921362  15.52032      -3.5229624      16.319833    
   1407000   1.8120032     -0.0018250465   1000000       -0.0072190182   9.7830716e-05  0.0016460479   15.513988     -3.5234594      16.319564    
   1408000   1.827743       2.3650475e-05  1000000       -0.001400869    0.0050740628  -0.0036022423   15.525309     -3.5299004      16.313717    
   1409000   1.8181368      0.004009035    1000000        0.0041925014   0.0046479123   0.0031866914   15.524616     -3.526266       16.323798    
   1410000   1.8132639     -0.0017902777   1000000        0.00073117451 -0.0065004265   0.00039841884  15.525118     -3.5171264      16.322469    
   1411000   1.8118859     -0.0011755954   1000000       -0.00034907309 -0.0012501586  -0.0019275546   15.533717     -3.5034183      16.319427    
   1412000   1.8305007     -0.0012923238   1000000       -0.00052379238 -0.0018470993  -0.0015060797   15.546715     -3.5102142      16.3113      
   1413000   1.8350277      0.0008633616   1000000       -0.0013219528   0.0015641875   0.0023478502   15.539098     -3.5220584      16.308737    
   1414000   1.8424433      0.0022894939   1000000        0.0014984591   0.0032705919   0.0020994306   15.539378     -3.5206865      16.296523    
   1415000   1.82966        0.001700727    1000000        0.00084997617  0.00095757454  0.0032946303   15.553935     -3.4976824      16.30725     
   1416000   1.8246445      0.00051160587  1000000        0.001403416   -0.0021419608   0.0022733624   15.542813     -3.5029843      16.308952    
   1417000   1.8173892     -0.0032349815   1000000       -0.002104612   -0.0048973378  -0.0027029947   15.535948     -3.5122404      16.322226    
   1418000   1.8250782      0.00034330549  1000000       -0.00088651422  0.0010776174   0.00083881333  15.542445     -3.5122075      16.317157    
   1419000   1.8308339      0.00026503301  1000000        0.00025206012  0.0028693074  -0.0023262685   15.538645     -3.5113666      16.303883    
   1420000   1.8125121     -0.0014697359   1000000        0.0010790145  -0.00094646285 -0.0045417595   15.527636     -3.5047394      16.313728    
   1421000   1.822227       0.0015242942   1000000        0.00075686255  0.0030630527   0.00075296743  15.537143     -3.5153067      16.319231    
   1422000   1.8308874      0.00096985066  1000000       -0.0022636843   0.0018195979   0.0033536384   15.533756     -3.5219496      16.309496    
   1423000   1.8238138     -5.1852726e-05  1000000        0.0014983715  -0.0014547041  -0.00019922557  15.543459     -3.5134901      16.32135     
   1424000   1.8192331     -0.0040179517   1000000       -0.0028664649  -0.0060449553  -0.0031424349   15.538685     -3.5154812      16.325438    
   1425000   1.8210842     -0.0028439361   1000000       -0.0063282461   0.0018414297  -0.004044992    15.528617     -3.5232857      16.320397    
   1426000   1.8186439     -0.00030271791  1000000       -0.00067954898 -1.431854e-05  -0.00021428622  15.526661     -3.5237486      16.322565    
   1427000   1.8267688      0.0034331278   1000000        0.0052461005   0.0033751265   0.0016781563   15.503886     -3.5352303      16.299085    
   1428000   1.8241485      0.0019502455   1000000        0.004145044    0.0020157101  -0.00031001752  15.502149     -3.5390304      16.305078    
   1429000   1.8306153      0.00084691632  1000000       -0.00065261979 -0.00196088     0.0051542488   15.504956     -3.5524626      16.311618    
   1430000   1.8295954     -0.0014649623   1000000       -0.0031727484  -0.0027001965   0.001478058    15.509033     -3.5299         16.294662    
   1431000   1.8092368      0.00068816596  1000000       -0.001608858    0.0023840763   0.0012892796   15.512218     -3.5238029      16.322286    
   1432000   1.8116826     -0.0032311399   1000000       -0.0052148553  -0.0025350672  -0.0019434972   15.517476     -3.5169438      16.317017    
   1433000   1.8267941     -0.002097532    1000000       -0.0010088998  -0.0033960876  -0.0018876085   15.5483       -3.5151133      16.323344    
   1434000   1.8236664      0.00071342369  1000000        0.00048464045  0.00017521786  0.0014804128   15.526935     -3.5218082      16.313366    
   1435000   1.8226126      0.00070280099  1000000       -0.00035808404  0.00075835489  0.0017081321   15.519142     -3.5274501      16.312794    
   1436000   1.8174411     -0.0058326437   1000000       -0.0063816808  -0.0069593941  -0.0041568562   15.511292     -3.5286024      16.313854    
   1437000   1.8254976     -0.0013051541   1000000       -0.001934429   -0.00079599169 -0.0011850416   15.502043     -3.5438847      16.307804    
   1438000   1.8303503      0.0010367209   1000000        0.0052616987  -0.0011714375  -0.00098009845  15.505683     -3.5529371      16.313217    
   1439000   1.8331867     -0.00025491015  1000000        0.00072717761  0.00082137454 -0.0023132826   15.514006     -3.5403667      16.304715    
   1440000   1.8311737     -0.00079143893  1000000       -8.5863822e-05 -0.0026751656   0.0003867126   15.499949     -3.5491188      16.302429    
   1441000   1.8172382      0.0019339839   1000000        0.0025902379  -0.00092046051  0.0041321743   15.497834     -3.5468989      16.318997    
   1442000   1.8285105     -0.0011022509   1000000        0.00036662497 -0.0013887308  -0.002284647    15.50069      -3.5529849      16.311031    
   1443000   1.8087817     -0.00086124469  1000000       -0.0019235848  -0.0030036828   0.0023435336   15.486316     -3.537903       16.311167    
   1444000   1.8123171     -0.0026478418   1000000       -0.0047837882  -0.0013006289  -0.0018591083   15.483165     -3.5543082      16.319118    
   1445000   1.8184313     -0.0015699064   1000000       -0.0022502592  -0.0031145062   0.00065504609  15.49112      -3.5404013      16.303995    
   1446000   1.8227249     -0.0036634521   1000000       -0.0011468658  -0.0074585816  -0.002384909    15.4903       -3.552601       16.308935    
   1447000   1.8255673      0.0040104982   1000000        0.0080745643   0.0016109215   0.0023460088   15.50529      -3.5481362      16.315196    
   1448000   1.8068956      9.9707654e-05  1000000       -0.001214264    0.00016677135  0.0013466156   15.493234     -3.5326685      16.31568     
   1449000   1.8123765     -0.0020359666   1000000       -0.0017917269  -0.0039893061  -0.00032686669  15.517213     -3.5103463      16.309115    
   1450000   1.8233059      0.0010230077   1000000        0.00055261721  0.0027756044  -0.00025919863  15.527895     -3.525775       16.318833    
   1451000   1.8226958      0.0012218689   1000000        0.0010786092   0.0019964595   0.00059053791  15.541113     -3.5224349      16.329626    
   1452000   1.8387809      0.001544672    1000000        0.0038026573  -0.001266774    0.0020981325   15.53767      -3.5321709      16.311792    
   1453000   1.8281022      0.00095642597  1000000        0.0013194145  -0.00026266229  0.0018125257   15.53524      -3.5307774      16.323986    
   1454000   1.8293344     -0.0032956755   1000000       -0.0049440696  -0.0012266631  -0.0037162936   15.540382     -3.5306314      16.327134    
   1455000   1.83151       -0.0012208742   1000000        0.00011230629 -0.0024493421  -0.0013255869   15.515171     -3.5273842      16.295412    
   1456000   1.8329376      0.0019819432   1000000        0.003798659    0.0013252271   0.00082194361  15.517282     -3.5307882      16.298786    
   1457000   1.8360976     -0.0027590422   1000000       -0.0034287672  -0.0052445861   0.0003962268   15.504013     -3.5447191      16.294708    
   1458000   1.8137919     -0.0022014613   1000000       -0.0010984125  -0.0014989783  -0.0040069932   15.489794     -3.5369567      16.306184    
   1459000   1.8217588     -6.9085029e-05  1000000       -8.0188634e-05  0.0015414566  -0.0016685231   15.496255     -3.5454141      16.309153    
   1460000   1.8154746     -0.0013328919   1000000        0.00014832383 -0.0010793989  -0.0030676005   15.492278     -3.5431039      16.312291    
   1461000   1.8294185      0.0025305594   1000000        0.0022252754   0.0020670557   0.0032993472   15.499101     -3.5538361      16.308931    
   1462000   1.836828      -0.00096256065  1000000       -0.002141819   -0.0034995011   0.0027536381   15.506741     -3.5486696      16.300292    
   1463000   1.8276416     -0.00057207605  1000000       -0.0042803672   0.0036393053  -0.0010751663   15.499387     -3.5529268      16.310974    
   1464000   1.8238244     -0.0011399551   1000000        0.0021876468  -0.0054869782  -0.00012053398  15.508103     -3.5401976      16.312686    
   1465000   1.8205483      0.001055817    1000000        0.0032645426  -0.0011331946   0.001036103    15.501785     -3.5407002      16.311784    
   1466000   1.8222573     -0.0041491833   1000000       -0.0005477049  -0.0068790524  -0.0050207927   15.501624     -3.5404446      16.308804    
   1467000   1.8138326      0.00017772148  1000000       -0.00096297948  0.0022923607  -0.00079621682  15.49187      -3.543056       16.314298    
   1468000   1.8315461     -0.0004435321   1000000       -0.00014575272 -0.0030993462   0.0019145027   15.506736     -3.5562285      16.315767    
   1469000   1.8377295     -0.00084475704  1000000       -0.0002103591  -0.0031738609   0.00084994888  15.505185     -3.5448012      16.293514    
   1470000   1.8178518     -0.0012664343   1000000        0.00051763208  0.0019387912  -0.0062557262   15.493896     -3.5420721      16.309312    
   1471000   1.818042      -0.0032100492   1000000       -0.00059610919 -0.0029041365  -0.0061299019   15.48037      -3.5497737      16.303202    
   1472000   1.8078099      0.0030085229   1000000        0.0024885053   0.0040534264   0.002483637    15.47452      -3.5409461      16.303872    
   1473000   1.8212892     -0.0038995862   1000000       -0.0065875078  -0.0019181965  -0.0031930542   15.482692     -3.5583049      16.309184    
   1474000   1.8152418     -0.0036796319   1000000       -0.0052352608  -0.0040042917  -0.0017993433   15.495407     -3.5429865      16.315651    
   1475000   1.8251339     -0.0016920693   1000000       -0.00061394304 -0.0035140846  -0.00094818026  15.498697     -3.552884       16.314002    
   1476000   1.8137303      9.2718023e-05  1000000       -0.001275843    0.00023727512  0.0013167219   15.497639     -3.5413107      16.318475    
   1477000   1.8372696      0.0014860347   1000000        0.00041603765 -0.0013338854   0.0053759518   15.519114     -3.5524314      16.315764    
   1478000   1.8305327     -0.001501413    1000000       -0.0035393141  -0.00043140114 -0.00053352388  15.52062      -3.5429771      16.31792     
   1479000   1.8337452     -0.00093219811  1000000       -0.0046957929   0.0015022384   0.00039696016  15.524234     -3.5409694      16.314708    
   1480000   1.8197362     -0.0017398028   1000000       -0.0023603058  -0.0033000715   0.00044096893  15.516089     -3.5338752      16.320481    
   1481000   1.8275059      0.0007475779   1000000        2.2562366e-05  0.001956106    0.00026406535  15.511401     -3.5469893      16.317253    
   1482000   1.8248837     -0.00066117361  1000000       -0.0060473143   0.0031662538   0.00089753968  15.515391     -3.545434       16.323621    
   1483000   1.8365993      0.0013464878   1000000        0.0049462851   0.0006840285  -0.00159085     15.516364     -3.5497308      16.311318    
   1484000   1.8373041     -0.0010952951   1000000        0.00017173396 -0.0032290903  -0.00022852895  15.522038     -3.553038       16.319242    
   1485000   1.8235253     -0.0011584693   1000000       -0.0048536392  -0.0042774438   0.005655675    15.518949     -3.5440184      16.327801    
   1486000   1.8432816     -0.0045883263   1000000       -0.0063806561  -0.004607456   -0.0027768667   15.524        -3.556058       16.315259    
   1487000   1.8334211      0.0050231883   1000000        0.0041227478   0.0065872244   0.0043595927   15.511878     -3.5478168      16.309686    
   1488000   1.836479       0.0014194499   1000000        0.0015862658   0.0017125799   0.00095950386  15.522616     -3.5473905      16.31541     
   1489000   1.8251081     -0.00012783933  1000000        0.00021888952 -0.001734602    0.0011321945   15.512343     -3.5549557      16.329758    
   1490000   1.8174819     -0.001169316    1000000       -0.0033417292  -0.00079571348  0.00062949456  15.497345     -3.5420248      16.313268    
   1491000   1.8314135     -0.00031818867  1000000        0.0041639619  -0.0016900375  -0.0034284904   15.510037     -3.5563983      16.319437    
   1492000   1.8139783      0.0033369918   1000000        0.0038165969   0.0063499124  -0.00015553396  15.4995       -3.5371262      16.31578     
   1493000   1.8190126     -0.0015848656   1000000       -0.0038197907  -0.00059887576 -0.00033593042  15.515958     -3.5262947      16.313855    
   1494000   1.8397362      0.00014141219  1000000        0.0013021026   0.0016631597  -0.0025410257   15.52612      -3.542103       16.308742    
   1495000   1.8265882     -0.00087279807  1000000       -0.0018846518  -0.00032211061 -0.00041163181  15.519801     -3.5398838      16.319924    
   1496000   1.8184763     -0.0019313882   1000000       -0.0041214911  -0.0011519494  -0.00052072404  15.494686     -3.5505582      16.317651    
   1497000   1.8230901      0.0022120679   1000000        0.0040995839   0.0023000774   0.0002365424   15.502193     -3.5427177      16.310397    
   1498000   1.8149778      0.0030175045   1000000        0.004742038    0.0026185831   0.0016918924   15.494416     -3.5342232      16.306294    
   1499000   1.8042137     -0.00013638607  1000000        0.0015912078  -0.0034758946   0.0014755285   15.473715     -3.5262125      16.293727    
   1500000   1.7935333     -0.00192719     1000000       -4.9771287e-06 -0.00091210897 -0.0048644838   15.467742     -3.5299123      16.307474    
   1501000   1.8059319     -0.0022075563   1000000       -0.0018696179  -0.003090996   -0.0016620551   15.461971     -3.540873       16.294067    
   1502000   1.8053223     -0.00082797516  1000000       -0.0030824025  -0.00082672687  0.0014252039   15.454085     -3.5530027      16.299225    
   1503000   1.8041161     -0.0011876405   1000000       -0.0039493285  -0.0028195235   0.0032059306   15.457576     -3.5537025      16.305224    
   1504000   1.8024147      0.0032879923   1000000       -0.00040169607  0.0049528747   0.0053127983   15.468513     -3.5462763      16.311287    
   1505000   1.8222802      0.00064480131  1000000        0.0013115415   0.0018282057  -0.0012053433   15.490305     -3.5529738      16.30998     
   1506000   1.8084704      0.0016314068   1000000        0.0015951947   0.0014918342   0.0018071915   15.486775     -3.553523       16.327713    
   1507000   1.8297212      0.0012259334   1000000        0.00075177984 -0.00051472197  0.0034407424   15.485381     -3.5696063      16.310528    
   1508000   1.8110881     -0.0024958236   1000000       -0.0030422021  -0.0021889613  -0.0022563073   15.485128     -3.5583801      16.326997    
   1509000   1.8137099     -0.0049430054   1000000       -0.0084085253  -0.0024200383  -0.0040004524   15.492002     -3.5447546      16.316313    
   1510000   1.8234598     -0.0029120633   1000000        0.0017100918  -0.005709733   -0.0047365487   15.498251     -3.5508643      16.314047    
   1511000   1.8340575     -0.0008146813   1000000        0.00081960657 -0.0012121418  -0.0020515087   15.508825     -3.5475056      16.305367    
   1512000   1.8146027     -0.00049343279  1000000       -0.0028023246   0.0032848982  -0.0019628719   15.504125     -3.5441521      16.326494    
   1513000   1.8141197     -0.0013973281   1000000       -0.00079545672 -0.0028155764  -0.00058095127  15.49682      -3.5465408      16.322302    
   1514000   1.8272556     -0.0046448223   1000000       -0.0011425749  -0.0067127313  -0.0060791608   15.5008       -3.555959       16.315998    
   1515000   1.8153843      0.00069476997  1000000        0.0038626978  -0.0035850734   0.0018066855   15.482097     -3.5505108      16.309653    
   1516000   1.8127349     -0.0011499775   1000000       -0.0033857678  -0.00094314024  0.00087897557  15.478372     -3.562732       16.322123    
   1517000   1.8121222     -0.0048300923   1000000       -0.0032803138  -0.0046715055  -0.0065384576   15.48301      -3.5548787      16.319826    
   1518000   1.8253991     -0.00026307026  1000000       -0.0011314062   0.0015402956  -0.0011981002   15.48586      -3.5563255      16.304209    
   1519000   1.8175649      0.00060334446  1000000        0.0016703734  -0.0020623296   0.0022019896   15.477819     -3.5657335      16.317326    
   1520000   1.8133038     -0.0017641446   1000000       -0.0043767441   0.00055304394 -0.0014687337   15.475522     -3.5685309      16.324218    
   1521000   1.8211082     -0.00064224424  1000000       -0.0020847681   0.0033215063  -0.0031634709   15.489379     -3.5595867      16.317425    
   1522000   1.8253266     -0.00053256585  1000000        0.0019352152  -0.00082331735 -0.0027095954   15.494485     -3.5580137      16.31463     
   1523000   1.8247789      0.00022217544  1000000       -8.5467465e-05  0.0022968936  -0.0015448998   15.501219     -3.5560586      16.320231    
   1524000   1.8342454     -0.0013317225   1000000        0.0018743878  -0.0037778325  -0.0020917229   15.505937     -3.5587861      16.313477    
   1525000   1.8171639      0.0031129075   1000000        0.0042252383   0.0016750841   0.0034384002   15.505832     -3.5461526      16.326359    
   1526000   1.8240061     -0.0019657142   1000000       -0.00098402097 -0.0015600767  -0.0033530449   15.503412     -3.5500116      16.317536    
   1527000   1.8302192      0.0014055332   1000000        0.0013919046   0.002996679   -0.0001719842   15.508043     -3.5588986      16.321735    
   1528000   1.8395528      1.4793299e-05  1000000       -0.00050359968  0.00097416617 -0.0004261866   15.502652     -3.5718271      16.315273    
   1529000   1.8337481      0.00038381886  1000000        0.00069937954 -0.00011999808  0.00057207513  15.5121       -3.5597138      16.321314    
   1530000   1.8373783      0.00046421231  1000000        0.0038978057  -0.00080858714 -0.0016965817   15.502846     -3.5720382      16.318939    
   1531000   1.8509392     -0.0032271155   1000000       -0.0039584057  -0.0014485079  -0.004274433    15.519315     -3.5765824      16.319612    
   1532000   1.8381751      0.0019503244   1000000        0.0025217876   0.00099214225  0.0023370433   15.519374     -3.5583987      16.320633    
   1533000   1.8313577     -0.00019241252  1000000       -0.0029232404   0.0033713756  -0.0010253728   15.514258     -3.5588536      16.326197    
   1534000   1.8356128     -0.0056647764   1000000       -0.0041725731  -0.0074347288  -0.0053870274   15.516559     -3.5644652      16.327727    
   1535000   1.8278569     -0.0021363702   1000000       -0.0028167125   0.00022966602 -0.0038220642   15.50972      -3.5678287      16.335885    
   1536000   1.8424167     -0.0031946829   1000000       -0.0031161278   0.00032274886 -0.0067906699   15.512904     -3.5690442      16.318446    
   1537000   1.8197398     -0.002229144    1000000        0.001411646   -0.0038067933  -0.0042922847   15.489885     -3.5691784      16.329575    
   1538000   1.826914       0.0026965656   1000000        0.0025298604   0.0030625293   0.0024973071   15.496418     -3.5694112      16.32558     
   1539000   1.8159152      0.0042958967   1000000        0.004117509    0.0036542656   0.0051159154   15.478683     -3.5601307      16.315062    
   1540000   1.8202462     -0.0008321321   1000000       -0.0045369594   0.00049572955  0.0015448336   15.48057      -3.5541057      16.304428    
   1541000   1.813082      -0.0051951548   1000000       -0.0071658378  -0.0020675257  -0.006352101    15.47591      -3.5520799      16.308488    
   1542000   1.8147961     -0.0012591182   1000000       -0.00054431317 -0.0024293947  -0.00080364656  15.473928     -3.5632197      16.315074    
   1543000   1.821892       0.0013677564   1000000       -0.002067156    0.0027609186   0.0034095067   15.468114     -3.5763178      16.311715    
   1544000   1.8503502      0.00061821335  1000000       -0.0015025897  -0.00073295902  0.0040901887   15.49305      -3.5873887      16.305037    
   1545000   1.8258373     -0.0029286901   1000000       -0.0017850713  -0.0070119967   1.0997771e-05  15.490199     -3.5748318      16.326396    
   1546000   1.8286259      0.0014153706   1000000        0.0032961913  -4.3219384e-05  0.00099313984  15.49092      -3.5757262      16.323829    
   1547000   1.8281769     -7.5108974e-05  1000000       -0.0030147952   0.0029583968  -0.00016892846  15.497814     -3.5658403      16.321511    
   1548000   1.8288897     -0.00068785249  1000000       -0.00089329735  0.00030654419 -0.0014768043   15.508172     -3.5548929      16.319853    
   1549000   1.8339291      0.0013532914   1000000        0.0031847555   0.0031140194  -0.0022389008   15.521242     -3.5477139      16.318184    
   1550000   1.8417691     -0.00078465904  1000000        0.00043171476 -0.0007605273  -0.0020251646   15.509762     -3.5652335      16.312465    
   1551000   1.8316445     -0.00041080741  1000000        0.0011296745  -0.00027479571 -0.002087301    15.511396     -3.5650951      16.329146    
   1552000   1.8426302     -0.00053723626  1000000       -0.0026993435  -0.00096890535  0.0020565401   15.501462     -3.5630355      16.300675    
   1553000   1.8309469      0.0029197632   1000000        0.0014150963   0.0034409559   0.0039032373   15.494407     -3.5651225      16.313231    
   1554000   1.821879      -0.0022923909   1000000       -0.00047238271 -0.0032056786  -0.0031991113   15.491131     -3.5654327      16.323867    
   1555000   1.8281369     -0.00022740218  1000000        0.00099999633 -0.00018559762 -0.0014966053   15.488291     -3.5656443      16.311852    
   1556000   1.8284628     -0.0014980354   1000000       -0.0011670834  -0.0033114873  -1.5535489e-05  15.495766     -3.5687508      16.321945    
   1557000   1.8294579     -0.00077958139  1000000       -4.4401345e-05 -0.00071129884 -0.001583044    15.496548     -3.5683234      16.320806    
   1558000   1.8153517      0.0025761146   1000000        0.0018200882   1.6868796e-06  0.0059065686   15.470228     -3.5787886      16.32611     
   1559000   1.8263849     -9.4412553e-05  1000000       -0.0047481687   0.00051271678  0.0039522143   15.470856     -3.5855788      16.316979    
   1560000   1.8260426      0.0036768689   1000000        0.0024467558   0.0042453696   0.0043384812   15.474184     -3.5801492      16.315392    
   1561000   1.8192112     -0.0013799185   1000000       -0.00088670079 -0.0023347752  -0.00091827941  15.471891     -3.5716346      16.31483     
   1562000   1.8199528     -0.0032128889   1000000       -0.0026722403  -0.003534241   -0.0034321853   15.465271     -3.5669067      16.30237     
   1563000   1.8176935     -0.0039039404   1000000       -0.0050363593  -0.00088326383 -0.0057921982   15.466233     -3.5718517      16.311666    
   1564000   1.8254061      0.00069041479  1000000        0.00073367139 -0.00020042593  0.0015379989   15.486614     -3.5682822      16.316909    
   1565000   1.8335628      0.00136334     1000000        0.00031566239  0.004082551   -0.00030819339  15.485763     -3.5811801      16.316721    
   1566000   1.8396569     -0.0014730675   1000000       -0.0038447774  -0.0012311099   0.00065668481  15.487256     -3.5765879      16.304481    
   1567000   1.8327366      0.00025594368  1000000        0.0013391597  -0.0015810097   0.001009681    15.473955     -3.5880611      16.313033    
   1568000   1.8423466     -0.0027133159   1000000       -0.0018347731  -0.0047714273  -0.0015337474   15.471263     -3.5899545      16.297821    
   1569000   1.8372109      0.0012048426   1000000        0.0029387907   0.00096262485 -0.00028688761  15.475427     -3.5871112      16.306844    
   1570000   1.8317433     -0.0020988734   1000000       -0.0017161954  -0.001652239   -0.0029281857   15.470438     -3.5874435      16.310389    
   1571000   1.8211674     -3.2073629e-05  1000000       -0.00069457428  0.0029871716  -0.0023888182   15.461426     -3.5865776      16.316374    
   1572000   1.8134454      0.0032865642   1000000        0.0029305709   0.00087366985  0.006055452    15.447438     -3.5929658      16.320356    
   1573000   1.8291962      0.002956548    1000000        0.0030471921   0.0020294353   0.0037930166   15.456838     -3.6040459      16.317211    
   1574000   1.8217828      0.0035842454   1000000        0.003754972    0.0020301353   0.0049676289   15.458091     -3.5920283      16.317567    
   1575000   1.8355623     -0.0001730926   1000000       -0.00069599117  0.0016938372  -0.0015171239   15.461397     -3.6033732      16.311549    
   1576000   1.8201151     -0.0043329531   1000000       -0.0065298881  -0.0040956062  -0.0023733649   15.459791     -3.5848034      16.314543    
   1577000   1.8190542     -0.00074704524  1000000       -0.0032236096  -0.00052882246  0.0015112964   15.472356     -3.5744894      16.318386    
   1578000   1.8183282     -0.0021219094   1000000       -0.0044878902  -0.0019098375   3.1999592e-05  15.47268      -3.574283       16.319592    
   1579000   1.8250878     -0.00092393091  1000000       -0.000547868   -0.0035399128   0.0013159881   15.476877     -3.5814885      16.320856    
   1580000   1.8222656     -0.00031100566  1000000        0.0023429376  -0.00085096415 -0.0024249904   15.475743     -3.5805816      16.323047    
   1581000   1.8296886     -0.00074812402  1000000        0.0022581714  -0.0015793016  -0.0029232419   15.481237     -3.5861851      16.323011    
   1582000   1.8282536      0.0024870579   1000000        0.0040107475   0.0013912135   0.0020592128   15.488897     -3.5702569      16.316895    
   1583000   1.8173769     -0.00031590187  1000000       -0.002349425    0.00053435134  0.00086736802  15.479223     -3.5696206      16.322899    
   1584000   1.8305233     -0.00013975476  1000000        0.0001324955   0.0019049482  -0.002456708    15.491113     -3.5835418      16.328992    
   1585000   1.8252599      0.00046755071  1000000        0.004051367   -0.00021895325 -0.0024297617   15.487911     -3.5659755      16.316119    
   1586000   1.819134       0.0001695012   1000000       -0.0024005381   0.0014588081   0.0014502336   15.480932     -3.5638591      16.316211    
   1587000   1.8185891     -0.0031081665   1000000       -0.0047945838  -0.0021627695  -0.0023671461   15.476389     -3.56102        16.309647    
   1588000   1.8269913      0.0026934173   1000000        0.003392447    0.0015728083   0.0031149966   15.469121     -3.5703146      16.29907     
   1589000   1.8274007      0.00079150935  1000000        0.0034809429   0.0011190418  -0.0022254567   15.4748       -3.5714559      16.305277    
   1590000   1.8395466     -0.0010760798   1000000       -0.0019483347  -0.00046210104 -0.00081780374  15.484401     -3.5827197      16.307924    
   1591000   1.8312045     -0.0015456237   1000000       -0.00065112065 -0.0014755576  -0.0025101928   15.473483     -3.5790773      16.305876    
   1592000   1.8091292      0.001163663    1000000        0.00280491     0.0014031401  -0.000717061    15.463668     -3.5655486      16.315644    
   1593000   1.8232333     -0.0017860759   1000000        0.00013938826 -0.0015931943  -0.0039044217   15.4563       -3.5776606      16.299232    
   1594000   1.8190484      3.5554593e-05  1000000        0.0011527982   0.00077097951 -0.001817114    15.468403     -3.5686859      16.308638    
   1595000   1.8121628      0.00073955446  1000000        0.0037481339  -0.00027558853 -0.001253882    15.455824     -3.5831189      16.32082     
   1596000   1.8185366      0.00015639362  1000000        0.00085781088  0.001682785   -0.0020714151   15.45736      -3.5877862      16.317463    
   1597000   1.8243308     -0.00020252946  1000000       -0.00033264255  0.0028735655  -0.0031485113   15.449759     -3.5931381      16.306523    
   1598000   1.8116728      0.0024920269   1000000       -0.0025362875   0.0041267388   0.0058856296   15.443033     -3.587199       16.312844    
   1599000   1.8270152      0.0016951154   1000000        0.0033789975  -0.0012328577   0.0029392063   15.442912     -3.5923057      16.294816    
   1600000   1.819457      -0.0014754955   1000000       -0.00056221905 -0.0062509209   0.0023866534   15.442703     -3.5885979      16.302237    
   1601000   1.8190183      0.0019850898   1000000        0.0030294381  -0.0020597369   0.004985568    15.448667     -3.5910454      16.311307    
   1602000   1.8171476      4.9006067e-05  1000000        0.001822602   -0.00044496438 -0.0012306194   15.449888     -3.5907279      16.315016    
   1603000   1.8188173     -0.00477938     1000000       -0.0041441423  -0.004500436   -0.0056935617   15.456429     -3.59094        16.319264    
   1604000   1.8236235     -0.0030436634   1000000       -0.0043279881  -0.0027440809  -0.0020589212   15.46245      -3.5855446      16.312681    
   1605000   1.8253437     -0.0014346997   1000000        0.00050027149 -0.0031806155  -0.0016237552   15.45155      -3.5927095      16.306365    
   1606000   1.810084      -0.0011578616   1000000        0.00061915438 -0.0030772069  -0.0010155323   15.461341     -3.5873587      16.333695    
   1607000   1.8239076     -0.001042633    1000000        5.966664e-05   0.00041672495 -0.0036042907   15.459742     -3.5983531      16.322355    
   1608000   1.8268882      0.0026761384   1000000        0.0037899076   0.0015689855   0.0026695222   15.461745     -3.6083675      16.329902    
   1609000   1.8276603      0.00066011686  1000000        0.0033076904  -0.001994863    0.00066752318  15.448191     -3.6069813      16.313804    
   1610000   1.8369068     -0.002344487    1000000       -0.0035464274  -0.0025252867  -0.00096174672  15.463923     -3.6097861      16.318471    
   1611000   1.8181527      0.0014530996   1000000        0.0037872514  -0.0020290872   0.0026011347   15.452197     -3.5972012      16.322291    
   1612000   1.8185896      0.0024961298   1000000        0.0021993723   0.0025214074   0.0027676099   15.443519     -3.5980469      16.313802    
   1613000   1.8189079     -0.00074355637  1000000       -0.00047104984 -0.00071253806 -0.0010470812   15.440397     -3.6159615      16.328118    
   1614000   1.829223       0.00042953279  1000000       -0.0019300993   0.0052977039  -0.0020790062   15.439712     -3.6175327      16.313532    
   1615000   1.8128491     -0.00014466139  1000000       -0.00027029782 -0.00062122488  0.00045753853  15.430885     -3.6212762      16.333008    
   1616000   1.8216803      0.00044098708  1000000        0.0027587465   0.00077452068 -0.0022103059   15.443503     -3.6083982      16.319502    
   1617000   1.8231517      0.00045932521  1000000        0.0024280544   0.00056203778 -0.0016121165   15.433482     -3.6157966      16.314673    
   1618000   1.8405208     -0.0010020684   1000000        0.00032903683 -0.0040282497   0.00069300769  15.438803     -3.6191967      16.297341    
   1619000   1.8362375     -0.0014911586   1000000       -0.00062251726 -0.0032767378  -0.00057422081  15.442642     -3.6152812      16.30369     
   1620000   1.8368309      0.00048735284  1000000        0.0031530762  -0.0012644728  -0.0004265448   15.461965     -3.6030045      16.309845    
   1621000   1.8313574     -0.0011697741   1000000       -0.0012175741  -0.00091122937 -0.001380519    15.454439     -3.6074873      16.315012    
   1622000   1.8278218      0.0025443794   1000000        0.0054911898   0.001403445    0.00073850331  15.451865     -3.5973698      16.307624    
   1623000   1.8118058      0.00093020026  1000000       -0.00041744814  0.00069231015  0.0025157388   15.445894     -3.5942046      16.32251     
   1624000   1.8173491     -0.0017375247   1000000       -0.0037967559   0.0011669909  -0.0025828093   15.450349     -3.5930118      16.317458    
   1625000   1.8206714     -0.0038711938   1000000       -0.0051613837  -0.0023042506  -0.0041479471   15.435666     -3.6053951      16.310175    
   1626000   1.8077977      1.3011491e-05  1000000        0.0031494083   0.00051647596 -0.0036268498   15.41285      -3.6026616      16.303935    
   1627000   1.818218       0.0023088264   1000000        0.0020136617   0.00045619916  0.0044566184   15.403034     -3.6167368      16.292565    
   1628000   1.8089902     -0.0021576416   1000000       -0.0023676024   8.0180219e-05 -0.0041855026   15.409366     -3.6105487      16.30655     
   1629000   1.8030046     -0.0014366101   1000000       -0.00028421832 -0.0017494682  -0.0022761438   15.412832     -3.6005581      16.309003    
   1630000   1.8112418     -0.00022141854  1000000        0.0026523768  -0.0040638522   0.00074721972  15.424531     -3.5992597      16.307049    
   1631000   1.8289941      0.00029996711  1000000        0.0020786463  -0.0017459997   0.00056725473  15.433971     -3.6101153      16.300717    
   1632000   1.8244014     -0.00013336552  1000000       -0.00072203565 -0.0014714984   0.0017934375   15.429002     -3.6059188      16.29844     
   1633000   1.8124809     -0.0027379203   1000000        0.00062451443 -0.0055049777  -0.0033332977   15.423705     -3.6072419      16.312346    
   1634000   1.8245684     -0.0015418059   1000000        0.0017731714  -0.0050400588  -0.0013585304   15.43482      -3.6131534      16.311242    
   1635000   1.8144411     -0.002214406    1000000       -0.0025443365  -0.0015088573  -0.0025900242   15.423569     -3.6065686      16.308597    
   1636000   1.8146115     -0.0018196032   1000000       -0.0071951894   0.0031945072  -0.0014581275   15.409964     -3.6158456      16.304013    
   1637000   1.7990264     -0.00096147036  1000000       -0.0010614887   0.00093470802 -0.0027576304   15.397329     -3.5988189      16.297728    
   1638000   1.8062887     -0.0026572494   1000000       -0.0022464055  -0.0040890036  -0.0016363392   15.411205     -3.5996         16.301493    
   1639000   1.8091905      0.0029749134   1000000        0.00112643     0.0051071987   0.0026911116   15.414398     -3.6038851      16.304618    
   1640000   1.8137581      0.00044128851  1000000        0.0028279547   0.0045174596  -0.0060215488   15.412428     -3.6177712      16.309683    
   1641000   1.8054761     -0.00015362872  1000000        0.0018153659   0.0016586576  -0.0039349097   15.419536     -3.6041796      16.315622    
   1642000   1.8133552      0.0015710096   1000000        0.004417394   -0.0012615909   0.0015572255   15.409101     -3.600985       16.290174    
   1643000   1.7998964     -0.0012631753   1000000       -0.00031409737 -0.0023729088  -0.0011025196   15.406308     -3.599871       16.306454    
   1644000   1.7917549     -0.00097077483  1000000       -0.004737786   -0.0016654721   0.0034909336   15.40169      -3.6155149      16.329692    
   1645000   1.8202974      0.0033110432   1000000        0.0031795138   0.0056134917   0.001140124    15.408324     -3.6277153      16.305715    
   1646000   1.8218464     -0.0024918055   1000000       -0.002065073   -0.0027985342  -0.0026118093   15.412953     -3.6187803      16.299085    
   1647000   1.8177823     -0.0015000329   1000000       -0.0019346735  -0.001047286   -0.0015181391   15.424658     -3.6067399      16.304845    
   1648000   1.8250289     -0.00048708631  1000000        1.0461167e-05  0.0010908608  -0.0025625809   15.430469     -3.6127259      16.305773    
   1649000   1.8121191      0.0014300824   1000000        0.00064888136  0.0032780038   0.000363362    15.434424     -3.6055718      16.321938    
   1650000   1.8328882      6.723706e-05   1000000       -0.0010288136   0.0006787929   0.0005517319   15.430441     -3.6237577      16.304989    
   1651000   1.8209704     -0.0012551352   1000000       -0.0013409906  -0.0017340378  -0.00069037718  15.423778     -3.623823       16.316267    
   1652000   1.824978      -0.0015910063   1000000        0.00255101    -0.0069610503  -0.0003629786   15.435143     -3.6182125      16.31601     
   1653000   1.8138793     -0.0022546374   1000000       -0.0036123561  -0.0036502077   0.00049865169  15.425142     -3.6262382      16.330682    
   1654000   1.8301804     -0.0016400563   1000000        0.00082932691 -0.0052069739  -0.00054252196  15.403947     -3.6386811      16.29748     
   1655000   1.8186637      0.0015401099   1000000        0.0054286736  -0.00067380229 -0.00013454164  15.392326     -3.6336922      16.298144    
   1656000   1.8308816      0.00067948626  1000000       -0.0008418568   0.0038180396  -0.00093772398  15.396333     -3.6603801      16.310513    
   1657000   1.8120943      0.0061433209   1000000        0.0041217803   0.006439753    0.0078684293   15.396223     -3.6446985      16.322901    
   1658000   1.8254582      0.0023730401   1000000       -0.00013661556  0.0033828271   0.0038729087   15.405005     -3.6547158      16.321655    
   1659000   1.8304941     -0.0011332103   1000000       -0.0017514874  -0.0010018476  -0.00064629572  15.415383     -3.643757       16.313521    
   1660000   1.8266967     -0.00022086341  1000000       -0.0020651183   0.0013497843   5.2743758e-05  15.416716     -3.6393693      16.316162    
   1661000   1.8186795      0.0029216152   1000000        0.0028426935   0.0035935947   0.0023285573   15.413343     -3.6292968      16.314742    
   1662000   1.8221707      0.0013694868   1000000        0.0010353088   0.0024844074   0.00058874425  15.417567     -3.6286437      16.313076    
   1663000   1.8073956     -0.00149569     1000000       -0.0025112034  -0.0028931315   0.00091726502  15.41244      -3.617891       16.319358    
   1664000   1.8126017     -0.0024480996   1000000       -0.0017091475  -0.0010067226  -0.0046284287   15.415655     -3.6216634      16.318537    
   1665000   1.8134898     -0.00099105516  1000000       -0.0013974075  -0.0015391367  -3.6621334e-05  15.408745     -3.6238966      16.312528    
   1666000   1.8192107      0.0017237351   1000000        0.0031967869   0.00038800003  0.0015864184   15.397931     -3.6367739      16.30601     
   1667000   1.8104816     -0.0017488794   1000000       -0.001440173   -0.00056502785 -0.0032414375   15.416929     -3.6176596      16.318987    
   1668000   1.8264108      0.00091348457  1000000       -0.0032104747   0.0043089615   0.001641967    15.40882      -3.6255641      16.29489     
   1669000   1.8304218      0.0046011309   1000000        0.00066947324  0.0072956065   0.005838313    15.420874     -3.6339216      16.309285    
   1670000   1.8260136      0.00052206135  1000000        0.0018105143  -0.00036820471  0.0001238744   15.397632     -3.6364893      16.295222    
   1671000   1.8233476      0.0025549721   1000000        0.0026166383   0.0035288572   0.0015194208   15.403485     -3.6306474      16.299232    
   1672000   1.8181855      0.0011045581   1000000       -0.00079869484  0.003723723    0.00038864618  15.407038     -3.6237658      16.303647    
   1673000   1.8140319     -0.0038622061   1000000       -0.0019750854  -0.003894059   -0.0057174739   15.396906     -3.6253316      16.301311    
   1674000   1.8088675     -0.0023589451   1000000       -0.0013964383  -0.0031810241  -0.0024993727   15.385588     -3.6318874      16.304294    
   1675000   1.8089547     -0.0034541169   1000000       -0.0022242683  -0.0048564392  -0.0032816432   15.383683     -3.6248242      16.295196    
   1676000   1.8090005      0.00076872811  1000000        0.0012392737  -0.00040924104  0.0014761517   15.376149     -3.6211919      16.283961    
   1677000   1.8162551      0.0023599342   1000000        0.0025621684   0.0025693949   0.0019482392   15.387959     -3.6393813      16.303078    
   1678000   1.8183401      0.0048545435   1000000        0.0028508713   0.0048022777   0.0069104816   15.390788     -3.6382982      16.301698    
   1679000   1.8178307      0.0018496055   1000000        0.0017578787   0.0018643344   0.0019266034   15.385498     -3.6433521      16.302225    
   1680000   1.8176393     -0.0024099149   1000000       -0.003082122   -0.00061770544 -0.0035299172   15.392422     -3.6439547      16.310039    
   1681000   1.8299211     -0.0019132438   1000000       -0.0058324991  -0.0016852774   0.001778045    15.408946     -3.6395543      16.303741    
   1682000   1.8157623     -0.0036586806   1000000       -0.0051040728  -0.0011730249  -0.0046989441   15.3924       -3.6315477      16.300425    
   1683000   1.8199568      0.00097109537  1000000       -0.00099080736  0.0051726832  -0.0012685898   15.390679     -3.6308989      16.291764    
   1684000   1.8185932      0.0023559715   1000000        0.0037500652   0.0017444121   0.0015734374   15.388904     -3.6343799      16.295515    
   1685000   1.8219532     -0.0037211186   1000000       -0.00072135024 -0.0058260922  -0.0046159135   15.391024     -3.6474488      16.305664    
   1686000   1.822389      -0.003221748    1000000       -0.0038072944  -0.0042671315  -0.0015908181   15.39912      -3.6480018      16.31366     
   1687000   1.8168377     -0.00091052188  1000000        0.00063059394 -0.0013207786  -0.002041381    15.400779     -3.6438672      16.319511    
   1688000   1.8079112     -5.8260094e-05  1000000       -0.0014966042   0.0027111494  -0.0013893255   15.393641     -3.6451669      16.327061    
   1689000   1.817957       0.0021103257   1000000        0.0031040803   0.0037360479  -0.00050915115  15.417416     -3.6297361      16.320338    
   1690000   1.8201218      0.0032936482   1000000        0.0062511239   0.0030652624   0.00056455837  15.413452     -3.6315614      16.314952    
   1691000   1.8226691      0.00035026214  1000000        0.0023544874  -0.0011990745  -0.00010462645  15.407602     -3.6438396      16.31756     
   1692000   1.8283409      0.0029855224   1000000        0.0034597897   0.0001506579   0.0053461195   15.410251     -3.6446611      16.312522    
   1693000   1.8218812      9.9393303e-05  1000000        0.00097898296 -0.0011827507   0.00050194768  15.403035     -3.6288119      16.299147    
   1694000   1.8216919     -0.0013928138   1000000        0.0014835426  -0.0054452271  -0.0002167569   15.399929     -3.6381808      16.305693    
   1695000   1.8103892      0.00066334655  1000000        0.0006438343   0.00079507694  0.0005511284   15.405408     -3.6309838      16.320929    
   1696000   1.8038797     -0.0070122043   1000000       -0.0041031971  -0.0035144482  -0.013418968    15.409687     -3.6277012      16.331689    
   1697000   1.8173782     -0.0055205269   1000000       -0.0042374678  -0.0068725909  -0.0054515219   15.422055     -3.6265275      16.322636    
   1698000   1.8375728      0.00091638477  1000000       -0.0037642914   0.0022803805   0.0042330652   15.444997     -3.6392415      16.328002    
   1699000   1.825428      -0.00096499329  1000000       -0.0029451532   0.00077398802 -0.00072381468  15.435394     -3.6371109      16.334485    
   1700000   1.8374781     -0.0016928349   1000000        0.0010320016  -0.0039767827  -0.0021337237   15.448513     -3.6291971      16.321616    
   1701000   1.8284208     -0.001207317    1000000        0.00054073806 -0.0013476252  -0.002815064    15.452424     -3.6113279      16.321243    
   1702000   1.8281076      0.00046852154  1000000        0.0010461519   0.0015041506  -0.0011447379   15.444556     -3.6062482      16.308764    
   1703000   1.8318179      0.00044364562  1000000       -9.0853843e-05  0.0026466102  -0.0012248195   15.440135     -3.6156749      16.308205    
   1704000   1.8333026     -0.003531489    1000000       -0.0037343373   0.00052052025 -0.00738065     15.443392     -3.6298209      16.323381    
   1705000   1.8341147     -0.0016437759   1000000        0.001640872   -0.0042238533  -0.0023483465   15.43918      -3.6250989      16.313229    
   1706000   1.8396831      0.0038112076   1000000        0.0062462616   0.00042626142  0.0047610997   15.443878     -3.6336297      16.318105    
   1707000   1.8456752     -0.0013643791   1000000        0.00061163928 -0.0023326184  -0.0023721581   15.44095      -3.6404284      16.312989    
   1708000   1.8360273     -0.0010425117   1000000       -0.001285562   -0.0014796858  -0.0003622871   15.430995     -3.6352498      16.312327    
   1709000   1.8237969      0.0024078784   1000000        0.0014304688   0.0034148029   0.0023783636   15.423012     -3.6368544      16.324293    
   1710000   1.8270925     -0.0021811659   1000000       -0.0018907739  -0.0025494497  -0.002103274    15.419435     -3.6426906      16.321609    
   1711000   1.827287      -0.0035883331   1000000       -0.0033459499  -0.0033013414  -0.004117708    15.424213     -3.6369776      16.320381    
   1712000   1.8263531      0.0011673837   1000000        0.0020080469   0.000530471    0.0009636331   15.429944     -3.6400751      16.330611    
   1713000   1.8268023     -0.0010450159   1000000       -0.0010490595  -0.001672771   -0.00041321705  15.428206     -3.6367125      16.324837    
   1714000   1.831776       0.0022055602   1000000        0.0015704125   0.0039672556   0.0010790125   15.429983     -3.6461491      16.32859     
   1715000   1.834663       0.0005439632   1000000        0.0018940259  -0.0011554953   0.00089335896  15.42316      -3.6461253      16.317413    
   1716000   1.8310647     -0.0037192879   1000000       -0.0065041051  -0.0044711265  -0.00018263198  15.423888     -3.6465242      16.323937    
   1717000   1.8209546     -0.0019898861   1000000       -0.0024042469   0.0017778712  -0.0053432825   15.417632     -3.6418052      16.328127    
   1718000   1.8295405     -0.00053061919  1000000       -0.0002466547  -0.00025902558 -0.0010861773   15.416982     -3.6495505      16.322343    
   1719000   1.8393645      0.0018456358   1000000       -4.855108e-06   0.001045136    0.0044966264   15.415234     -3.6566336      16.312944    
   1720000   1.8245272     -0.0014896911   1000000       -0.0037212592  -0.00056771332 -0.00018010078  15.405869     -3.6476112      16.316811    
   1721000   1.8244507      0.00073293306  1000000        0.0022522097  -9.8647557e-05  4.5237024e-05  15.402759     -3.6402724      16.306477    
   1722000   1.8167653      0.0011934192   1000000        0.0017258829   0.0017629813   9.1393226e-05  15.396076     -3.6497342      16.320784    
   1723000   1.8189407      0.0013713027   1000000        0.0017524182   0.0021919706   0.00016951939  15.389539     -3.6551883      16.316437    
   1724000   1.8277516     -0.0014067491   1000000        0.00040956495 -0.0013290872  -0.003300725    15.402852     -3.64701        16.308356    
   1725000   1.8281411      0.00082016094  1000000       -0.0011683966   0.0029660401   0.00066283932  15.404299     -3.6313959      16.293606    
   1726000   1.821616       0.00099441429  1000000        0.0028958372   8.263401e-05   4.7716288e-06  15.399608     -3.6416934      16.308999    
   1727000   1.8095596     -0.00021428355  1000000        0.0052063535  -0.0033361867  -0.0025130174   15.390106     -3.648044       16.323932    
   1728000   1.7969067     -0.0013897812   1000000       -0.0015564473  -0.0034536013   0.00084070497  15.378953     -3.6311994      16.314912    
   1729000   1.802775      -0.0014267786   1000000       -0.0018916778  -0.0045452703   0.0021566124   15.386213     -3.6364361      16.318607    
   1730000   1.8341143     -0.0028074317   1000000       -0.004603481   -0.0022882625  -0.0015305516   15.394009     -3.6510104      16.29397     
   1731000   1.8154093      0.0018184568   1000000        0.0062913291  -0.0017551036   0.00091914493  15.385642     -3.6423385      16.304988    
   1732000   1.8173007     -0.0046423869   1000000       -0.0035225732  -0.0059487343  -0.0044558534   15.383874     -3.6489948      16.307039    
   1733000   1.7967049      0.0035887854   1000000        0.0030973909   0.0052535816   0.0024153838   15.362512     -3.6347338      16.302309    
   1734000   1.8042788     -0.00098938214  1000000        0.00015746814  0.0010228331  -0.0041484476   15.372042     -3.6391591      16.304903    
   1735000   1.8200015     -0.0016914017   1000000       -0.00067793363 -0.0062709235   0.0018746521   15.392653     -3.6521197      16.314892    
   1736000   1.8347977     -0.0019297448   1000000       -0.0032851574  -0.0018418173  -0.00066225963  15.393983     -3.6523595      16.294269    
   1737000   1.8204829     -0.0026072652   1000000       -0.0031606105   0.001554769   -0.0062159542   15.397153     -3.6415788      16.308129    
   1738000   1.8102613     -0.0011868962   1000000       -0.002686392   -0.00078498263 -8.9313809e-05  15.392342     -3.6393277      16.316399    
   1739000   1.8189336      0.00083466601  1000000        0.00027909312  0.00093200825  0.0012928967   15.395004     -3.6434117      16.310137    
   1740000   1.8144752      0.00070171099  1000000        0.0021287673  -0.00078045196  0.00075681769  15.396565     -3.6343212      16.309294    
   1741000   1.8304043      0.0022552014   1000000        0.0041460207   0.002919992   -0.00030040865  15.407241     -3.6424896      16.304246    
   1742000   1.817033       5.3886191e-05  1000000        0.0017352289   0.002500454   -0.0040740244   15.396645     -3.6430301      16.314247    
   1743000   1.8110136      0.00039116902  1000000       -0.00085017222  0.0026427938  -0.00061911455  15.384746     -3.6510349      16.319381    
   1744000   1.8146099      0.0011717581   1000000        0.0061325481  -0.0031349067   0.00051763279  15.378971     -3.6492645      16.306442    
   1745000   1.8173565      0.0025440982   1000000        0.0013934545   0.0037889672   0.0024498729   15.373767     -3.6608789      16.308732    
   1746000   1.8057339      0.0017578755   1000000        0.0016091857   0.0040368636  -0.00037242288  15.370102     -3.6572931      16.318915    
   1747000   1.8049977     -0.00077108239  1000000       -0.0015799152  -0.0019242764   0.0011909444   15.374751     -3.6463405      16.313716    
   1748000   1.8033992     -0.00044683542  1000000       -0.00091347976  0.001113342   -0.0015403685   15.373145     -3.6311944      16.29936     
   1749000   1.817024       0.0023947498   1000000        0.00083646155  0.005268998    0.0010787898   15.383127     -3.6447728      16.302485    
   1750000   1.8108512      0.00025435081  1000000        0.0008862608   0.0021863292  -0.0023095375   15.374909     -3.6525388      16.311292    
   1751000   1.8088904      0.00070203461  1000000        0.00046919629  0.0018818361  -0.00024492858  15.364388     -3.6458457      16.297019    
   1752000   1.8222759      0.00067546307  1000000       -0.0011326856   0.0025217079   0.00063736699  15.366509     -3.66516        16.298377    
   1753000   1.8085655      0.00074496197  1000000        0.0005981843   0.0014086282   0.00022807337  15.363782     -3.6661605      16.317215    
   1754000   1.8207295      0.00034876894  1000000        3.4007178e-05  0.00053340795  0.0004788917   15.365605     -3.658598       16.29323     
   1755000   1.8239389      0.0004409936   1000000        0.001196943   -0.0027067259   0.0028327637   15.374511     -3.6552867      16.294011    
   1756000   1.8180118      0.00053757941  1000000        0.0025613627   0.0021181839  -0.0030668084   15.374515     -3.6565879      16.304206    
   1757000   1.8143003     -0.0016625102   1000000       -0.0034000387   0.0010625287  -0.0026500207   15.36144      -3.6648774      16.304987    
   1758000   1.8121494     -0.0002670087   1000000        0.0010360048  -0.0038565398   0.0020195089   15.362486     -3.6545556      16.298938    
   1759000   1.8180826      0.0026124997   1000000        0.002422721   -0.00019069219  0.0056054703   15.358131     -3.6567889      16.287917    
   1760000   1.8075026      0.0033630035   1000000       -0.00034071179  0.0020190822   0.0084106401   15.351215     -3.6553285      16.29541     
   1761000   1.8015395     -0.0022352902   1000000       -0.00035136347 -0.0029080131  -0.0034464941   15.356004     -3.6552788      16.309094    
   1762000   1.8115992     -0.00079369833  1000000        0.00036411335 -0.00028074324 -0.0024644651   15.368529     -3.6508269      16.302078    
   1763000   1.8052001     -0.0018690012   1000000        0.0036759927  -0.006597877   -0.0026851192   15.361053     -3.6570163      16.31039     
   1764000   1.8252216      0.0017794379   1000000        0.0036345286   0.0020399528  -0.00033616772  15.383278     -3.6578584      16.303426    
   1765000   1.833687      -0.0017575854   1000000       -0.00088280404 -0.00076603059 -0.0036239217   15.386454     -3.6650803      16.301126    
   1766000   1.8283454      0.0031283007   1000000        0.0023543169   0.0047888628   0.0022417224   15.398297     -3.6518855      16.307786    
   1767000   1.8146217      0.00026962295  1000000        0.0013986432  -0.0023996952   0.0018099208   15.396076     -3.6352792      16.309544    
   1768000   1.8146233     -0.0019970193   1000000       -0.00063512879 -0.0031777244  -0.0021782046   15.391887     -3.6417659      16.311839    
   1769000   1.8248335     -0.0017171089   1000000       -0.0035383232  -0.0040985448   0.0024855413   15.393532     -3.6431498      16.299553    
   1770000   1.8155662      0.00029148502  1000000        9.8060717e-05 -0.00038875603  0.0011651504   15.40268      -3.6401809      16.319633    
   1771000   1.8317636     -0.00295154     1000000       -0.00050290654 -0.0044152764  -0.003936437    15.403891     -3.6506794      16.307047    
   1772000   1.8170412     -0.001789883    1000000       -0.0024726604  -0.00098835223 -0.0019086365   15.40019      -3.6490144      16.323764    
   1773000   1.8258323     -0.00064414642  1000000       -0.0036548135   0.0013794268   0.00034294746  15.407236     -3.6475756      16.316185    
   1774000   1.822101       0.0037891764   1000000        0.0062740723   0.0019488835   0.0031445735   15.399852     -3.6528458      16.319668    
   1775000   1.8167533      0.0010770498   1000000        0.00059837281  0.00083036782  0.0018024086   15.39465      -3.6604387      16.33008     
   1776000   1.8229045     -0.0011274443   1000000       -0.001963904   -0.002772287    0.0013538582   15.380517     -3.6621417      16.308423    
   1777000   1.8114892     -0.0018206925   1000000       -0.0042163217  -0.0017168936   0.00047113778  15.38493      -3.6400461      16.307863    
   1778000   1.8089597      0.0011408518   1000000       -0.00071153902  0.0043665722  -0.00023247783  15.392988     -3.6356727      16.315342    
   1779000   1.8205889     -0.0011353888   1000000       -0.0021057232  -0.0021600468   0.00085960352  15.410493     -3.6254701      16.305201    
   1780000   1.8239175     -0.0051098037   1000000       -0.0037347716  -0.0059939023  -0.0056007371   15.404916     -3.6343943      16.303556    
   1781000   1.8255906      0.0035114401   1000000        0.0027467538   0.0055943356   0.0021932307   15.405456     -3.6381176      16.305309    
   1782000   1.8216318     -0.0023344211   1000000       -0.0024809169  -0.0042813417  -0.0002410048   15.406818     -3.6386485      16.31314     
   1783000   1.8088302     -0.0023347044   1000000       -0.0014228731  -0.0015117199  -0.0040695202   15.39578      -3.6467395      16.329395    
   1784000   1.8243051      0.0019665251   1000000        0.0022497064   0.0023381177   0.001311751    15.399979     -3.6463364      16.30998     
   1785000   1.8138381      0.0017891344   1000000        0.0033522285   0.0016463019   0.00036887277  15.39107      -3.6445331      16.314967    
   1786000   1.824451      -0.00095269909  1000000       -0.00016767554  0.00037394516 -0.0030643669   15.404972     -3.6389991      16.307416    
   1787000   1.8257719      0.0012395505   1000000        0.0037850434   0.00079408046 -0.00086047251  15.402546     -3.641528       16.305537    
   1788000   1.8290212      0.0014042455   1000000        0.00087729172  0.0025434044   0.00079204044  15.399007     -3.6530002      16.308598    
   1789000   1.8157977      0.00235953     1000000        0.0040051157   0.00050870934  0.0025647648   15.406087     -3.6405373      16.323049    
   1790000   1.8290511     -0.0045240245   1000000       -0.0082679905  -0.0030693055  -0.0022347774   15.407226     -3.6493534      16.313124    
   1791000   1.8071389      0.0011519802   1000000       -0.0010901794   0.0024999136   0.0020462065   15.389172     -3.642744       16.321328    
   1792000   1.8171535     -0.0029692553   1000000       -0.0048057725  -0.00059448901 -0.0035075043   15.389977     -3.6457935      16.310161    
   1793000   1.8257009     -0.00022662078  1000000       -0.00013903573 -0.00030196733 -0.00023885929  15.391278     -3.6548576      16.307705    
   1794000   1.8297467     -0.00061018527  1000000       -0.0022273021   0.0032990168  -0.0029022705   15.391384     -3.6516658      16.298552    
   1795000   1.825207       0.00016166948  1000000        0.0011196474  -0.0012328662   0.00059822725  15.386133     -3.6544806      16.302925    
   1796000   1.8129736      1.1227119e-05  1000000        0.0013101461   0.0011642017  -0.0024406664   15.384875     -3.6548074      16.320343    
   1797000   1.8124669     -0.0013478298   1000000        0.0024543263  -0.0030489016  -0.0034489142   15.372094     -3.6664307      16.319945    
   1798000   1.8030184     -0.0030668818   1000000        0.0017065934  -0.0043361253  -0.0065711136   15.352019     -3.6655868      16.313198    
   1799000   1.8107987     -0.0027666157   1000000       -0.0038013597  -0.0050769797   0.00057849238  15.362832     -3.6657906      16.312545    
   1800000   1.8202124      0.00083144429  1000000       -0.0013019989   0.0007022217   0.0030941101   15.376688     -3.6711632      16.317654    
   1801000   1.8203175      0.0012651875   1000000        0.0016399554  -0.00013121538  0.0022868224   15.370475     -3.6724772      16.312597    
   1802000   1.8296855      0.001524329    1000000       -0.0005106899   0.0025428639   0.002540813    15.383112     -3.6590415      16.297747    
   1803000   1.8113128     -0.00018802025  1000000        0.00050789498 -0.00061769844 -0.00045425728  15.364841     -3.6571897      16.305182    
   1804000   1.809139       0.0015307629   1000000        0.0038960226   0.0011683438  -0.00047207776  15.359133     -3.6626258      16.308171    
   1805000   1.8202145     -0.00022285233  1000000       -0.0020349379   0.0041424354  -0.0027760545   15.369232     -3.6628739      16.301905    
   1806000   1.8185072      0.0011330831   1000000        0.0038140944   0.0012861532  -0.0017009982   15.381691     -3.660367       16.314419    
   1807000   1.8222562      0.0019043755   1000000        0.0021197863   0.0024704161   0.0011229241   15.39063      -3.6571743      16.314542    
   1808000   1.8215676      0.0032878418   1000000        0.0052856727   0.00068221407  0.0038956388   15.388611     -3.6646902      16.321071    
   1809000   1.8235342      0.00065580313  1000000       -0.00069703306 -0.00054222676  0.0032066692   15.386694     -3.6641851      16.315699    
   1810000   1.8148799     -0.0014585834   1000000       -0.002305672   -0.004351043    0.0022809649   15.395443     -3.6477102      16.320954    
   1811000   1.8191308      0.0033652509   1000000        0.0019897409   0.003131913    0.0049740987   15.384982     -3.6412679      16.297675    
   1812000   1.8198876     -0.00017599885  1000000       -0.0012072697  -0.00061415652  0.0012934296   15.393885     -3.6444367      16.308611    
   1813000   1.8225705      0.00081738757  1000000        0.0024284944  -0.0018579533   0.0018816216   15.378564     -3.6606442      16.305473    
   1814000   1.8192739      0.0024080018   1000000        0.00087802589  0.0035543385   0.002791641    15.382134     -3.667413       16.320757    
   1815000   1.8109987     -0.0023024964   1000000       -0.0050276393  -0.0021536664   0.0002738164   15.389963     -3.6459043      16.31949     
   1816000   1.8227613     -0.00060013206  1000000       -0.00050739219 -0.0015789452   0.00028594118  15.39206      -3.6411692      16.299208    
   1817000   1.8214741     -0.0010496868   1000000       -0.0018492161  -0.0034583049   0.0021584607   15.384448     -3.662294       16.314653    
   1818000   1.8206988      0.00010267071  1000000       -0.0019347678   0.0044456131  -0.0022028332   15.379788     -3.6546599      16.303521    
   1819000   1.8209213      0.0051007131   1000000        0.0048221703   0.0044907812   0.0059891877   15.380225     -3.6549157      16.30388     
   1820000   1.8200052      0.0017645561   1000000        0.00013951485  0.0025305226   0.002623631    15.370665     -3.6578114      16.29859     
   1821000   1.7918556     -0.0014822691   1000000       -0.0032663763   0.00089921032 -0.0020796414   15.353446     -3.6535329      16.319315    
   1822000   1.8180139      0.00070348739  1000000        0.0022514453  -0.0013296287   0.0011886456   15.352701     -3.656207       16.282008    
   1823000   1.807218      -0.0014126767   1000000       -0.0015696376  -0.0020675342  -0.00060085809  15.349443     -3.6474788      16.286215    
   1824000   1.8090725      1.0688942e-05  1000000       -0.0014499128   0.00095042878  0.00053155085  15.349336     -3.6503611      16.286209    
   1825000   1.8068304      0.0005135021   1000000        0.00093149357 -0.0021078724   0.0027168851   15.359604     -3.6421298      16.291608    
   1826000   1.8153453     -0.0024859367   1000000       -0.0022046473  -0.0023465707  -0.0029065921   15.378896     -3.6388596      16.294859    
   1827000   1.8159391     -9.6932528e-06  1000000        0.0022693244   9.7074986e-05 -0.0023954792   15.376404     -3.6475944      16.300211    
   1828000   1.8168025     -0.0023970537   1000000       -0.0045666644   0.0029993284  -0.0056238252   15.376205     -3.6443407      16.295463    
   1829000   1.8243593      4.6271434e-05  1000000        0.0030161783  -0.0030662144   0.00018885042  15.37788      -3.6577073      16.29917     
   1830000   1.8157513      0.00043053501  1000000        0.00031108442 -0.00049361888  0.0014741395   15.37188      -3.6592156      16.30759     
   1831000   1.8086222     -0.0023908237   1000000       -0.00049241048 -0.0041682579  -0.0025118027   15.375489     -3.6477088      16.310385    
   1832000   1.8282198     -0.0014763227   1000000       -0.0008096905  -0.0021615788  -0.0014576989   15.379505     -3.6619687      16.299266    
   1833000   1.8204713     -0.00010718698  1000000       -0.0013531007  -0.0014931155   0.0025246553   15.376345     -3.6513753      16.297135    
   1834000   1.8001232      0.00059875728  1000000        0.001096674   -8.2836676e-05  0.00078243446  15.36748      -3.6457658      16.313181    
   1835000   1.8203812      0.00043252616  1000000        5.0004718e-05  0.0028825116  -0.0016349379   15.371327     -3.6616285      16.302505    
   1836000   1.8121963     -0.0014873228   1000000        0.00074835303 -0.00028923134 -0.00492109     15.365245     -3.6668024      16.313874    
   1837000   1.821333      -0.0052509255   1000000       -0.0032217591  -0.0065222408  -0.0060087765   15.370018     -3.6804694      16.318609    
   1838000   1.8129397     -0.0011399621   1000000       -0.0029675372  -0.0022436143   0.0017912651   15.361297     -3.6708525      16.312861    
   1839000   1.8144003      0.0013296432   1000000        0.00096020843  0.0025576613   0.00047105977  15.355079     -3.6745523      16.308152    
   1840000   1.8175908      0.0011195905   1000000        0.003009667    0.0018278271  -0.0014787227   15.369664     -3.6762275      16.319627    
   1841000   1.8159219     -0.0029668848   1000000       -0.0041109574  -0.00084949932 -0.0039401978   15.369968     -3.6700355      16.316242    
   1842000   1.806079      -0.0037723689   1000000       -0.0065941177  -0.0016525916  -0.0030703975   15.357623     -3.6682737      16.316899    
   1843000   1.8101927      0.00057610474  1000000        0.00087031128  0.0013643302  -0.00050632721  15.356853     -3.6708705      16.312555    
   1844000   1.809829       0.00098801185  1000000       -0.00066227774 -0.00038825716  0.0040145704   15.356289     -3.6769182      16.318584    
   1845000   1.8078811      0.00021657791  1000000       -0.001982483    0.001323903    0.0013083137   15.334796     -3.6824089      16.305504    
   1846000   1.8010569      0.00067506171  1000000        0.0052844272  -0.00095107433 -0.0023081677   15.341243     -3.6791231      16.318901    
   1847000   1.8124415     -0.0013604061   1000000       -4.7813471e-05 -0.00062085056 -0.0034125542   15.357004     -3.6712589      16.309721    
   1848000   1.8078051     -0.00017983275  1000000       -0.0038262367   0.00075929398  0.0025274445   15.363425     -3.6496934      16.301531    
   1849000   1.8142404      0.004692075    1000000        0.0009383526   0.005752175    0.0073856975   15.363628     -3.6644269      16.306815    
   1850000   1.814324      -0.0041861396   1000000       -0.0036993473  -0.006428379   -0.0024306924   15.360328     -3.673717       16.31268     
   1851000   1.8123497     -0.0011485872   1000000       -0.00082820015 -0.0027472735   0.00012971209  15.36155      -3.6605635      16.303709    
   1852000   1.8260134     -0.0020980699   1000000        8.1741609e-05 -0.0048120055  -0.0015639459   15.370275     -3.6777461      16.309123    
   1853000   1.811094      -0.0010743      1000000        0.0046008904  -0.0023373262  -0.0054864642   15.369846     -3.6603139      16.31364     
   1854000   1.8084392     -0.0014104418   1000000       -0.0013125082  -3.2821773e-05 -0.0028859955   15.375896     -3.6648968      16.328255    
   1855000   1.8175853      0.0022099592   1000000        0.0031308219   0.0041362298  -0.0006371742   15.370018     -3.6807124      16.324473    
   1856000   1.8234267     -0.00049189278  1000000        0.00084497631 -0.0018529978  -0.00046765679  15.371751     -3.6736046      16.310337    
   1857000   1.8235221     -0.0025533335   1000000       -0.0017054902  -0.005080185   -0.00087432511  15.379974     -3.6752843      16.320096    
   1858000   1.826508       0.0016673686   1000000        0.00072300212  0.0016762325   0.0026028712   15.389489     -3.6783215      16.328171    
   1859000   1.8233399     -0.00081511852  1000000        0.00060677086 -0.0022411406  -0.00081098578  15.385052     -3.6853903      16.335554    
   1860000   1.8153138     -0.00092549632  1000000       -0.00036240136  0.00062664757 -0.0030407352   15.374453     -3.6718627      16.323466    
   1861000   1.811058       0.0026595516   1000000        0.001558718    0.0035042342   0.0029157026   15.363022     -3.6614811      16.308037    
   1862000   1.797389       0.00059240873  1000000        0.00067859014 -0.0006970359   0.001795672    15.356106     -3.6521856      16.312328    
   1863000   1.8177064     -0.0017311802   1000000        0.00022060446 -0.0027872362  -0.0026269088   15.360415     -3.6634217      16.297398    
   1864000   1.819532       0.0018431556   1000000        0.0058744468  -0.0026723344   0.0023273543   15.36075      -3.6725255      16.304099    
   1865000   1.8128292      0.0009125765   1000000        0.0024598616  -9.9434246e-05  0.00037730216  15.35799      -3.6672455      16.306112    
   1866000   1.8077597     -0.0026862728   1000000       -0.00078074806 -0.0038138389  -0.0034642314   15.347782     -3.6732929      16.309555    
   1867000   1.8117152     -0.0002986581   1000000        0.0040453316  -0.0028798233  -0.0020614826   15.345537     -3.6788036      16.306888    
   1868000   1.8115862     -0.0025226435   1000000       -0.0019380506  -0.0028060739  -0.002823806    15.332929     -3.6821093      16.29778     
   1869000   1.810849      -0.001745687    1000000       -0.0016651322   0.0018383217  -0.0054102505   15.34346      -3.6656997      16.293007    
   1870000   1.8081724     -0.0022220517   1000000       -0.0019261428  -0.0016809974  -0.0030590147   15.325915     -3.6703145      16.284092    
   1871000   1.8070994     -0.00096655116  1000000       -0.0014392788  -0.0010311899  -0.00042918478  15.316032     -3.678264       16.283767    
   1872000   1.8006944     -0.00066118555  1000000        0.0048462774   0.00040847146 -0.0072383055   15.321662     -3.6792493      16.29999     
   1873000   1.8062624     -0.0016706059   1000000        0.00046740719  3.875533e-05  -0.0055179801   15.324987     -3.6852612      16.300975    
   1874000   1.8074314     -0.0014717362   1000000       -0.0045360716  -0.0024292251   0.0025500881   15.328091     -3.6799846      16.297049    
   1875000   1.7989049      0.0028433959   1000000        0.0034771461   0.0041063912   0.00094665026  15.335712     -3.6576016      16.295076    
   1876000   1.8198052     -0.0020477125   1000000       -0.00058299033 -0.0015069863  -0.0040531608   15.349396     -3.675198       16.295008    
   1877000   1.8010535     -0.00039090263  1000000       -0.00067907037 -0.0024244659   0.0019308284   15.333619     -3.657994       16.290153    
   1878000   1.8009927     -0.0042699089   1000000        0.0012546868  -0.006699245   -0.0073651684   15.33786      -3.6636461      16.300138    
   1879000   1.7961196     -0.0020441673   1000000       -1.3014522e-05 -0.0029002911  -0.0032191964   15.342022     -3.6520151      16.299977    
   1880000   1.8208769      0.0013535046   1000000        0.0032223292  -0.0044250037   0.0052631883   15.352805     -3.6734712      16.295082    
   1881000   1.8020424      0.00074668762  1000000        0.0026140733  -0.00071854122  0.00034453076  15.339649     -3.6699728      16.306678    
   1882000   1.8012083     -0.0026214402   1000000       -0.0018565343  -0.0010372066  -0.0049705797   15.334556     -3.685707       16.318571    
   1883000   1.8103709      0.0010090297   1000000        0.001725646   -0.00050974186  0.0018111849   15.328921     -3.6876834      16.301169    
   1884000   1.8043091      0.0064926605   1000000        0.0059904286   0.0037401728   0.0097473803   15.333738     -3.6992316      16.326627    
   1885000   1.808847       0.0012536133   1000000       -0.00090505896  0.0021446805   0.0025212182   15.328195     -3.7137378      16.328783    
   1886000   1.8154565     -0.0012159486   1000000       -0.00029317776  0.00050292297 -0.0038575911   15.341109     -3.6902401      16.308285    
   1887000   1.8168706     -0.0012878675   1000000       -0.0014270586  -0.0009204935  -0.0015160504   15.345661     -3.6969439      16.31742     
   1888000   1.829812      -0.00024274879  1000000        0.001540594   -0.0048138209   0.0025449805   15.356439     -3.7063253      16.318168    
   1889000   1.8256206     -0.0011346395   1000000       -0.0013767724  -0.0018226261  -0.0002045201   15.361441     -3.693549       16.316681    
   1890000   1.8239917      0.00050768232  1000000       -0.0004674984   0.0013456383   0.00064490705  15.358732     -3.679935       16.302801    
   1891000   1.8165617      0.0014118779   1000000        0.0015503148  -0.00049939197  0.0031847108   15.350104     -3.6680294      16.293412    
   1892000   1.8217259     -0.0032623339   1000000       -0.0036114637  -0.0027137975  -0.0034617405   15.357691     -3.685202       16.310425    
   1893000   1.8220698     -0.00068094518  1000000       -0.00019259869 -0.0014863969  -0.00036383999  15.368027     -3.689402       16.324445    
   1894000   1.8292219     -0.00013684778  1000000       -0.0013275305   0.0025658276  -0.0016488404   15.356812     -3.6978337      16.310934    
   1895000   1.8241508     -0.0040965258   1000000       -0.0039133308  -0.0032042411  -0.0051720055   15.352372     -3.6970111      16.313278    
   1896000   1.822943      -0.005480584    1000000       -0.0050499934  -0.0048291817  -0.0065625768   15.341248     -3.6967116      16.303666    
   1897000   1.8208311     -0.00072168371  1000000       -0.00037900629 -0.00014703015 -0.0016390147   15.336117     -3.699241       16.304233    
   1898000   1.8232426     -0.0020944994   1000000       -0.0055909428  -0.0011823252   0.00048976964  15.34576      -3.6889527      16.29997     
   1899000   1.8203888      0.00028342634  1000000        0.0028596259  -0.0017899653  -0.00021938153  15.331717     -3.6980148      16.29927     
   1900000   1.8079094     -0.00091651927  1000000       -6.3847199e-06 -0.00061772346 -0.0021254496   15.320947     -3.6898119      16.299015    
   1901000   1.8121526     -0.0019762497   1000000        0.001921269   -0.0017226145  -0.0061274036   15.324167     -3.6912873      16.297346    
   1902000   1.812923      -0.0014627362   1000000        0.00087756729 -0.0023745852  -0.0028911907   15.33964      -3.6843816      16.304758    
   1903000   1.82213       -0.0026257897   1000000       -0.002396212   -0.0029293704  -0.0025517866   15.343453     -3.6790267      16.289406    
   1904000   1.8254347     -0.0054962288   1000000       -0.0046582351  -0.0071477301  -0.0046827213   15.345151     -3.6836423      16.290763    
   1905000   1.810084       0.0042653814   1000000        0.0043506428   0.0019623326   0.0064831687   15.330589     -3.687601       16.303184    
   1906000   1.8106879     -0.0016246501   1000000       -0.00059749121 -0.00041469391 -0.0038617651   15.340232     -3.6871661      16.311487    
   1907000   1.8159289     -0.00014847592  1000000        3.7073685e-06  0.00024403293 -0.00069316805  15.338051     -3.6887545      16.303033    
   1908000   1.8076567      0.0026714283   1000000        0.0029279394   0.0049795262   0.00010681942  15.327737     -3.6883738      16.304746    
   1909000   1.8093396      0.00029613124  1000000        0.00021256334  0.0038311042  -0.0031552738   15.325238     -3.6876632      16.299013    
   1910000   1.8145985      0.0011990175   1000000       -0.0010245855   0.00076028811  0.0038613499   15.323317     -3.6813555      16.282896    
   1911000   1.8127259     -0.0030774412   1000000       -0.0060899134  -0.0033342617   0.00019185143  15.317792     -3.698281       16.297105    
   1912000   1.8048578      0.00079027398  1000000        0.0011433237   0.00098893625  0.00023856197  15.309463     -3.6972485      16.299546    
   1913000   1.8180322     -0.000448976    1000000        0.00029158219 -0.0014415897  -0.00019692049  15.327275     -3.6992869      16.299634    
   1914000   1.8070051     -0.0012105005   1000000       -0.0017283301  -0.0035183114   0.0016151401   15.322334     -3.6938478      16.305795    
   1915000   1.803417       0.00079896815  1000000       -0.0015122224   0.00396236    -5.323315e-05   15.319656     -3.6996308      16.314281    
   1916000   1.7953968     -0.0030369628   1000000       -0.0021359479  -0.0052518362  -0.0017231043   15.307824     -3.7105405      16.325389    
   1917000   1.8029322     -0.0029404958   1000000       -0.0018039885  -0.0015153655  -0.0055021335   15.305217     -3.6946459      16.295585    
   1918000   1.798172       0.0046820916   1000000        0.003498168    0.002208629    0.0083394779   15.325216     -3.6965432      16.324621    
   1919000   1.7988351      0.0027989437   1000000        0.0027363825   0.001072263    0.0045881854   15.318583     -3.6937152      16.314166    
   1920000   1.805922       0.00044456773  1000000       -0.0016484787  -0.00013342101  0.0031156029   15.325465     -3.6977361      16.314439    
   1921000   1.8070051     -0.0014113984   1000000        0.0008653821  -0.001074728   -0.0040248493   15.331253     -3.682807       16.303673    
   1922000   1.8137972     -0.0003822612   1000000       -0.0036829276   0.005225883   -0.0026897389   15.343198     -3.6811699      16.303794    
   1923000   1.8222859      0.004637018    1000000        0.0040086228   0.0070914133   0.0028110179   15.351296     -3.6890453      16.307034    
   1924000   1.8064909     -0.0031097637   1000000       -0.001260191   -0.0021048222  -0.0059642778   15.34623      -3.68919        16.325804    
   1925000   1.8080655     -0.0014083837   1000000        0.0029215729  -0.0049569128  -0.0021898112   15.347506     -3.6720523      16.307581    
   1926000   1.8107794     -0.00057504611  1000000        0.0028015985  -0.0013950904  -0.0031316465   15.345305     -3.6732182      16.302474    
   1927000   1.8104089     -0.0019969449   1000000        0.00061599091 -0.0021417495  -0.0044650761   15.344686     -3.671313       16.300506    
   1928000   1.8088997      0.0021893139   1000000        0.001251359   -0.00048324987  0.0057998326   15.350191     -3.6664955      16.303457    
   1929000   1.8200694      0.002042619    1000000        0.00097627542  0.0053385054  -0.00018692392  15.344868     -3.6756203      16.290506    
   1930000   1.8025088      0.0020339881   1000000        0.00088271768  0.0034712907   0.001747956    15.351971     -3.6639449      16.312273    
   1931000   1.8219227     -0.0022298323   1000000       -0.0047206336  -0.0021019601   0.00013309681  15.367203     -3.6596009      16.294042    
   1932000   1.814327      -0.00087269612  1000000        0.002740826   -0.001446191   -0.0039127234   15.371475     -3.6560693      16.306175    
   1933000   1.8149846      0.0018553198   1000000        0.0056967837  -0.0029477313   0.0028169071   15.359357     -3.6634878      16.300489    
   1934000   1.8232357     -0.00098059199  1000000       -0.000615486   -0.00041800968 -0.0019082803   15.354722     -3.667198       16.287188    
   1935000   1.8093537     -0.00037385098  1000000        0.0028324648   0.00021518948 -0.0041692072   15.343851     -3.6683545      16.298296    
   1936000   1.8097372     -0.00037990861  1000000        0.00051314693 -0.0012883653  -0.00036450743  15.351496     -3.67356        16.310571    
   1937000   1.8184259     -0.0020997721   1000000       -0.0018044035  -0.0015317718  -0.002963141    15.370485     -3.6714496      16.314417    
   1938000   1.8252059     -0.0039634786   1000000       -0.0040462328  -0.0053389501  -0.002505253    15.364604     -3.6804032      16.30732     
   1939000   1.8218117      0.00085881601  1000000       -0.0010573442   0.0022635542   0.0013702381   15.359959     -3.6938461      16.321209    
   1940000   1.8164514      0.0021700671   1000000        0.003407371    0.0019684865   0.001134344    15.349217     -3.6859506      16.310612    
   1941000   1.8109676     -0.0042788681   1000000       -0.00093058911 -0.0081692329  -0.0037367823   15.334006     -3.6883216      16.305997    
   1942000   1.8082814     -0.0011715309   1000000       -0.0035770981   0.0012330629  -0.0011705577   15.340278     -3.6917345      16.319711    
   1943000   1.8097847      0.00021752568  1000000       -0.0036983566   0.0028259569   0.0015249767   15.349462     -3.6740975      16.309003    
   1944000   1.8093648      0.0029632746   1000000        0.0062427211   0.0014398596   0.0012072431   15.341358     -3.6775009      16.304932    
   1945000   1.8037421     -0.005190141    1000000       -0.0020385469  -0.0050861195  -0.0084457567   15.337178     -3.6753806      16.307066    
   1946000   1.8126189      0.002583706    1000000        0.0033425316   0.0063681679  -0.0019595815   15.343544     -3.6821591      16.306896    
   1947000   1.8300185      0.0015885149   1000000        0.0010582468   0.0019475599   0.0017597381   15.360288     -3.697341       16.312724    
   1948000   1.8144359     -0.0046091658   1000000       -0.0047412245  -0.0052191526  -0.0038671203   15.348269     -3.6886121      16.315349    
   1949000   1.8104622      0.0021795811   1000000        0.0017376131   0.0028033013   0.0019978289   15.356739     -3.6825149      16.323682    
   1950000   1.8201383      0.0017719118   1000000        0.0031757805  -0.00016632897  0.0023062839   15.360788     -3.68437        16.315072    
   1951000   1.8226352      0.0012298995   1000000       -0.0011706115   9.918399e-05   0.004761126    15.360433     -3.6962228      16.322824    
   1952000   1.8149019     -0.001592291    1000000       -4.3814139e-05 -0.0031486436  -0.0015844152   15.367401     -3.6879517      16.333121    
   1953000   1.8172472     -0.00073516386  1000000        0.0026621314  -0.00052939386 -0.0043382291   15.360902     -3.6791771      16.31433     
   1954000   1.8248919     -0.00054838792  1000000       -0.00043422052 -0.00048756341 -0.00072337983  15.360285     -3.6934802      16.316549    
   1955000   1.8183661     -0.00047679872  1000000       -0.0012945222   0.00060302282 -0.00073889675  15.352471     -3.6879858      16.313029    
   1956000   1.8280741      3.742547e-05   1000000        0.0020636743   0.0013091539  -0.0032605518   15.360583     -3.7020728      16.320666    
   1957000   1.8320074      0.0015698005   1000000        0.00099768536  0.0027455782   0.0009661381   15.359026     -3.7021803      16.313317    
   1958000   1.8119211     -0.0030246544   1000000       -0.0023467123  -0.0024980144  -0.0042292364   15.347258     -3.6912681      16.320766    
   1959000   1.8251513      0.0022179697   1000000        0.00272667    -0.00013693351  0.0040641726   15.357329     -3.6971427      16.316866    
   1960000   1.8237272     -0.0006566728   1000000       -0.0035734845   0.00078220799  0.00082125813  15.356214     -3.6888785      16.309624    
   1961000   1.8261271     -1.9201069e-05  1000000        0.0011361297   0.0010605285  -0.0022542614   15.351451     -3.6938457      16.306228    
   1962000   1.8061674     -0.00061012305  1000000       -0.00096633353  0.00078326673 -0.0016473024   15.342548     -3.6816048      16.315023    
   1963000   1.8189915     -0.0052271506   1000000       -0.0055643325  -0.0054160565  -0.0047010627   15.346152     -3.6995814      16.317367    
   1964000   1.8145218     -0.00017294559  1000000       -0.0029150416   0.002114284    0.0002819208   15.357721     -3.6886578      16.324717    
   1965000   1.8240819     -0.00095971368  1000000       -0.0019567576   0.0016389343  -0.0025613177   15.361552     -3.6870156      16.312566    
   1966000   1.8168368     -0.0016198834   1000000        0.00019058432 -0.0045464336  -0.00050380098  15.373287     -3.6918414      16.339995    
   1967000   1.830565       0.00042840746  1000000        0.0013934437   0.00083058383 -0.00093880514  15.376503     -3.6891024      16.31988     
   1968000   1.8302528      0.0023294167   1000000        0.0015443225   0.0030774863   0.0023664412   15.367737     -3.7001968      16.322677    
   1969000   1.8265362     -0.0038119876   1000000       -0.0012891163  -0.0060600682  -0.0040867784   15.367883     -3.6961365      16.324337    
   1970000   1.8401222     -0.00094963339  1000000        0.0007286916  -0.0013858968  -0.002191695    15.387276     -3.6812252      16.30844     
   1971000   1.8132649     -0.0013533677   1000000       -0.0021506087  -0.0014574372  -0.00045205731  15.370661     -3.6825463      16.333431    
   1972000   1.8268744     -0.0012342617   1000000       -0.0031060923  -0.0022027254   0.0016060326   15.358857     -3.6915597      16.310227    
   1973000   1.8145452     -0.0054858126   1000000       -0.004697423   -0.0055607844  -0.0061992302   15.349567     -3.6972405      16.325111    
   1974000   1.8175563      6.734645e-05   1000000       -9.9168313e-05  0.001261374   -0.00096016638  15.348936     -3.6984081      16.321131    
   1975000   1.8230845      0.0017217039   1000000        0.0022642933   0.0016222228   0.0012785956   15.354827     -3.7050449      16.325366    
   1976000   1.8074909     -0.00085611275  1000000       -0.00040126733 -0.0025014132   0.00033434226  15.348481     -3.6935878      16.330953    
   1977000   1.8149107     -5.8052248e-05  1000000        0.00050727164 -0.0014728143   0.00079138593  15.35652      -3.6765222      16.310797    
   1978000   1.824485      -0.0026066304   1000000       -0.005112521   -0.0038467337   0.0011393635   15.361296     -3.6887262      16.313416    
   1979000   1.8405638      0.0017770669   1000000        0.0021885145   0.0031488711  -6.1847694e-06  15.364041     -3.7028026      16.306121    
   1980000   1.8264566      0.0010724368   1000000       -0.0014713353   0.0010989222   0.0035897237   15.354068     -3.7002625      16.314767    
   1981000   1.8050675     -0.0015723142   1000000       -0.0035996681   0.0019695474  -0.003086822    15.336776     -3.68769        16.316985    
   1982000   1.8205095      0.0030353171   1000000        0.0072815234   0.0012819508   0.00054247714  15.349803     -3.6974544      16.316614    
   1983000   1.8350636      0.0034350324   1000000        0.0021674284   0.0017504485   0.0063872203   15.344156     -3.7032197      16.294903    
   1984000   1.8024975      0.00017042773  1000000        0.00094530281 -0.00010146868 -0.00033255095  15.323229     -3.6819105      16.301514    
   1985000   1.8166921     -0.00023618546  1000000       -0.005232459    0.0030118233   0.0015120794   15.330367     -3.6991227      16.304572    
   1986000   1.7956798      0.0021748031   1000000        0.0032444963   0.004581804   -0.001301891    15.320811     -3.6837358      16.311147    
   1987000   1.8010289      0.0021493336   1000000        0.0016721963   0.0052003068  -0.00042450221  15.324302     -3.682631       16.30551     
   1988000   1.8034236      0.0026335711   1000000        0.00033694435  0.0033116548   0.0042521143   15.310597     -3.6872879      16.29287     
   1989000   1.8173958     -0.0016954843   1000000        0.00044560297 -0.0035666218  -0.001965434    15.3232       -3.7009899      16.298217    
   1990000   1.8235902      0.0010342413   1000000        0.00028574334  0.00095580822  0.0018611725   15.32754      -3.6951892      16.287465    
   1991000   1.8289509      0.0030295179   1000000        0.0024931241   0.0047207649   0.0018746648   15.333646     -3.7062344      16.296576    
   1992000   1.8184966      0.0010428128   1000000        0.0021670492   0.0051891294  -0.0042277402   15.323258     -3.7200297      16.315664    
   1993000   1.8277668     -0.00025760575  1000000        0.0013513899  -0.0010162867  -0.0011079205   15.327581     -3.7223496      16.308402    
   1994000   1.8289617     -0.0010817159   1000000        0.00087102964 -0.00073760419 -0.0033785731   15.32292      -3.7110108      16.29061     
   1995000   1.816041      -0.001306524    1000000        0.00043211144 -0.0029523661  -0.0013993173   15.318062     -3.7089018      16.303023    
   1996000   1.8202993     -0.0018911829   1000000       -0.0021363901  -0.0011520038  -0.0023851549   15.328331     -3.7003875      16.29839     
   1997000   1.8186323     -0.0017645799   1000000       -0.00063526537 -0.0022468129  -0.0024116615   15.344237     -3.6980062      16.314416    
   1998000   1.8275031      0.0015013445   1000000        0.0019987881  -0.001330255    0.0038355005   15.348074     -3.7011911      16.308132    
   1999000   1.8257243      0.0036476482   1000000        0.0025986003   0.0037290331   0.0046153112   15.357038     -3.6956714      16.314244    
   2000000   1.8176124      0.00056198981  1000000        0.0029667127  -0.0012615376  -1.9205641e-05  15.35344      -3.6812103      16.308353    
Loop time of 17588.9 on 1 procs for 2000000 steps with 22500 atoms

Performance: 982.437 tau/day, 113.708 timesteps/s, 2.558 Matom-step/s
68.2% CPU use with 1 MPI tasks x no OpenMP threads

MPI task timing breakdown:
Section |  min time  |  avg time  |  max time  |%varavg| %total
---------------------------------------------------------------
Pair    | 8647.7     | 8647.7     | 8647.7     |   0.0 | 49.17
Bond    | 376.39     | 376.39     | 376.39     |   0.0 |  2.14
Neigh   | 323.47     | 323.47     | 323.47     |   0.0 |  1.84
Comm    | 50.873     | 50.873     | 50.873     |   0.0 |  0.29
Output  | 26.984     | 26.984     | 26.984     |   0.0 |  0.15
Modify  | 8119.6     | 8119.6     | 8119.6     |   0.0 | 46.16
Other   |            | 43.98      |            |       |  0.25

Nlocal:          22500 ave       22500 max       22500 min
Histogram: 1 0 0 0 0 0 0 0 0 0
Nghost:           8492 ave        8492 max        8492 min
Histogram: 1 0 0 0 0 0 0 0 0 0
Neighs:         686746 ave      686746 max      686746 min
Histogram: 1 0 0 0 0 0 0 0 0 0

Total # of neighbors = 686746
Ave neighs/atom = 30.522044
Ave special neighs/atom = 1.9562667
Neighbor list builds = 26983
Dangerous builds = 0

Total wall time: 4:54:29
