LAMMPS (2 Aug 2023 - Update 3)
# ====================================================================== #
# Equilibrate a test system of 20 polymers of length 1000 and 1000 tetrahedral
# crosslinkers in implicit solvent.
#
# Authors:
#     Kee-Myoung Nam
#
# Last updated:
#     4/17/2024
# ====================================================================== #
# INITIALIZATION
# ==============
# Use Lennard-Jones units in 3 dimensions
units lj
dimension 3

# Use FENE bonds (without angular, dihedral, improper, etc. contributions)
# and use harmonic bonds for polymer/crosslinker bonds
atom_style bond
bond_style hybrid fene harmonic

# Use Lennard-Jones potentials between unbonded molecules (note that the
# 2.5 cutoff ratio is re-written below)
pair_style lj/cut 2.5

# Use periodic boundary conditions in all 3 dimensions
boundary p p p

# Maintain neighbor lists with given additional "skin" distance
neighbor 1.4 bin

# Build neighbor lists at every timestep
neigh_modify every 1 delay 1

# ====================================================================== #
# PARSE INPUT MOLECULES
# =====================
# Allow for one additional bond for each atom
read_data init.data extra/bond/per/atom 1 extra/special/per/atom 1
Reading data file ...
  orthogonal box = (-50 -50 -50) to (50 50 50)
  1 by 1 by 1 MPI processor grid
  reading atoms ...
  20000 atoms
  scanning bonds ...
  2 = max bonds/atom
  reading bonds ...
  19980 bonds
Finding 1-2 1-3 1-4 neighbors ...
  special bond factors lj:    0        0        0       
  special bond factors coul:  0        0        0       
     2 = max # of 1-2 neighbors
     2 = max # of 1-3 neighbors
     4 = max # of 1-4 neighbors
     7 = max # of special neighbors
  special bonds CPU = 0.003 seconds
  read_data CPU = 0.034 seconds

# ====================================================================== #
# DEFINE BOND AND POTENTIAL PARAMETERS
# ====================================
# Define FENE bond parameters (K, R0, \epsilon, \sigma)
# - Set maximum length to slightly more than double the monomer radius
bond_coeff 1 fene 30.0 2.5 1.0 1.0

# Define within-crosslinker harmonic bond parameters (K, R0)
# - Set equilibrium length to crosslinker radius
bond_coeff 2 harmonic 100.0 3.0

# Define polymer-crosslinker harmonic bond parameters (K, R0)
# - Set equilibrium length to monomer radius
bond_coeff 3 harmonic 100.0 1.0

# Define Lennard-Jones potential parameters (\epsilon, \sigma, cutoff ratio)
# - Set cutoff distance for monomers to 2^(1/6)
# - Set cutoff distance for crosslinkers to 5.0 (larger than crosslinker radius)
# - Weak attraction between crosslinkers, strong attraction between monomers
#   and crosslinkers
pair_coeff 1 1 1.0 1.0 1.1224620483    # Only repulsion for monomers
pair_coeff 2 2 2.0 1.0 5.0             # Attraction and repulsion for crosslinkers
pair_coeff 3 3 2.0 1.0 5.0             # Attraction and repulsion for crosslinkers
pair_coeff 1 2 4.0 1.0 5.0             # Fix cutoffs between different types of atoms
pair_coeff 1 3 4.0 1.0 5.0
pair_coeff 2 3 2.0 1.0 5.0
pair_modify shift yes

# Exclude Lennard-Jones potential contributions between FENE-bonded atoms
special_bonds fene
Finding 1-2 1-3 1-4 neighbors ...
  special bond factors lj:    0        1        1       
  special bond factors coul:  0        1        1       
     2 = max # of 1-2 neighbors
     7 = max # of special neighbors
  special bonds CPU = 0.001 seconds

# ====================================================================== #
# PRINT THERMODYNAMIC INFORMATION DURING MINIMIZATION
# ===================================================
thermo 10
thermo_style custom step temp pe ke etotal epair ebond press

# ====================================================================== #
# ENERGY MINIMIZATION
# ===================
minimize 1.0e-4 1.0e-6 5000 10000
Switching to 'neigh_modify every 1 delay 0 check yes' setting during minimization
Generated 0 of 3 mixed pair_coeff terms from geometric mixing rule
Neighbor list info ...
  update: every = 1 steps, delay = 0 steps, check = yes
  max neighbors/atom: 2000, page size: 100000
  master list distance cutoff = 6.4
  ghost atom cutoff = 6.4
  binsize = 3.2, bins = 32 32 32
  1 neighbor lists, perpetual/occasional/extra = 1 0 0
  (1) pair lj/cut, perpetual
      attributes: half, newton on
      pair build: half/bin/newton
      stencil: half/bin/3d
      bin: standard
Per MPI rank memory allocation (min/avg/max) = 12.82 | 12.82 | 12.82 Mbytes
   Step          Temp          PotEng         KinEng         TotEng         E_pair         E_bond         Press     
         0   0              180.1872       0              180.1872       162.85892      17.328284      13.020791    
        10   0              17.605522      0              17.605522      0.31039012     17.295132      0.023352765  
        20   0              17.223764      0              17.223764      0.015203327    17.208561      0.0067766621 
        23   0              17.212134      0              17.212134      0.0053665179   17.206768      0.0033744543 
Loop time of 0.0225508 on 1 procs for 23 steps with 20000 atoms

99.6% CPU use with 1 MPI tasks x no OpenMP threads

Minimization stats:
  Stopping criterion = energy tolerance
  Energy initial, next-to-last, final = 
      180.187204684998   17.2136580068648   17.2121343227333
  Force two-norm initial, final = 1.6883247e+08 233.44446
  Force max component initial, final = 97352956 73.909567
  Final line search alpha, max atom move = 0.001978086 0.14619948
  Iterations, force evaluations = 23 32

MPI task timing breakdown:
Section |  min time  |  avg time  |  max time  |%varavg| %total
---------------------------------------------------------------
Pair    | 0.008295   | 0.008295   | 0.008295   |   0.0 | 36.78
Bond    | 0.0050905  | 0.0050905  | 0.0050905  |   0.0 | 22.57
Neigh   | 0          | 0          | 0          |   0.0 |  0.00
Comm    | 0.00070162 | 0.00070162 | 0.00070162 |   0.0 |  3.11
Output  | 5.0001e-05 | 5.0001e-05 | 5.0001e-05 |   0.0 |  0.22
Modify  | 0          | 0          | 0          |   0.0 |  0.00
Other   |            | 0.008414   |            |       | 37.31

Nlocal:          20000 ave       20000 max       20000 min
Histogram: 1 0 0 0 0 0 0 0 0 0
Nghost:          10162 ave       10162 max       10162 min
Histogram: 1 0 0 0 0 0 0 0 0 0
Neighs:         133114 ave      133114 max      133114 min
Histogram: 1 0 0 0 0 0 0 0 0 0

Total # of neighbors = 133114
Ave neighs/atom = 6.6557
Ave special neighs/atom = 1.998
Neighbor list builds = 0
Dangerous builds = 0

# ====================================================================== #
# DEFINE INITIAL VELOCITIES
# =========================
# Set initial velocities of all molecules from a Gaussian distribution with
# angular momenta set to zero
variable g equal 1.0
velocity all create $g 12345 rot yes dist gaussian
velocity all create 1 12345 rot yes dist gaussian

# ====================================================================== #
# PRINT THERMODYNAMIC INFORMATION DURING SIMULATION
# =================================================
thermo 1000
thermo_style custom step temp press vol pxx pyy pzz etotal epair ebond

# ====================================================================== #
# SET UP AND RUN INITIAL EQUILIBRATION
# ====================================
timestep 0.0001
reset_timestep 0

# Equilibrate using the NVE ensemble and Langevin thermostat
fix fxinit1 all nve
fix fxinit2 all langevin $g $g 2.0 12345
fix fxinit2 all langevin 1 $g 2.0 12345
fix fxinit2 all langevin 1 1 2.0 12345

run 100000
Generated 0 of 3 mixed pair_coeff terms from geometric mixing rule
Per MPI rank memory allocation (min/avg/max) = 10.57 | 10.57 | 10.57 Mbytes
   Step          Temp          Press          Volume          Pxx            Pyy            Pzz           TotEng         E_pair         E_bond    
         0   1              0.023373454    1000000        0.023744995    0.023189077    0.023186292    18.712059      0.0053665179   17.206768    
      1000   0.76537943    -0.018672934    1000000       -0.018455732   -0.019769945   -0.017793124    18.741277      0.09007236     17.503193    
      2000   0.80972271     0.026299365    1000000        0.027190298    0.025602374    0.026105424    18.771919      0.049255134    17.508141    
      3000   0.82389169     0.0056682543   1000000        0.0049245577   0.0064641921   0.0056160133   18.800078      0.042319762    17.521983    
      4000   0.827045       0.002391698    1000000        0.0033819576   0.0011571098   0.0026360267   18.8221        0.03580315     17.545791    
      5000   0.84484449     0.0086597421   1000000        0.0073948774   0.01010815     0.0084761986   18.84745       0.034120578    17.546126    
      6000   0.84950596     0.0044914894   1000000        0.0049201972   0.0039646481   0.0045896231   18.872698      0.035256486    17.563246    
      7000   0.85999358     0.0035939103   1000000        0.0036180958   0.0037107792   0.0034528561   18.893138      0.029554757    17.573657    
      8000   0.86819183     0.0040610932   1000000        0.0034594422   0.0043729281   0.0043509092   18.911253      0.029865299    17.579165    
      9000   0.87344343     0.0039693903   1000000        0.0051408418   0.0020423746   0.0047249544   18.930223      0.02835785     17.591765    
     10000   0.87608377     0.0022343703   1000000        0.0014416194   0.0030671906   0.0021943008   18.946888      0.029776421    17.603052    
     11000   0.88158656     0.0045236434   1000000        0.0050415021   0.0042910208   0.0042384073   18.965681      0.029326869    17.614041    
     12000   0.88751904     0.0026161158   1000000        0.0039777169   0.0013212637   0.0025493667   18.979435      0.029215083    17.619008    
     13000   0.8910683      0.0023065113   1000000        0.0017129392   0.0033016212   0.0019049735   18.992376      0.027919828    17.627921    
     14000   0.89878945     0.0027996673   1000000        0.0034728759   0.0031479655   0.0017781605   19.004305      0.025695042    17.630493    
     15000   0.90151503     0.0014245145   1000000        0.00025924055  0.001058621    0.002955682    19.018301      0.027572416    17.638523    
     16000   0.90305861     0.0020679615   1000000        0.0026665289   0.001016773    0.0025205827   19.02767       0.025232219    17.647918    
     17000   0.90821913     0.0031267916   1000000        0.0026822097   0.0024029609   0.0042952043   19.043848      0.02910487     17.652482    
     18000   0.91138453     0.00046975935  1000000        0.00012346659  0.0018191114  -0.0005332999   19.054835      0.025517434    17.662309    
     19000   0.92052602     0.0046467607   1000000        0.0054084494   0.0034634507   0.0050683819   19.071698      0.026661475    17.664316    
     20000   0.92519986     0.00062696467  1000000       -0.00020192971  0.0031100696  -0.0010272459   19.086019      0.028882038    17.669406    
     21000   0.93430395     0.0025158169   1000000        0.0043082977   0.0012660357   0.0019731173   19.101391      0.027413647    17.672592    
     22000   0.93934003     0.0012381177   1000000       -7.0685111e-05  0.0025002516   0.0012847866   19.116957      0.028302637    17.679715    
     23000   0.94305195     0.0029855554   1000000        0.0032796849   0.0028073931   0.002869588    19.125502      0.026864367    17.684131    
     24000   0.94074518     0.0018944614   1000000        0.00092627148  0.003453437    0.0013036758   19.136653      0.027121685    17.698484    
     25000   0.94753966     0.0014354947   1000000        0.0028287897  -0.0013229115   0.0028006058   19.142137      0.02665372     17.694245    
     26000   0.94979158     0.001991918    1000000        0.0014484703   0.0025145801   0.0020127036   19.155166      0.025541988    17.705008    
     27000   0.95485167     0.0030008996   1000000        0.0023176993   0.0027666388   0.0039183606   19.162845      0.026884172    17.703755    
     28000   0.95278179    -0.00047486552  1000000        0.001616024   -0.00091710177 -0.0021235188   19.159109      0.024849048    17.705159    
     29000   0.9553553      0.0029945905   1000000        0.0005923296   0.0013186235   0.0070728183   19.165117      0.026572137    17.705584    
     30000   0.95625351     0.0012913697   1000000        0.0016263125   0.0032835702  -0.0010357737   19.167656      0.02550598     17.707841    
     31000   0.96112976    -3.3842064e-06  1000000       -0.00079101832  0.00071659811  6.4267589e-05  19.180689      0.025365074    17.713701    
     32000   0.96712726     0.0025529743   1000000        0.0032978045   0.0019967295   0.0023643889   19.182899      0.024417583    17.707863    
     33000   0.962589       0.0010880472   1000000        0.0010789406   0.0012666056   0.00091859534  19.190852      0.02890977     17.718131    
     34000   0.96273855     0.0021874185   1000000        0.002049748    0.0024480731   0.0020644345   19.19432       0.027426595    17.722858    
     35000   0.97049873     0.00073044253  1000000        0.0012537912   0.00095023985 -1.2703443e-05  19.202367      0.025577653    17.721114    
     36000   0.97184435     0.002282826    1000000        0.0020939309   0.0022344202   0.002520127    19.2017        0.02463613     17.719371    
     37000   0.96456113     0.00027216219  1000000        4.7005391e-05 -0.00039544969  0.0011649309   19.208335      0.027139914    17.734426    
     38000   0.97391511     0.0043748997   1000000        0.0023667949   0.0065701313   0.004187773    19.218742      0.026488275    17.731454    
     39000   0.9744029     -0.00024340124  1000000        1.5388556e-05 -0.0015025465   0.00075695424  19.222277      0.027401539    17.733344    
     40000   0.97870271     0.0020069965   1000000        0.0029976148   0.0013991194   0.0016242554   19.226004      0.024818016    17.733206    
     41000   0.97703544     0.00081168826  1000000       -0.0017791921   0.0030063166   0.0012079403   19.229064      0.023791975    17.739792    
     42000   0.97717107     0.00087236469  1000000        0.0023024719  -0.0005355898   0.00085021197  19.229318      0.024439307    17.739195    
     43000   0.98100624     0.0014521468   1000000        0.00074712059  0.00038455391  0.003224766    19.238128      0.025635905    17.741056    
     44000   0.97712568     0.0015100709   1000000        0.0028970732   0.0014552505   0.00017788908  19.23739       0.027685631    17.744089    
     45000   0.97933034     0.0014145092   1000000        0.00039919671  0.00039321094  0.00345112     19.238778      0.027680189    17.742176    
     46000   0.98337839     0.00084424884  1000000        0.0003634273   0.0037332933  -0.0015639741   19.2443        0.02723817     17.742068    
     47000   0.99049696     0.00264263     1000000        0.0025569594   0.0015775619   0.0037933686   19.253         0.025677865    17.741651    
     48000   0.98590456     8.1177554e-05  1000000        0.00028457372  0.00050692445 -0.00054796551  19.255868      0.028467996    17.748617    
     49000   0.99321337     0.0040509431   1000000        0.0036817551   0.0042104255   0.0042606489   19.257702      0.026441192    17.741515    
     50000   0.98597553    -0.00051971741  1000000        0.0011854405  -0.0012967647  -0.0014478281   19.257809      0.026885772    17.752034    
     51000   0.99635608     0.0031748571   1000000        0.0017156162   0.0039414719   0.0038674833   19.264204      0.025724655    17.74402     
     52000   0.98966214     0.0009858441   1000000        0.0015954764  -0.00042686023  0.0017889161   19.265032      0.025723187    17.75489     
     53000   0.98589647     0.0016116971   1000000        0.0018638808   0.0022748511   0.00069635951  19.260073      0.027024993    17.754277    
     54000   0.98903015     0.002161588    1000000        0.0026523711   0.0010668342   0.0027655587   19.264763      0.026368744    17.754923    
     55000   0.99104174     0.0013896565   1000000        0.00077368573  0.0018148711   0.0015804128   19.265079      0.026924028    17.751667    
     56000   0.99525373     0.0015580314   1000000        0.0019227171   0.001827999    0.0009233782   19.269375      0.025431803    17.751138    
     57000   0.99944519    -0.00018354827  1000000        0.00091464623 -0.00022726712 -0.0012380239   19.274277      0.026748597    17.748436    
     58000   0.99781196     0.0038098096   1000000        0.0037218109   0.0025146545   0.0051929635   19.275826      0.027922637    17.75126     
     59000   0.99923472     0.00044073216  1000000        0.00055695471  0.00083809392 -7.2852149e-05  19.278229      0.025714975    17.753737    
     60000   0.99816991     0.0015542032   1000000        0.0013180263   0.0013953141   0.0019492691   19.27822       0.026963085    17.754077    
     61000   1.0072812      0.0016906182   1000000        0.00088302186  0.0011842334   0.0030045993   19.283986      0.023956254    17.749183    
     62000   1.0058967      0.00081936391  1000000        0.0027629851   0.00032025798 -0.00062515133  19.289588      0.026801894    17.754017    
     63000   1.0015187      0.002431472    1000000        0.00069841756  0.0019066134   0.0046893849   19.28608       0.027688705    17.756188    
     64000   0.99621691     0.0018953684   1000000        0.0016673008   0.0027674149   0.0012513894   19.282845      0.027500074    17.761095    
     65000   1.0017735      0.0010223147   1000000        0.0013744258   0.00056723576  0.0011252825   19.287732      0.02631614     17.758831    
     66000   1.001118       0.0015259337   1000000        0.0015335196   0.0021738473   0.00087043426  19.282459      0.026123264    17.754734    
     67000   0.9999293     -6.3876163e-05  1000000        0.00048104781  0.00056426038 -0.0012369367   19.274612      0.026299672    17.748494    
     68000   0.9978375      0.0029514153   1000000        0.0016517484   0.0045975668   0.0026049306   19.276622      0.027018614    17.752922    
     69000   0.99367368     0.00035057316  1000000        0.0007223905  -0.00027407569  0.00060340466  19.280819      0.026268319    17.764115    
     70000   0.99713527     0.0023315728   1000000        0.0015565726   0.0033140793   0.0021240665   19.281994      0.027829818    17.758536    
     71000   0.9945943      0.00017566018  1000000       -0.00053694403  0.00015001639  0.00091390819  19.277105      0.024642477    17.760645    
     72000   0.9952057      0.001969799    1000000        0.001774161    0.0017859937   0.0023492424   19.278599      0.025505443    17.76036     
     73000   0.99964748     0.0017364544   1000000        0.0004428483   0.0023373136   0.0024292015   19.27569       0.025426936    17.750867    
     74000   1.0006335     -0.00024511451  1000000        4.4440471e-05 -0.0012508068   0.00047102279  19.280594      0.025070734    17.754648    
     75000   1.0000347      0.0032409151   1000000        0.0021066432   0.0044220957   0.0031940064   19.284342      0.028989378    17.755376    
     76000   1.0005691      0.0005288349   1000000        0.001864202   -0.00131574     0.0010380427   19.286942      0.025421448    17.760742    
     77000   1.0035709      0.00012148187  1000000        0.0014834249   0.00078899972 -0.001907979    19.289973      0.023403622    17.761288    
     78000   1.0022105      0.0027297595   1000000        0.00015282281  0.0029225858   0.00511387     19.285982      0.028273174    17.754469    
     79000   1.00193        0.0010293696   1000000        0.0021817019   0.0010949833  -0.00018857631  19.291022      0.026388353    17.761814    
     80000   1.0057811      0.0026142254   1000000        0.0014840417   0.0028389836   0.003519651    19.293372      0.024294138    17.760482    
     81000   1.0032242     -0.00077998374  1000000       -0.0014067928  -0.00028504122 -0.00064811717  19.294147      0.024267092    17.765119    
     82000   1.0046405      0.0020640811   1000000        0.0028386036   0.002415855    0.00093778474  19.291734      0.025341902    17.759506    
     83000   0.99962185     0.00099178863  1000000        0.00062300272  0.00020202255  0.0021503406   19.282673      0.025642505    17.757673    
     84000   1.0013915      0.00028244699  1000000       -0.00035857366  0.0010406379   0.00016527674  19.280939      0.024977845    17.75395     
     85000   1.0037155      0.00066007989  1000000        0.0012827718   0.0002359383   0.00046152953  19.283784      0.023852953    17.754434    
     86000   1.0005159      0.0017507801   1000000        0.00141416     0.0025724427   0.0012657377   19.280683      0.024909068    17.755075    
     87000   0.99742666    -0.001236495    1000000       -0.0024524267   0.00034063986 -0.0015976983   19.278793      0.024620841    17.758107    
     88000   1.0023226      0.0022971167   1000000        0.0040433613   0.00026381464  0.0025841741   19.282567      0.026097231    17.753061    
     89000   1.0002393      0.00062652794  1000000        1.0772887e-06  0.00060438854  0.001274118    19.284657      0.025835528    17.758538    
     90000   1.0018836      0.0024546508   1000000        0.0018773318   0.0029191223   0.0025674983   19.28596       0.02645372     17.756756    
     91000   0.99685025     0.00057132473  1000000        0.0025714928   3.0387693e-05 -0.00088790628  19.282066      0.026555266    17.76031     
     92000   1.0006092      0.0030447175   1000000        0.0021401807   0.0036684272   0.0033255447   19.28604       0.024801753    17.7604      
     93000   1.0049111     -0.00075737952  1000000       -0.00047334073 -0.0003040925  -0.0014947053   19.285585      0.023814156    17.754479    
     94000   1.0027344      0.001252159    1000000        0.0011949335   0.0010096945   0.001551849    19.284973      0.025588993    17.755357    
     95000   0.99924757     0.001329426    1000000        0.001358108    0.0020543446   0.00057582525  19.278304      0.024802098    17.754706    
     96000   1.001897       0.00041401783  1000000        0.0017879769  -0.0014286864   0.00088276303  19.281257      0.024314247    17.754172    
     97000   0.99814436     0.0014102149   1000000       -3.0543642e-05  0.0024632467   0.0017979416   19.281669      0.02577171     17.758756    
     98000   0.99879234     0.0015908856   1000000        0.0035778177   0.00086178825  0.00033305079  19.278343      0.024546467    17.755683    
     99000   0.99763685     0.0019749052   1000000        0.0016697339   0.002181027    0.0020739546   19.276235      0.024576722    17.755278    
    100000   0.99313086     0.00022077888  1000000       -0.00059988438  0.0012401609   2.2060106e-05  19.274455      0.025375035    17.759458    
Loop time of 61.2966 on 1 procs for 100000 steps with 20000 atoms

Performance: 14095.407 tau/day, 1631.413 timesteps/s, 32.628 Matom-step/s
99.6% CPU use with 1 MPI tasks x no OpenMP threads

MPI task timing breakdown:
Section |  min time  |  avg time  |  max time  |%varavg| %total
---------------------------------------------------------------
Pair    | 13.37      | 13.37      | 13.37      |   0.0 | 21.81
Bond    | 9.8373     | 9.8373     | 9.8373     |   0.0 | 16.05
Neigh   | 0.45655    | 0.45655    | 0.45655    |   0.0 |  0.74
Comm    | 2.3078     | 2.3078     | 2.3078     |   0.0 |  3.76
Output  | 0.0058036  | 0.0058036  | 0.0058036  |   0.0 |  0.01
Modify  | 33.44      | 33.44      | 33.44      |   0.0 | 54.55
Other   |            | 1.879      |            |       |  3.07

Nlocal:          20000 ave       20000 max       20000 min
Histogram: 1 0 0 0 0 0 0 0 0 0
Nghost:           9997 ave        9997 max        9997 min
Histogram: 1 0 0 0 0 0 0 0 0 0
Neighs:          78838 ave       78838 max       78838 min
Histogram: 1 0 0 0 0 0 0 0 0 0

Total # of neighbors = 78838
Ave neighs/atom = 3.9419
Ave special neighs/atom = 1.998
Neighbor list builds = 59
Dangerous builds = 0

# ====================================================================== #
# SET UP SIMULATION
# =================
timestep 0.0001
reset_timestep 0

# Write polymer and crosslinker coordinates from simulation to file:
# - Write every 2000 timesteps
# - Write atom ID, molecule ID, atom type, and atom coordinates
# - Sort lines by atom ID
dump 1 all custom 2000 tetrahedral_20p0c.lammpstrj id mol type xu yu zu vx vy vz
dump_modify 1 sort id

# Write polymer bonds and polymer/crosslinker bonds to file
compute 1 all property/local btype batom1 batom2
dump 2 all local 2000 tetrahedral_20p0c.bond index c_1[1] c_1[2] c_1[3]
dump_modify 2 sort 3

# ====================================================================== #
# DEFINE MOLECULE TEMPLATES
# =========================
molecule forward_unbonded unreacted.data_template
Read molecule template forward_unbonded:
  1 molecules
  0 fragments
  4 atoms with max type 3
  2 bonds with max type 2
  0 angles with max type 0
  0 dihedrals with max type 0
  0 impropers with max type 0
molecule forward_bonded reacted.data_template
Read molecule template forward_bonded:
  1 molecules
  0 fragments
  4 atoms with max type 3
  3 bonds with max type 3
  0 angles with max type 0
  0 dihedrals with max type 0
  0 impropers with max type 0
molecule reverse_bonded reacted.data_template
Read molecule template reverse_bonded:
  1 molecules
  0 fragments
  4 atoms with max type 3
  3 bonds with max type 3
  0 angles with max type 0
  0 dihedrals with max type 0
  0 impropers with max type 0
molecule reverse_unbonded unreacted.data_template
Read molecule template reverse_unbonded:
  1 molecules
  0 fragments
  4 atoms with max type 3
  2 bonds with max type 2
  0 angles with max type 0
  0 dihedrals with max type 0
  0 impropers with max type 0

# ====================================================================== #
# DEFINE POLYMER/CROSSLINKER BONDING REACTION
# ===========================================
# - Apply reaction site stabilization (apply nve/limit to reacting atoms
#   for fixed number of timesteps to disallow immediate participation in
#   further reactions)
# - Perform bonding reaction (rxn1) if reacting atoms are within distance
#   [0, 1.1] (1.0 = harmonic bond equilibrium length)
# - Perform unbonding reaction (rxn2) if reacting atoms are within distance
#   [0.9, 1.1] (1.0 = harmonic bond equilibrium length)
# - Set prob = 1.0 to ensure that the reaction proceeds if all constraints
#   (including the Arrhenius constraint) is satisfied
fix myrxns all bond/react stabilization yes statted_group 0.5     react rxn1 all 1 0.0 1.1 forward_unbonded forward_bonded forward_map prob 1.0 1234     react rxn2 all 1 0.9 1.1 reverse_bonded reverse_unbonded reverse_map prob 1.0 12345
dynamic group bond_react_MASTER_group defined
dynamic group statted_group_REACT defined

# ====================================================================== #
# SET UP ENSEMBLES
# ================
# - Apply NVT ensemble on unreacting atoms throughout the simulation
# - Apply Langevin dynamics on reacting atoms throughout the simulation
fix fx1 statted_group_REACT nvt temp $g $g 2.0
fix fx1 statted_group_REACT nvt temp 1 $g 2.0
fix fx1 statted_group_REACT nvt temp 1 1 2.0
fix fx2 bond_react_MASTER_group langevin $g $g 2.0 12345
fix fx2 bond_react_MASTER_group langevin 1 $g 2.0 12345
fix fx2 bond_react_MASTER_group langevin 1 1 2.0 12345

# ====================================================================== #
# RUN SIMULATION
# ==============
run 2000000

CITE-CITE-CITE-CITE-CITE-CITE-CITE-CITE-CITE-CITE-CITE-CITE-CITE

Your simulation uses code contributions which should be cited:

- fix bond/react: reacter.org doi:10.1016/j.polymer.2017.09.038, doi:10.1021/acs.macromol.0c02012

@Article{Gissinger17,
 author = {J. R. Gissinger and B. D. Jensen and K. E. Wise},
 title = {Modeling Chemical Reactions in Classical Molecular Dynamics Simulations},
 journal = {Polymer},
 year =    2017,
 volume =  128,
 pages =   {211--217}
}

@Article{Gissinger20,
 author = {J. R. Gissinger, B. D. Jensen, K. E. Wise},
 title = {{REACTER}: A Heuristic Method for Reactive Molecular Dynamics},
 journal = {Macromolecules},
 year =    2020,
 volume =  53,
 number =  22,
 pages =   {9953--9961}
}

CITE-CITE-CITE-CITE-CITE-CITE-CITE-CITE-CITE-CITE-CITE-CITE-CITE

Generated 0 of 3 mixed pair_coeff terms from geometric mixing rule
Neighbor list info ...
  update: every = 1 steps, delay = 1 steps, check = yes
  max neighbors/atom: 2000, page size: 100000
  master list distance cutoff = 6.4
  ghost atom cutoff = 6.4
  binsize = 3.2, bins = 32 32 32
  2 neighbor lists, perpetual/occasional/extra = 1 1 0
  (1) pair lj/cut, perpetual
      attributes: half, newton on
      pair build: half/bin/newton
      stencil: half/bin/3d
      bin: standard
  (2) fix bond/react, occasional, copy from (1)
      attributes: half, newton on
      pair build: copy
      stencil: none
      bin: none
Per MPI rank memory allocation (min/avg/max) = 11.55 | 11.55 | 11.55 Mbytes
   Step          Temp          Press          Volume          Pxx            Pyy            Pzz           TotEng         E_pair         E_bond    
         0   0.99313086     0.00022077888  1000000       -0.00059988438  0.0012401609   2.2060106e-05  19.274455      0.025375035    17.759458    
      1000   1.1340978      0.00081541186  1000000        2.8937574e-05  0.00038037805  0.00203692     19.557556      0.031970201    17.824525    
      2000   1.2637419      0.0023902525   1000000        0.0020163075   0.0024653374   0.0026891126   19.805611      0.032324399    17.877768    
      3000   1.3637446     -0.00055047852  1000000       -0.00015746085 -0.00098930646 -0.00050466826  20.018312      0.033855649    17.938942    
      4000   1.4420356      0.001345781    1000000        0.0015342616   0.0014061064   0.0010969751   20.188858      0.045026468    17.980886    
      5000   1.5113126      0.0015729246   1000000        0.0033687151   0.002610581   -0.0012605222   20.343334      0.043703147    18.032776    
      6000   1.5645759      0.00092614096  1000000        0.0019519199   0.0026668059  -0.0018403029   20.460456      0.03977707     18.073932    
      7000   1.6232884     -0.0011624808   1000000       -0.0021891447  -0.00099679118 -0.00030150649  20.592587      0.0448037      18.112973    
      8000   1.6693757      0.0015109708   1000000       -0.00012311766  0.0014019614   0.0032540686   20.694645      0.044099463    18.146607    
      9000   1.7079317      0.0017361657   1000000        0.0033567925   0.0020353431  -0.00018363832  20.780802      0.044172638    18.17486     
     10000   1.7360469      0.0013182609   1000000        0.0019450879   0.0011619189   0.00084777602  20.858315      0.049253641    18.205121    
     11000   1.7715712      0.0020288658   1000000        0.0021875082   0.00072919879  0.0031698904   20.929598      0.046964725    18.22541     
     12000   1.7975788      0.003779558    1000000        0.00096140053  0.0076559083   0.0027213652   20.984319      0.048968864    18.239117    
     13000   1.8220431      0.00067732468  1000000        0.00056482922 -0.0011014995   0.0025686443   21.060921      0.050762458    18.277231    
     14000   1.8437235      0.0027351111   1000000        0.0042635948   0.0027420733   0.0011996652   21.106396      0.051458302    18.289491    
     15000   1.8500774      0.0013455271   1000000        0.00071683037  0.0020304466   0.0012893042   21.138068      0.051657032    18.311434    
     16000   1.8750026      0.0023995297   1000000        0.0033762941   0.00026671917  0.0035555759   21.16995       0.051810439    18.305776    
     17000   1.8745366      0.0031413398   1000000        0.0045995633   0.0030542459   0.0017702102   21.186984      0.049878498    18.325441    
     18000   1.8938208      0.00026926874  1000000       -0.0021198984   0.0010885921   0.0018391125   21.229041      0.049254178    18.339197    
     19000   1.8970136      0.0043853494   1000000        0.00063057498  0.0063327677   0.0061927056   21.246325      0.053710513    18.347237    
     20000   1.9170137     -0.00093243326  1000000       -0.0054935408  -9.723022e-05   0.0027934713   21.273473      0.045403564    18.352693    
     21000   1.9129         0.0054307427   1000000        0.0045604723   0.0048660202   0.0068657357   21.288736      0.057199581    18.36233     
     22000   1.9148142      0.0026776657   1000000        0.0042520275   0.0023879816   0.0013929879   21.292521      0.054183509    18.366259    
     23000   1.9072445      0.0015660092   1000000        0.002342372    0.0010831841   0.0012724716   21.304341      0.056623428    18.386994    
     24000   1.9314984      0.0051752219   1000000        0.0063595324   0.0041421561   0.005023977    21.329001      0.052334915    18.379564    
     25000   1.9330408      0.0024758388   1000000        0.004514784    0.00060073288  0.0023119995   21.337056      0.053814283    18.383826    
     26000   1.9302843      0.005663319    1000000        0.0032273771   0.0061943665   0.0075682133   21.345222      0.058358544    18.391581    
     27000   1.9296688      0.0041985412   1000000        0.0014585117   0.0056951924   0.0054419196   21.331039      0.05405595     18.382625    
     28000   1.9189084      0.0027210095   1000000       -0.0013347757   0.0035495097   0.0059482945   21.33469       0.057133735    18.399337    
     29000   1.9267408      0.0024398811   1000000        0.0050205037   0.00039141118  0.0019077283   21.359779      0.053412333    18.4164      
     30000   1.9246742      0.00023909458  1000000        0.0026649689  -0.00032598458 -0.0016217006   21.347629      0.051056869    18.409705    
     31000   1.9441953     -0.00023812543  1000000        0.00032225847  0.0010122108  -0.0020488455   21.376457      0.052599268    18.407711    
     32000   1.9285592      0.0015827318   1000000       -0.00031129758  0.0030831165   0.0019763765   21.351668      0.051151131    18.407822    
     33000   1.9325639      0.001682442    1000000       -0.00024093703  0.0030260042   0.0022622587   21.344303      0.047656737    18.397946    
     34000   1.92887        0.0046055287   1000000        0.0043328503   0.0020095818   0.007474154    21.339476      0.055301738    18.391014    
     35000   1.9329724      0.00075981825  1000000        0.001434795   -0.0028133057   0.0036579655   21.346719      0.050545831    18.396859    
     36000   1.933359      -0.0013204447   1000000       -0.003888543   -0.00119674     0.0011239488   21.349263      0.047420844    18.401949    
     37000   1.912698      -9.6017525e-05  1000000       -0.0031868515   0.0024367137   0.00046208525  21.326173      0.050768034    18.406501    
     38000   1.9148978      0.0010656692   1000000        0.001598196   -0.00014175434  0.001740566    21.335973      0.051742692    18.412028    
     39000   1.9269628      0.0010514598   1000000        0.0034618673   0.00040535873 -0.00071284675  21.338572      0.052106661    18.396165    
     40000   1.9165725      0.0005355009   1000000        0.0026462091  -0.00062417935 -0.00041552711  21.330264      0.052888054    18.402661    
     41000   1.9181045      9.3373348e-05  1000000       -0.00091397784 -0.0012045895   0.0023986874   21.325057      0.049405905    18.398638    
     42000   1.9338438      0.00095813801  1000000        0.00068298607  0.00037024555  0.0018211824   21.33582       0.048423125    18.386776    
     43000   1.9233127      0.00033161872  1000000       -0.0026151681   0.0035148107   9.5213465e-05  21.328489      0.052863089    18.390801    
     44000   1.9250157      0.0015749941   1000000        0.00093703825  0.0038011402  -1.319597e-05   21.340737      0.052909394    18.400448    
     45000   1.9197043     -0.0015668962   1000000        0.0018780393  -0.0045268771  -0.0020518507   21.349095      0.048888278    18.420794    
     46000   1.9382047     -0.00093224275  1000000        0.00019690954 -0.0047439045   0.0017502667   21.365338      0.049918324    18.408258    
     47000   1.9263797      0.0015816577   1000000        0.00088483792  0.0015023428   0.0023577924   21.347319      0.049989998    18.407904    
     48000   1.9249539      0.0009237605   1000000        0.0025164329   0.0021363649  -0.0018815164   21.337065      0.048965091    18.400813    
     49000   1.9321525      0.0028441771   1000000        0.0051086665   0.0019833722   0.0014404926   21.335109      0.049129821    18.387895    
     50000   1.9251132      0.0014464953   1000000        0.003424093    0.0015674388  -0.00065204581  21.328797      0.053157594    18.388114    
     51000   1.9378503     -0.002026604    1000000       -0.0012638326  -0.0036022704  -0.0012137092   21.349441      0.051678053    18.391132    
     52000   1.9243957      0.00072528465  1000000        0.0013056198   0.00099237528 -0.00012214118  21.341493      0.051797878    18.403245    
     53000   1.9273707      2.3433288e-05  1000000        0.003891707   -0.0017244368  -0.0020969703   21.341019      0.049692055    18.400416    
     54000   1.9188826      0.00024908901  1000000        0.00043225561  0.00018499281  0.00013001861  21.346525      0.055763699    18.412582    
     55000   1.9219994     -0.00046408059  1000000       -0.0024989217   8.986059e-05   0.0010168194   21.325056      0.050263892    18.391937    
     56000   1.9296673      9.8081307e-05  1000000       -0.0011710967   0.0010012074   0.00046413321  21.329025      0.052477878    18.38219     
     57000   1.9175637     -0.00041428177  1000000       -0.0019819923   0.00042208686  0.00031706012  21.319058      0.04998125     18.392875    
     58000   1.9065464      0.00036878653  1000000        0.0023973462  -0.0013224815   3.1494903e-05  21.319874      0.050840999    18.409356    
     59000   1.9121941      0.00089627806  1000000        0.0030658962   0.0013727734  -0.0017498354   21.314093      0.046502811    18.399442    
     60000   1.8935865     -0.0023763153   1000000       -0.0042571087  -0.0043434544   0.0014716171   21.292183      0.048505539    18.40344     
     61000   1.8892491     -0.00095148472  1000000       -0.0017486515   0.0022761234  -0.0033819261   21.291266      0.046363588    18.41117     
     62000   1.8964972     -0.00068053656  1000000        0.00060407084 -0.0010355477  -0.0016101329   21.305066      0.051617903    18.408844    
     63000   1.9088876      0.0029574407   1000000        0.00078812362  0.003525765    0.0045584336   21.298914      0.05296716     18.382758    
     64000   1.8995605      0.0024434828   1000000        0.0053850302   0.00084869381  0.0010967244   21.306733      0.051540506    18.405994    
     65000   1.8904652     -0.003085571    1000000       -0.0020793897  -0.0049992946  -0.0021780288   21.28788       0.047267667    18.405057    
     66000   1.9062487      0.0016763409   1000000        0.00067689402  0.0016453627   0.0027067659   21.282577      0.04881934     18.374527    
     67000   1.9046086      0.0015337558   1000000        0.0011267563   0.003611426   -0.00013691498  21.282147      0.050681661    18.374696    
     68000   1.8956079     -3.5127086e-05  1000000        0.0007525398   0.00063772637 -0.0014956474   21.292849      0.052433727    18.397146    
     69000   1.8985614      0.0015954394   1000000        0.0038176573   0.00035368485  0.00061497596  21.286901      0.051233775    18.387967    
     70000   1.9063056      0.0016512609   1000000        0.0014277249   0.0025725869   0.00095347083  21.290953      0.051955996    18.379682    
     71000   1.8883219      0.0029373428   1000000        0.0029121246   0.0058483883   5.1515406e-05  21.281918      0.056334441    18.393243    
     72000   1.9014543      0.00011675046  1000000       -0.0028930479   0.00093126889  0.0023120304   21.283974      0.051274895    18.38066     
     73000   1.8984641      0.001189368    1000000       -0.00059956942  0.00054422532  0.0036234481   21.286354      0.053077143    18.385723    
     74000   1.9142131     -0.0010958646   1000000       -0.00060099901 -0.0022098034  -0.00047679143  21.288576      0.050090992    18.367309    
     75000   1.8941777      0.00018874534  1000000       -0.00083063732  0.0030300772  -0.0016332039   21.284666      0.051295655    18.392246    
     76000   1.9033768      0.0025237951   1000000        0.0037479106   0.00076598873  0.003057486    21.295478      0.052881049    18.387675    
     77000   1.8982406      0.0010300181   1000000        0.0010187215  -0.00055026027  0.002621593    21.28831       0.046896886    18.394195    
     78000   1.8994037     -0.00092946837  1000000        0.00051372331  0.00023683696 -0.0035389654   21.295754      0.052217087    18.394574    
     79000   1.9120972      0.0015776389   1000000       -0.00011601719  0.0020546777   0.0027942562   21.302409      0.048205824    18.386201    
     80000   1.899782       0.0023625194   1000000        0.0011545578   0.0024844182   0.0034485823   21.282933      0.051007835    18.382395    
     81000   1.8994562      0.001387993    1000000       -0.00035164135  0.0013523542   0.003163266    21.297617      0.049142901    18.399433    
     82000   1.8970608      0.0009785366   1000000        7.6249691e-05  0.0018908102   0.00096854991  21.310237      0.0556319      18.409156    
     83000   1.8857007     -0.0001655658   1000000        0.001044806    0.001491357   -0.0030328604   21.292595      0.051040581    18.413145    
     84000   1.9047575      0.002104868    1000000        0.0051129039   0.0025146841  -0.0013129842   21.312405      0.051988375    18.403423    
     85000   1.9113149      0.0026671143   1000000        0.0025211221   0.0038291266   0.0016510943   21.32501       0.052957711    18.405223    
     86000   1.9016342      0.00035074444  1000000       -0.0014378478   0.00070647591  0.0017836052   21.314348      0.052188379    18.409851    
     87000   1.9076735     -0.0010977831   1000000       -0.00063115385 -0.0016171315  -0.001045064    21.299804      0.048285127    18.390152    
     88000   1.9107638      0.0013717532   1000000        0.0018570174   0.0011504895   0.0011077526   21.306068      0.048940156    18.391125    
     89000   1.8981035     -0.0038160312   1000000        0.00032535071 -0.0047015433  -0.0070719012   21.301414      0.049795566    18.404606    
     90000   1.8975293     -0.00095439059  1000000       -0.00096459534  0.00080525822 -0.0027038346   21.289678      0.047395975    18.396131    
     91000   1.8960331     -0.0017022381   1000000       -0.0027334502  -0.00010011057 -0.0022731536   21.285415      0.049599671    18.391908    
     92000   1.902565       0.001203229    1000000        0.0029807301   0.0016768567  -0.0010478998   21.28946       0.048438995    18.387316    
     93000   1.8991965      0.004483638    1000000        0.0041308215   0.0053368903   0.0039832023   21.287669      0.053459962    18.385556    
     94000   1.8970425      0.00057337187  1000000        0.00065170572  0.0024943086  -0.0014258987   21.294523      0.052639393    18.396462    
     95000   1.9032381     -4.3883122e-05  1000000        0.00066338794 -0.0021844363   0.001389399    21.297171      0.048107216    18.394349    
     96000   1.9087782      0.0018120403   1000000        0.0026572486   0.0017390918   0.0010397805   21.290197      0.052029051    18.375143    
     97000   1.9001379      0.0027658911   1000000        0.0020809758   0.0046533957   0.0015633019   21.284957      0.049441692    18.385451    
     98000   1.8897906      0.0030082898   1000000        0.0018686314   0.0018528702   0.0053033677   21.280745      0.054307965    18.391893    
     99000   1.8864772      0.0031821503   1000000       -0.00069512181  0.0053384114   0.0049031612   21.261999      0.050184447    18.382241    
    100000   1.8959716     -0.00034140572  1000000       -0.0011903006   0.0021567048  -0.0019906214   21.263291      0.045047019    18.374429    
    101000   1.8866479     -0.00039227902  1000000       -0.0023797402   0.00099863752  0.00020426566  21.261141      0.049677577    18.381633    
    102000   1.8907143      0.00056764998  1000000        0.0034800901  -0.0015493596  -0.00022778057  21.258838      0.050475512    18.372433    
    103000   1.892625       0.00019694718  1000000       -0.0022423748   0.0015503043   0.0012829121   21.26505       0.05015705     18.376098    
    104000   1.8926437     -0.00023635315  1000000        7.6491414e-05  0.00052330115 -0.001308852    21.264843      0.047049676    18.37897     
    105000   1.8872884      0.0017328046   1000000        0.0016483164   0.00032355272  0.0032265446   21.258461      0.046950571    18.380719    
    106000   1.8927178      0.0018451466   1000000        0.0046065259   0.0020217633  -0.0010928494   21.272324      0.049862707    18.383527    
    107000   1.8974805      0.0030192817   1000000        0.0059760613   0.0024399353   0.00064184841  21.286637      0.050464812    18.390094    
    108000   1.9026828      0.0017956128   1000000        0.0030351488   0.0017670614   0.00058462818  21.286923      0.048120165    18.384921    
    109000   1.9046338      0.00018763571  1000000        0.0014375232  -0.0012460167   0.00037140062  21.28957       0.048094678    18.384667    
    110000   1.9058288     -0.00012016985  1000000        0.0015835676  -0.00044408607 -0.0014999911   21.29396       0.046608369    18.388751    
    111000   1.90881        0.0019384047   1000000        0.0010069043   0.0012160802   0.0035922297   21.280879      0.046788666    18.371019    
    112000   1.9002841      0.0036376778   1000000        0.0025293481   0.0033837071   0.0049999781   21.286454      0.052299381    18.383871    
    113000   1.8954414      0.0041895071   1000000        0.0049715426   0.0036435519   0.0039534267   21.285786      0.05157481     18.391191    
    114000   1.9013861      0.0012261839   1000000        0.0025440803   0.00012116021  0.0010133113   21.286916      0.049332014    18.385647    
    115000   1.9071218      0.002543993    1000000        0.00025407165  0.0044872033   0.0028907041   21.290456      0.04764583     18.382271    
    116000   1.9038207      0.0031242836   1000000        0.00062113066  0.0033151208   0.0054365994   21.287571      0.053130966    18.378852    
    117000   1.9031101      0.00025570838  1000000       -0.0021328747   0.00038391776  0.0025160821   21.272006      0.04935963     18.368124    
    118000   1.8965122      0.0019352329   1000000        0.0024563616   0.00095897102  0.0023903661   21.274955      0.051335021    18.378994    
    119000   1.8969652      0.0028024677   1000000        0.0031334745   0.0032949918   0.0019789367   21.27559       0.052392363    18.377892    
    120000   1.8797839     -7.5473766e-05  1000000       -0.0018054912   0.0010309725   0.00054809746  21.26238       0.046201145    18.396644    
    121000   1.8706833      0.0012451401   1000000        0.0011647346   0.0020728712   0.00049781448  21.251251      0.050856562    18.39451     
    122000   1.8890852      0.0008694253   1000000        0.0025702542   0.00078793544 -0.00074991376  21.247472      0.045671949    18.368314    
    123000   1.8828291     -5.0513685e-05  1000000        0.00030390547 -0.00065244774  0.00019700121  21.251673      0.046925031    18.380645    
    124000   1.8736277     -0.00078241444  1000000       -7.7514768e-05 -0.002288943    1.9214446e-05  21.250475      0.049227371    18.390946    
    125000   1.8752818      0.0014785028   1000000        0.0003493399   0.0044863165  -0.00040014804  21.246429      0.048414174    18.385233    
    126000   1.8896375      0.0038542788   1000000        0.004273758    0.0024829423   0.0048061362   21.264443      0.05062499     18.379503    
    127000   1.882326       0.00053246045  1000000        0.00041397935  0.0012702552  -8.68532e-05    21.267237      0.047848417    18.396041    
    128000   1.8888614      0.0014963298   1000000       -0.0017035538   0.0035523374   0.0026402059   21.265877      0.046427779    18.386299    
    129000   1.8870072      0.003371398    1000000        0.0020784445   0.0070441861   0.00099156332  21.26459       0.046742534    18.387478    
    130000   1.8995406      0.0018586719   1000000        0.0018102292   0.0018166873   0.0019490991   21.281644      0.045917017    18.386559    
    131000   1.9144815      0.0023599406   1000000        0.0034151651   0.0020128241   0.0016518326   21.27218       0.046774089    18.353828    
    132000   1.8848904      0.00066521685  1000000        0.0042160965  -0.0019980278  -0.00022241807  21.276782      0.051412681    18.398175    
    133000   1.9009326      0.0019010221   1000000        0.0004556716   0.0038867804   0.0013606144   21.276257      0.045046759    18.379954    
    134000   1.9071636      0.0025854151   1000000        0.0020941247   0.0018883288   0.0037737919   21.266392      0.050769866    18.355019    
    135000   1.8933127      0.00056837361  1000000        0.002566872   -0.0011360212   0.0002742701   21.244814      0.0470782      18.357909    
    136000   1.8819883      0.002401586    1000000        0.0065955054   0.0012468088  -0.00063755618  21.243293      0.045990059    18.374462    
    137000   1.872932      -0.0010842197   1000000       -6.1466417e-05 -0.0024660358  -0.00072515687  21.239617      0.044910456    18.385449    
    138000   1.8772541     -0.002172171    1000000       -0.0022378564  -0.0018052068  -0.0024734496   21.233292      0.046240761    18.371311    
    139000   1.8759273      0.0029504581   1000000        0.0031812042   0.0023212182   0.0033489518   21.227282      0.050306193    18.363225    
    140000   1.882471       0.0014135526   1000000        0.0019278696   0.0016783242   0.00063446392  21.228284      0.048504475    18.356214    
    141000   1.8693028     -0.0005900767   1000000        0.0008498777  -0.0013195     -0.0013006078   21.220271      0.048631752    18.367826    
    142000   1.8660088     -0.0024686758   1000000       -0.0020911931  -0.0015908483  -0.0037239862   21.223526      0.048015439    18.376637    
    143000   1.8690578     -0.00027460228  1000000       -3.4953922e-05 -0.0005156913  -0.00027316162  21.228107      0.049820206    18.37484     
    144000   1.8627216      0.0010301857   1000000       -0.00031442193 -0.00021678283  0.0036217617   21.223358      0.048702233    18.380713    
    145000   1.867752       0.0013085213   1000000       -0.00085289184 -0.00063908299  0.0054175389   21.219572      0.0488333      18.369251    
    146000   1.875548       0.00066650711  1000000       -0.0022149165   0.00095912843  0.0032553095   21.224788      0.047190204    18.364417    
    147000   1.8874821      0.0038931068   1000000        0.0014865602   0.0083051887   0.0018875716   21.239582      0.0512174      18.357283    
    148000   1.8777342      0.0038937231   1000000        0.0033506466   0.0073794697   0.00095105306  21.236496      0.049606974    18.370429    
    149000   1.8629957      0.00065656741  1000000        0.0022163818  -0.00027544074  2.8761149e-05  21.22692       0.048737331    18.383829    
    150000   1.8736969      0.00050759097  1000000       -0.00030070752  0.00099814192  0.0008253385   21.218054      0.045712211    18.361937    
    151000   1.8760109     -0.0019021008   1000000       -0.00049130688 -0.00263662    -0.0025783756   21.218712      0.04467395     18.360162    
    152000   1.8598756      0.0010332059   1000000        0.0027109074  -0.001449443    0.0018381535   21.205687      0.049362146    18.366651    
    153000   1.8667432      0.0025291589   1000000        0.0021508606   0.0016949256   0.0037416903   21.220834      0.052924482    18.367934    
    154000   1.8785527      0.00088969312  1000000       -0.0014062832   0.00083063842  0.0032447242   21.220143      0.046031236    18.356423    
    155000   1.8755621      0.001505807    1000000       -0.00015879442  0.0014709581   0.0032052574   21.230353      0.046395642    18.370755    
    156000   1.8825434      0.0045174715   1000000        0.0045100062   0.0044225679   0.0046198405   21.233655      0.053533774    18.356447    
    157000   1.896982       0.002751264    1000000        0.0056749831   0.0008835179   0.001695291    21.249534      0.047158822    18.357045    
    158000   1.8752305      0.00034523585  1000000        0.0019808543   0.0014614749  -0.0024066217   21.232541      0.046586257    18.373249    
    159000   1.8738465     -0.00044414423  1000000       -0.00089044691 -0.0013327871   0.00089080128  21.22923       0.04782591     18.370775    
    160000   1.8652937      0.00020388142  1000000       -0.00028976927 -0.0019028305   0.002804244    21.216574      0.051802734    18.36697     
    161000   1.8613519      1.671457e-05   1000000        0.0017365417  -0.0014025304  -0.00028386761  21.214782      0.046965934    18.375928    
    162000   1.866758      -0.0006969898   1000000       -0.0014370135  -0.000675074    2.1118118e-05  21.219664      0.048958907    18.370708    
    163000   1.866083      -0.0021337945   1000000       -0.0043812975  -0.00042390908 -0.0015961768   21.22667       0.050516479    18.377169    
    164000   1.8736017     -0.0048447083   1000000       -0.007018959   -0.0036600486  -0.0038551174   21.221824      0.045537747    18.366024    
    165000   1.8705295      0.0018629544   1000000        0.0011210533   0.0011872915   0.0032805185   21.233195      0.052445893    18.375096    
    166000   1.8804093      0.00040787054  1000000        0.0030386687   0.0014232409  -0.003238298    21.233868      0.046753191    18.366642    
    167000   1.8786062      0.0018938112   1000000        0.0041121392   0.00032750194  0.0012417925   21.235537      0.046990844    18.370777    
    168000   1.873367      -6.3357091e-05  1000000        0.0011886253  -0.0019385325   0.00055983594  21.23322       0.047240298    18.376069    
    169000   1.8994675      0.0012177581   1000000       -0.00093881772  0.002315877    0.0022762149   21.264058      0.044657631    18.370342    
    170000   1.8967747      0.00076169809  1000000        0.00060840166  0.0042098603  -0.0025331677   21.263135      0.044776784    18.373338    
    171000   1.9047883      0.0015997572   1000000        0.0013920033   0.0030026921   0.00040457623  21.276058      0.047994077    18.371024    
    172000   1.8941536     -0.00015855737  1000000       -0.00057139907  0.00021847315 -0.00012274621  21.278652      0.050520509    18.387043    
    173000   1.8872072      0.002186455    1000000        0.0030226751   0.00071292741  0.0028237624   21.256416      0.05017327     18.375573    
    174000   1.8860642     -5.5211552e-05  1000000       -0.00040325394 -0.0010402792   0.0012778985   21.251321      0.050866491    18.3715      
    175000   1.88162       -0.0013089796   1000000       -0.00069116708 -0.0025885296  -0.00064724199  21.252118      0.048175336    18.381654    
    176000   1.8812799      0.0015274753   1000000        0.00090635393  0.00072237283  0.002953699    21.240333      0.046746502    18.371808    
    177000   1.8728228      0.0018086385   1000000        0.0020053546   0.0025241668   0.00089639426  21.232595      0.048950618    18.374551    
    178000   1.8520964     -0.0018414094   1000000       -0.0023575572  -0.0017609031  -0.0014057679   21.213298      0.045372462    18.38992     
    179000   1.8635651     -0.00048008825  1000000       -0.00044662403 -0.0017513853   0.0007577446   21.20468       0.04465419     18.364818    
    180000   1.8614147      0.0036563971   1000000        0.0029031585   0.0036864505   0.0043795824   21.202021      0.049830905    18.360208    
    181000   1.8519657      0.0018885546   1000000        0.00032717241  0.0017855663   0.003552925    21.185271      0.043273559    18.364188    
    182000   1.8649251      0.0014279242   1000000        0.00096020043  0.00058857127  0.002735001    21.192857      0.045750949    18.349859    
    183000   1.8579965     -0.00066448119  1000000        0.00021122927 -0.0010618974  -0.0011427754   21.189747      0.04510871     18.357783    
    184000   1.8600867     -0.00053658532  1000000        0.0015151225  -0.001031338   -0.0020935404   21.195672      0.045915691    18.359766    
    185000   1.8636017      0.00047637305  1000000        0.0014632588  -0.00013517209  0.00010103244  21.185891      0.046237736    18.34439     
    186000   1.8676426      0.0001752912   1000000        0.00055947276 -0.00010173229  6.8133116e-05  21.207668      0.047460727    18.358883    
    187000   1.8567548      0.0009882444   1000000        0.00083352017  0.0013172263   0.0008139867   21.211014      0.044426317    18.381595    
    188000   1.8696681     -6.0791314e-05  1000000        0.00044271694 -0.0017841206   0.0011590297   21.218699      0.051329918    18.363007    
    189000   1.8773185      0.0019233195   1000000        0.00054137035  0.0040678419   0.0011607463   21.228075      0.04527489     18.366963    
    190000   1.8704964      0.00082433087  1000000        0.00072513414  0.00022593077  0.0015219277   21.232143      0.049984414    18.376554    
    191000   1.8823771      0.0022856494   1000000        0.0045992202   0.0027005705  -0.00044284235  21.235552      0.048877472    18.36325     
    192000   1.8685013      0.0024538146   1000000        0.0031791605   0.0014990608   0.0026832225   21.230931      0.051259641    18.37706     
    193000   1.8748929     -0.00066697736  1000000        0.0022858772  -0.0028001089  -0.0014867003   21.23257       0.046775024    18.373596    
    194000   1.8780044      0.001332144    1000000       -0.00049785479  0.004057603    0.00043668387  21.240237      0.047212756    18.376159    
    195000   1.8775252      0.0020225497   1000000        0.00087965154  0.0023607604   0.0028272372   21.226864      0.046476827    18.36424     
    196000   1.8736578      0.001434862    1000000        0.00082960753  0.0019617668   0.0015132116   21.244293      0.048838279    18.385108    
    197000   1.8878004     -0.00068118471  1000000        0.00090356262 -0.0012390025  -0.0017081143   21.254366      0.043893928    18.378913    
    198000   1.8854996     -8.8037263e-06  1000000        0.0015664734   0.0010182405  -0.002611125    21.245359      0.044634161    18.372616    
    199000   1.8775851      0.00049009914  1000000        0.0019542408   0.0010475459  -0.0015314893   21.23266       0.047428435    18.368995    
    200000   1.8718909     -0.0025298895   1000000       -0.0028358379  -0.0011212619  -0.0036325686   21.215165      0.04490917     18.36256     
    201000   1.8582097     -0.00118533     1000000       -0.0008304005  -0.0016693257  -0.0010562637   21.203324      0.047854038    18.368295    
    202000   1.8717221     -0.0016966538   1000000        0.0001484408  -0.0031485383  -0.0020898638   21.210442      0.047036438    18.355962    
    203000   1.8650475     -0.00096780206  1000000       -0.00083971888 -0.0025110894   0.0004474021   21.225712      0.046336709    18.381944    
    204000   1.8655356     -0.00052987225  1000000       -0.0017733129  -0.00088130692  0.0010650031   21.221892      0.045435983    18.378292    
    205000   1.8782631      0.0023018525   1000000        0.0040396599  -0.00036551427  0.0032314119   21.226014      0.048735914    18.360025    
    206000   1.8706857     -0.00058381236  1000000        0.00030460757  0.00092485975 -0.0029809044   21.219341      0.049821614    18.363632    
    207000   1.8693817     -0.00021967188  1000000       -0.00093215178  0.00020933603  6.3800116e-05  21.216875      0.050120692    18.362822    
    208000   1.8752494      0.001659369    1000000        0.0034418443   0.00019716471  0.0013390981   21.221896      0.047135541    18.362027    
    209000   1.8845599     -0.00016523834  1000000       -0.001607512    0.00017872107  0.00093307591  21.236232      0.045979645    18.363554    
    210000   1.8699396      0.0031838037   1000000        0.0032827356   0.0033012524   0.0029674232   21.220358      0.050217093    18.365372    
    211000   1.8885841      0.00062892388  1000000        0.0011977742   0.0019729459  -0.0012839484   21.242702      0.044193286    18.365775    
    212000   1.866413      -0.0020574123   1000000       -0.0020189226  -0.0011974188  -0.0029558955   21.233211      0.050504965    18.383227    
    213000   1.8802762     -0.0010870053   1000000       -0.0029521571   0.0019184312  -0.00222729     21.236453      0.047329118    18.36885     
    214000   1.8758553     -0.00038795024  1000000       -0.002346001    0.0023454661  -0.0011633159   21.232684      0.044502808    18.374539    
    215000   1.8672292      0.0021650617   1000000        0.0042421405  -0.00042800779  0.0026810523   21.226647      0.048560374    18.377383    
    216000   1.8742294      0.00067569246  1000000        0.0013220888  -0.0010718642   0.0017768527   21.232572      0.046914704    18.374454    
    217000   1.8745701      0.0011297575   1000000       -0.00079987159  0.0040155759   0.00017356818  21.241759      0.049632577    18.380412    
    218000   1.8701037      1.0977847e-05  1000000       -0.0013377246  -0.00046383233  0.0018344905   21.236128      0.051144478    18.379968    
    219000   1.8745108     -0.0025102395   1000000       -0.0027219235  -0.0022684289  -0.0025403661   21.242645      0.047834451    18.383185    
    220000   1.882781       0.0031447152   1000000        0.0028218565   0.001833854    0.0047784353   21.250155      0.050831109    18.375294    
    221000   1.8930075      0.0017136789   1000000       -0.00078794714  0.0026828871   0.0032460969   21.252352      0.047859441    18.365123    
    222000   1.8885732      0.00062982083  1000000        0.00040912639 -0.00098818573  0.0024685218   21.253445      0.048539258    18.372187    
    223000   1.8849782      0.002639014    1000000        0.0031535482   0.0015562579   0.0032072358   21.251634      0.045867903    18.37844     
    224000   1.8789431      0.0014023214   1000000        0.0015036343   0.0039155519  -0.001212222    21.244731      0.0518211      18.374637    
    225000   1.8924099     -0.00048424588  1000000       -7.8607355e-05 -0.00038198402 -0.00099214627  21.256464      0.047310228    18.370681    
    226000   1.8807907     -0.00049496552  1000000       -0.0034136499   0.0018187233   0.00011002998  21.250543      0.052903173    18.376594    
    227000   1.8654617     -0.0020491427   1000000       -0.0013844363  -0.00085922199 -0.0039037697   21.237445      0.046571423    18.392821    
    228000   1.874658       0.0016518388   1000000        0.0019105664   0.00023931611  0.0028056338   21.225433      0.050244787    18.363342    
    229000   1.8672065      0.00048584758  1000000       -0.0004468261   0.00092372183  0.00098064701  21.222433      0.051494495    18.370269    
    230000   1.8686582     -0.00044467425  1000000        8.9838179e-05  0.0001429017  -0.0015667626   21.207671      0.045254177    18.35957     
    231000   1.873979      -0.00082725892  1000000       -0.00028979408 -0.0040508534   0.0018588708   21.228747      0.045778617    18.372141    
    232000   1.8660727     -0.0012837137   1000000        0.00058574117 -0.0038104568  -0.00062642558  21.215578      0.048370627    18.368239    
    233000   1.8686648     -0.00042508292  1000000        0.0016763699  -0.0011340987  -0.0018175199   21.227413      0.048774031    18.375782    
    234000   1.8728749     -0.0019981583   1000000       -0.0045743797  -0.0016634671   0.00024337188  21.232542      0.046974314    18.376396    
    235000   1.875324       0.00043304775  1000000       -0.0021110119   0.0019091157   0.0015010395   21.226406      0.045217388    18.368343    
    236000   1.8815229      0.00091059328  1000000        0.0040316098  -0.00089714244 -0.00040268755  21.235063      0.049569143    18.363351    
    237000   1.875254       0.002154241    1000000        0.0025127509   0.0011576792   0.0027922928   21.219229      0.047387273    18.359101    
    238000   1.8721072      0.001674176    1000000       -0.00034347615  0.0046590406   0.00070696359  21.224118      0.04863271     18.367465    
    239000   1.8690755      0.00092999628  1000000        0.0024421434  -0.0010106969   0.0013585423   21.223266      0.049142014    18.37065     
    240000   1.8670889      0.0007441138   1000000        0.0029817734  -0.0010425943   0.00029316225  21.223377      0.047462853    18.375421    
    241000   1.8675407     -0.00015720655  1000000        0.0012174785  -0.0011166881  -0.00057241007  21.218103      0.049641434    18.367291    
    242000   1.8700106     -0.0011263149   1000000       -0.0033557001   0.0012644247  -0.0012876692   21.223318      0.04653219     18.37191     
    243000   1.8578347     -0.0020364243   1000000       -2.0746722e-05 -0.0030717498  -0.0030167764   21.219672      0.047413859    18.385645    
    244000   1.8711383     -0.003041985    1000000       -0.0016337535  -0.0034448614  -0.0040473401   21.225951      0.046936273    18.372447    
    245000   1.8697744     -0.0022042785   1000000       -0.0006835499  -0.0029181142  -0.0030111713   21.216013      0.04463974     18.366852    
    246000   1.8627024      0.0016133465   1000000        2.4117527e-05  0.0028178851   0.0019980368   21.206765      0.046183624    18.366668    
    247000   1.8823071      0.00020216225  1000000       -0.0015997545   0.00086093525  0.001345306    21.220015      0.048644385    18.348051    
    248000   1.8812741      0.0022384453   1000000        0.00072061397  0.0052498205   0.00074490138  21.224228      0.046519988    18.355937    
    249000   1.8800432      0.002667555    1000000        0.0013415852   0.0038696819   0.0027913981   21.221909      0.050677748    18.351308    
    250000   1.8818097      1.3520971e-05  1000000        0.00081108689 -1.9176839e-05 -0.00075134713  21.226501      0.047874338    18.356054    
    251000   1.8900547     -0.0017547572   1000000       -0.0028333406  -0.0047738194   0.0023428884   21.227928      0.047060436    18.345928    
    252000   1.886584      -0.0025954254   1000000       -0.0040392383  -0.003780313    3.3275012e-05  21.235621      0.045488459    18.360398    
    253000   1.8740845      0.00057149866  1000000        0.0012427621  -0.0019717988   0.0024435326   21.211119      0.049260956    18.350872    
    254000   1.8788602      0.0022001755   1000000        0.0019115075   0.0046168344   7.218473e-05   21.229081      0.048164336    18.362767    
    255000   1.8792879     -0.00056092562  1000000       -0.0028697978   0.0049738404  -0.0037868195   21.230019      0.044603666    18.366624    
    256000   1.8758568     -0.00097267891  1000000       -0.0016861399   0.00018156289 -0.0014134597   21.234576      0.049437221    18.371494    
    257000   1.8726427     -0.00041194764  1000000        0.0010535217  -0.0018652502  -0.00042411434  21.217777      0.047268448    18.361685    
    258000   1.8633176      0.0027070226   1000000        0.0031914773   0.0017121237   0.0032174667   21.214002      0.046704367    18.372461    
    259000   1.878382       3.9816567e-05  1000000       -0.0011476722   9.0601831e-05  0.00117652     21.223336      0.045181489    18.360723    
    260000   1.8670391     -0.00096978105  1000000       -0.0036198576   0.0026511758  -0.0019406614   21.22465       0.050982443    18.373249    
    261000   1.8645153      0.00029107398  1000000       -0.0011818208   0.0029480044  -0.00089296163  21.217369      0.050815463    18.36992     
    262000   1.8643878      0.00022695367  1000000        5.1225599e-05  0.0021196065  -0.0014899711   21.22126       0.048179454    18.376638    
    263000   1.8744158      0.00098269363  1000000        0.00091006963  0.00078027496  0.0012577363   21.229546      0.048041882    18.370021    
    264000   1.87319        0.0020620816   1000000        0.0028196068   0.0012582364   0.0021084015   21.221874      0.047333481    18.364896    
    265000   1.8734299     -0.00050453617  1000000        0.0014768567  -0.0013881791  -0.0016022861   21.231756      0.047293437    18.374458    
    266000   1.8729432      0.00081706982  1000000        0.0040951206  -0.00076226363 -0.00088164753  21.247292      0.049765653    18.388252    
    267000   1.8873246      0.0019617747   1000000        0.0047604433   0.0013788635  -0.00025398272  21.253195      0.051554359    18.370796    
    268000   1.8741256     -0.0014652226   1000000       -0.001751832   -0.0025606775  -8.3158334e-05  21.230418      0.045829039    18.373541    
    269000   1.8735609     -0.00084440166  1000000        0.0013492338  -0.0019873552  -0.0018950836   21.232476      0.047988696    18.374287    
    270000   1.8740907      0.00016434676  1000000       -0.00078897531  0.00067735424  0.00060466136  21.224897      0.047509574    18.366392    
    271000   1.8657569      0.0025138663   1000000        0.0029434704   0.0022540932   0.0023440354   21.214859      0.048611379    18.367752    
    272000   1.8644643      0.001881401    1000000        0.0010083042   0.0019866194   0.0026492793   21.206843      0.050124155    18.360162    
    273000   1.8765354      0.00069817997  1000000        0.00069116291  0.0030657405  -0.0016623635   21.216855      0.048731796    18.353461    
    274000   1.8720178      0.0031175406   1000000        0.0021253871   0.0029518701   0.0042753648   21.214265      0.047912705    18.358466    
    275000   1.8702602      0.0021999845   1000000        0.0030769934   0.0012695311   0.0022534291   21.213703      0.050505067    18.357948    
    276000   1.8770738      0.00071879753  1000000        0.0025140569  -0.00090767191  0.00055000764  21.220914      0.04951649     18.355927    
    277000   1.8670425      0.0019637129   1000000        0.0019256408   0.0020067021   0.0019587956   21.210264      0.046201045    18.363639    
    278000   1.8648999      0.0012007729   1000000        0.00076282821  0.0018791109   0.00096037954  21.204387      0.045552332    18.361625    
    279000   1.8612025     -0.00026959203  1000000       -0.0024802182   0.00082350728  0.00084793482  21.203174      0.046665626    18.364844    
    280000   1.868537      -0.0012425471   1000000       -0.0029080744  -0.0016918163   0.00087224928  21.197757      0.047455864    18.347636    
    281000   1.8709458      0.003749299    1000000        0.0038276882   0.0032622085   0.0041580004   21.201355      0.048935632    18.346141    
    282000   1.8741968     -0.00059642975  1000000       -0.00065616902  0.00017624263 -0.0013093628   21.209791      0.049472344    18.349164    
    283000   1.8681489     -5.3815624e-05  1000000       -0.00076926143 -0.0014784042   0.0020862188   21.200225      0.048438368    18.349703    
    284000   1.8625971      0.0025454306   1000000        0.0017975365   0.001720955    0.0041178003   21.195486      0.046187168    18.355543    
    285000   1.8600686      0.00073804862  1000000        7.4818899e-05  0.00065551495  0.001483812    21.17973       0.044933217    18.344833    
    286000   1.8484142      0.00014863929  1000000       -0.00078866378  0.0012361243  -1.5426139e-06  21.178472      0.048341233    18.357648    
    287000   1.8650359      0.00033633541  1000000       -0.0028432956   0.0022953002   0.0015570016   21.191253      0.048938369    18.3449      
    288000   1.8624604      0.00099275213  1000000        0.003327589    0.00017562859 -0.00052496123  21.191445      0.042310354    18.355584    
    289000   1.8473877      1.1594283e-05  1000000        0.00086351107 -0.00091609504  8.736682e-05   21.183791      0.047994553    18.364853    
    290000   1.8536704      0.00054897567  1000000        0.0020220273  -0.001152806    0.00077770563  21.187732      0.044694854    18.362671    
    291000   1.87286        0.0035240265   1000000        0.0039185437   0.0036222207   0.0030313151   21.205809      0.048083804    18.348576    
    292000   1.8647749      0.0033377267   1000000        0.0028655557   0.0022340256   0.0049135988   21.205803      0.048863298    18.359917    
    293000   1.8592111      0.0012977323   1000000        0.00056217093  0.00018639173  0.0031446343   21.196522      0.046376703    18.361468    
    294000   1.8557133      0.00048549036  1000000        0.00080158991  0.00031906599  0.00033581519  21.209997      0.047680516    18.378886    
    295000   1.8606788      0.0014912416   1000000        0.0029848913   0.0014894152  -5.8171885e-07  21.210793      0.050131146    18.369783    
    296000   1.8673912     -0.00044339236  1000000        0.00030270998  0.0021783066  -0.0038111937   21.216305      0.044023724    18.371334    
    297000   1.8602827      0.00014834042  1000000        0.00099129186  0.00053715857 -0.0010834292   21.20668       0.044172974    18.372222    
    298000   1.8694302      0.001422195    1000000        0.0012695758   0.00085494264  0.0021420664   21.215825      0.046440786    18.365379    
    299000   1.8747911      0.00061755434  1000000       -0.0029249102   0.00074299714  0.0040345761   21.216368      0.045463523    18.358859    
    300000   1.8512121      0.0011269121   1000000        0.0029986788  -0.0005937694   0.00097582699  21.185681      0.048072303    18.360929    
    301000   1.8578506     -0.00073603137  1000000        8.6705352e-05 -0.0009121183  -0.0013826812   21.185783      0.042425706    18.356721    
    302000   1.8474203      0.0023817133   1000000        0.0013010185   0.0034251126   0.0024190088   21.185434      0.052710064    18.361732    
    303000   1.8528361      0.0034352821   1000000        0.0044661115   0.0035912752   0.0022484597   21.184808      0.050036272    18.355657    
    304000   1.8479853      0.0013276573   1000000       -0.0013341038   0.0026159207   0.0027011551   21.172602      0.043603316    18.357159    
    305000   1.8223616      0.0032870438   1000000        0.0064631235   0.0025144666   0.00088354122  21.163536      0.048106344    18.382024    
    306000   1.8366471      0.00027298329  1000000        0.0013659818   5.0010029e-05 -0.00059704198  21.156385      0.045225837    18.356326    
    307000   1.8611357     -0.00034644799  1000000       -0.00039358552  0.0026640918  -0.0033098502   21.184565      0.042908917    18.350092    
    308000   1.8599125     -0.00092487623  1000000       -0.0016316972   0.00016910123 -0.0013120327   21.188696      0.050143514    18.348823    
    309000   1.866528       0.00012070191  1000000       -0.00014771162  0.0013600527  -0.00085023537  21.196895      0.04831541     18.348927    
    310000   1.8574073      0.001006117    1000000        0.00015955814  0.0029088427  -5.0049912e-05  21.207743      0.049021029    18.37275     
    311000   1.8679328     -0.00068944885  1000000       -0.0039034039   0.0024224891  -0.0005874317   21.216476      0.048129796    18.366587    
    312000   1.8459421     -0.0018402667   1000000       -0.0018752523  -0.0015444526  -0.0021010951   21.192349      0.047913007    18.375661    
    313000   1.8483406      0.0013369154   1000000        0.00061088056 -1.426198e-07   0.0034000083   21.185642      0.047263181    18.366006    
    314000   1.8484522      0.0012739676   1000000        0.0041769233  -0.00048909953  0.0001340791   21.179753      0.044601756    18.362612    
    315000   1.8509108      0.00060906913  1000000       -0.00062770943  0.0015503149   0.00090460188  21.1864        0.04654856     18.363624    
    316000   1.8491282      0.0016783829   1000000       -0.0010997332   0.0023606287   0.0037742533   21.184452      0.04692294     18.363976    
    317000   1.8463175      0.0016465229   1000000       -4.5767557e-05  0.0025447206   0.0024406156   21.176677      0.043135245    18.364204    
    318000   1.8346707      0.0033274015   1000000        0.0052789134   0.0014248969   0.0032783944   21.166446      0.048417419    18.36616     
    319000   1.8442522     -0.0013218671   1000000       -8.8599697e-05 -0.0018404003  -0.0020366012   21.167231      0.044758338    18.356233    
    320000   1.8529168      0.0034610657   1000000        0.003890836    0.0044900584   0.0020023028   21.175021      0.048216332    18.347569    
    321000   1.8534482      0.00088495759  1000000        0.00090927933  0.00066703406  0.0010785594   21.186459      0.046802149    18.359623    
    322000   1.8422002     -0.00026159678  1000000       -0.0028050713   0.0009265048   0.0010937762   21.16868       0.046627847    18.35889     
    323000   1.8413447     -0.0018230967   1000000       -0.0031187514  -0.0010195241  -0.0013310147   21.184926      0.049095031    18.373952    
    324000   1.8448906     -0.0022168275   1000000       -0.001531102   -0.0030914181  -0.0020279624   21.182175      0.050040411    18.364937    
    325000   1.857384       0.002321458    1000000        0.0021140766   0.0016028768   0.0032474207   21.186808      0.04577541     18.355096    
    326000   1.8613243      0.0037159264   1000000        0.0048663797   0.0055146746   0.00076672487  21.182398      0.046893528    18.343657    
    327000   1.8546618     -0.0019005509   1000000        0.00025393906 -0.0039056243  -0.0020499674   21.178412      0.042504828    18.354053    
    328000   1.8536613      0.00024641408  1000000        0.004407994   -0.004893992    0.0012252403   21.182412      0.047484976    18.354574    
    329000   1.8600871     -0.0011928499   1000000        0.0024802484  -0.0025398189  -0.0035189791   21.191201      0.045686446    18.355523    
    330000   1.8718711      0.00055966761  1000000        0.00093813454 -0.00044871874  0.001189587    21.210314      0.048743403    18.353905    
    331000   1.8621485      0.00022331347  1000000        0.00079763886 -0.0010274661   0.00089976766  21.20844       0.046719668    18.368638    
    332000   1.8688115      0.0004965169   1000000        0.00098778312  0.0022658963  -0.0017641287   21.20478       0.049023677    18.352679    
    333000   1.8627885     -0.00083487804  1000000       -0.0016054968   0.00069091994 -0.0015900573   21.208268      0.045580267    18.368644    
    334000   1.8643213      0.00014310413  1000000       -0.001155434    0.00094570179  0.00063904463  21.196184      0.049885368    18.349956    
    335000   1.8640076      0.0024595053   1000000        0.0030613833  -0.0020181976   0.0063353303   21.197733      0.046566055    18.355296    
    336000   1.8735696      0.0034333219   1000000        0.0053456006   0.0027879338   0.0021664311   21.202239      0.048411394    18.343614    
    337000   1.8591376      0.0022500736   1000000        0.0014467966   0.002090865    0.003212559    21.186129      0.045010677    18.352551    
    338000   1.8585072      0.0023056587   1000000        0.0031395766   0.0018798843   0.0018975152   21.183146      0.046693099    18.348831    
    339000   1.8465185      0.0021123081   1000000        0.00017001333  0.0045371198   0.0016297912   21.159714      0.046517983    18.343556    
    340000   1.8450435      0.0010650403   1000000        0.00043640513  6.4698186e-05  0.0026940177   21.161847      0.049415475    18.345005    
    341000   1.8398616     -0.00081451127  1000000        0.0010661427  -0.0028159572  -0.00069371929  21.171043      0.047173549    18.364215    
    342000   1.847451      -0.00056932145  1000000       -0.00056119969 -0.00038399839 -0.00076276628  21.163479      0.049435406    18.343005    
    343000   1.8434394      0.0016464424   1000000        0.0031668944   0.0016254532   0.00014697968  21.158128      0.046884949    18.346223    
    344000   1.8460046      0.00099759998  1000000        0.00094008033  0.0022806007  -0.00022788109  21.16157       0.045311579    18.34739     
    345000   1.8403094      0.002355055    1000000        0.0035004357   0.0033127888   0.0002519406   21.165157      0.047047333    18.357783    
    346000   1.8536584      0.00042225265  1000000        0.00019887894 -6.8912164e-06  0.0010747702   21.158165      0.044609416    18.333207    
    347000   1.8501011     -8.5170722e-05  1000000        0.0029093166  -0.0036317236   0.00046689483  21.169983      0.041829444    18.353141    
    348000   1.8450669     -0.00070448612  1000000        0.0013980685  -0.0017698203  -0.0017417066   21.16462       0.046306697    18.350851    
    349000   1.8401526     -0.002323386    1000000       -0.00085372437 -0.0023734728  -0.0037429608   21.174681      0.048426167    18.366164    
    350000   1.8440292     -0.00082939135  1000000        0.001292632   -0.0034852368  -0.00029556929  21.178399      0.049372074    18.363121    
    351000   1.8470077      0.0038791757   1000000        0.0054354698   0.0014754904   0.0047265669   21.170652      0.049963282    18.350316    
    352000   1.8596433      0.0026819209   1000000        0.0016195351   0.002274503    0.0041517247   21.182435      0.047265376    18.345844    
    353000   1.856702       0.0022647516   1000000       -0.001348273    0.0030627148   0.005079813    21.179199      0.048437507    18.345848    
    354000   1.8567716     -0.00019593946  1000000       -7.4159073e-05 -0.00020809849 -0.00030556081  21.175897      0.050624371    18.340255    
    355000   1.8446406      0.0003787639   1000000       -0.0024310545   0.0020198228   0.0015475234   21.18102       0.048155931    18.366042    
    356000   1.8555297      0.0020801257   1000000        0.0018934371   0.0024693833   0.0018775567   21.178406      0.045692057    18.349559    
    357000   1.853514       0.0016783096   1000000        0.0029670666  -0.00030568159  0.0023735439   21.176937      0.04974261     18.347063    
    358000   1.8517276     -0.00053066916  1000000        0.00040661822  0.00026451451 -0.0022631402   21.177222      0.048649684    18.35112     
    359000   1.8509737      0.00011092701  1000000       -0.00023646385  0.00023028151  0.00033896338  21.186996      0.046556828    18.364117    
    360000   1.8575013      0.00089773278  1000000       -0.0015270182   0.0012522744   0.0029679422   21.196219      0.044643722    18.365462    
    361000   1.8714287      0.00095476514  1000000        0.00069625195  0.0016570771   0.00051096634  21.210687      0.047889501    18.355795    
    362000   1.8611218      0.0014783817   1000000        0.0039856002  -0.00034977962  0.00079932453  21.208155      0.046145351    18.370466    
    363000   1.8689532      0.00076124193  1000000        0.0037342668  -0.0021202221   0.00066968107  21.210783      0.044299845    18.363193    
    364000   1.8674702     -0.0012660316   1000000       -0.00018601773 -0.0028305343  -0.00078154266  21.214898      0.044132703    18.3697      
    365000   1.8653845      0.0010838034   1000000        0.0011096964   0.00098912019  0.0011525937   21.226353      0.049622908    18.378793    
    366000   1.8740413     -0.00074012036  1000000       -0.0011194963   0.0016722622  -0.0027731269   21.217332      0.04403369     18.362377    
    367000   1.8688329     -2.7199298e-05  1000000        0.00022850874  0.0005084448  -0.00081855144  21.225469      0.048625987    18.373733    
    368000   1.8663447      0.0011453074   1000000        0.00035741117  0.00165576     0.0014227511   21.217488      0.047986755    18.370124    
    369000   1.8627476      3.0021581e-05  1000000       -0.00042277625  0.0010225727  -0.0005097317   21.216427      0.048470958    18.373975    
    370000   1.8578085     -0.00072590177  1000000       -0.0021151768   0.00016803084 -0.00023055931  21.221772      0.047986166    18.387213    
    371000   1.8785126     -0.00053245228  1000000       -0.00040641084 -7.9829461e-06 -0.0011829631   21.236894      0.049143986    18.370123    
    372000   1.870768      -0.0012439062   1000000        3.6981449e-05  0.00030112983 -0.0040698299   21.231291      0.045861055    18.379418    
    373000   1.8789078      0.0012399102   1000000       -4.0462589e-06  0.0015197524   0.0022040245   21.226568      0.048546762    18.359801    
    374000   1.8680996      0.0015995163   1000000       -0.00065779082  0.0033937978   0.002062542    21.221649      0.048972782    18.370666    
    375000   1.8631801      0.00058157742  1000000        0.0013115868   0.00092650992 -0.0004933645   21.215452      0.045656321    18.375165    
    376000   1.874351       0.00055333592  1000000        6.5070381e-05  0.00038083169  0.0012141057   21.213673      0.043996393    18.358291    
    377000   1.8678806      0.00014728785  1000000        1.7966944e-06  0.00053210222 -9.2035367e-05  21.216922      0.046799639    18.368441    
    378000   1.8654525      0.00018165143  1000000       -0.00014035664 -0.00088653044  0.0015718414   21.228501      0.046354361    18.384107    
    379000   1.8489593     -0.00010161264  1000000        0.00094315506 -0.0024189691   0.0011709761   21.218561      0.049655044    18.395605    
    380000   1.8683498     -0.0013208053   1000000       -0.00095264444 -0.0017225484  -0.0012872232   21.21628       0.044998524    18.368897    
    381000   1.8711239      0.002865183    1000000        0.0042193798   0.0013608615   0.0030153079   21.214775      0.049854012    18.358376    
    382000   1.8732355      0.0019524968   1000000        0.0012749879   0.0034028375   0.0011796649   21.224913      0.046697637    18.368503    
    383000   1.8754801     -5.4385033e-05  1000000       -0.00021256078 -0.00051915873  0.00056856442  21.237391      0.04621575     18.378096    
    384000   1.8760344     -0.00019514991  1000000        0.0035476761  -0.0021485017  -0.0019846241   21.230966      0.048432919    18.368622    
    385000   1.8695316     -0.0022393242   1000000        0.00036346643 -0.0031286729  -0.0039527661   21.214483      0.04451904     18.365807    
    386000   1.8617919     -0.00053773233  1000000        0.0013912533  -0.0014739481  -0.0015305022   21.218672      0.047432897    18.378691    
    387000   1.8605508      0.00073341628  1000000        0.0019641143  -5.0459321e-05  0.00028659387  21.199492      0.053218878    18.355586    
    388000   1.8605433      0.00026966208  1000000        0.00096167615 -0.00062148036  0.00046879046  21.191499      0.046393572    18.35443     
    389000   1.8588654      5.4100625e-05  1000000       -0.0010470839   0.001942942   -0.0007335562   21.181318      0.048676052    18.344483    
    390000   1.8626818      0.00036079139  1000000       -0.0018762526   0.0030155255  -5.6898701e-05  21.188916      0.041444063    18.353589    
    391000   1.8473312      0.0022420728   1000000        0.0025426654   0.0035266205   0.00065693257  21.178773      0.053408513    18.354506    
    392000   1.8636168      0.00088814296  1000000        0.0025428671  -0.00098614334  0.0011077051   21.181472      0.04755281     18.338633    
    393000   1.8602108      0.00059220592  1000000        0.0019627456  -0.0004784858   0.00029235792  21.176258      0.044898083    18.341183    
    394000   1.8707752     -0.0015241291   1000000        0.00015288544 -0.0027228648  -0.0020024078   21.190763      0.04541235     18.339328    
    395000   1.8555938     -0.00090648651  1000000        4.8608797e-05 -0.00057475251 -0.0021933158   21.179052      0.047683973    18.348117    
    396000   1.8571735      0.00092060005  1000000        0.00015900391 -0.0008418929   0.0034446891   21.183458      0.048742374    18.349095    
    397000   1.858071       0.00055015576  1000000       -0.001142394   -0.0015808773   0.0043737387   21.190019      0.049449397    18.353603    
    398000   1.8612797     -0.0010253669   1000000       -0.0026478536  -0.001319329    0.00089108177  21.213429      0.043209686    18.378439    
    399000   1.869684       0.00058993372  1000000        0.0017123924   8.9525258e-05 -3.2116504e-05  21.223777      0.05171544     18.367676    
    400000   1.8645996      0.00064985462  1000000        0.0032549287  -0.002258183    0.00095281826  21.199305      0.045602525    18.356943    
    401000   1.8729256      0.0005570322   1000000        0.0011233291   0.00071348858 -0.00016572107  21.195753      0.045413371    18.341091    
    402000   1.8659613      0.005426237    1000000        0.0076790035   0.0037754518   0.0048242557   21.185004      0.04881808     18.337383    
    403000   1.8569302      0.0019413138   1000000        0.0031783658   0.0018900758   0.0007554998   21.192202      0.048032682    18.358913    
    404000   1.8665188     -0.00081866553  1000000        2.7676749e-05 -0.0014027481  -0.0010809253   21.200294      0.049798417    18.350857    
    405000   1.8551324      0.0033618391   1000000        0.0035480163   0.0019619764   0.0045755245   21.187155      0.045132726    18.359463    
    406000   1.8534948      0.0031766205   1000000        0.0027601071   0.0032746032   0.0034951513   21.182228      0.04831755     18.353807    
    407000   1.8784826      0.0019488852   1000000        0.002368059    0.0010330075   0.0024455891   21.192684      0.045060716    18.33004     
    408000   1.8524846      0.00010873451  1000000        0.0022183038  -0.0016336409  -0.00025845946  21.176478      0.04337111     18.354519    
    409000   1.845992       0.00070543151  1000000        0.0012587639   0.0013118917  -0.00045436112  21.175305      0.046239294    18.360216    
    410000   1.8698184      0.0022393049   1000000        0.0018977194   0.0016067651   0.0032134301   21.190358      0.045657369    18.340113    
    411000   1.8625101      1.0305868e-06  1000000       -0.00017680519 -0.00010317544  0.00028307239  21.180095      0.044601653    18.341867    
    412000   1.8681861     -0.0041792099   1000000       -0.0030074458  -0.0062466777  -0.0032835061   21.192951      0.04576371     18.345048    
    413000   1.8622547      0.00037127311  1000000        0.00071824862  0.00080238735 -0.00040681663  21.180974      0.046621801    18.34111     
    414000   1.8564727      0.0039246917   1000000        0.0059627935   0.0028046097   0.0030066719   21.16966       0.046713623    18.338377    
    415000   1.8536921      0.00067061491  1000000       -0.0029801694   0.0012752855   0.0037167286   21.173746      0.045193948    18.348153    
    416000   1.8483272      0.00016605781  1000000        0.000573415    5.9371959e-05 -0.00013461352  21.172855      0.047868931    18.352634    
    417000   1.8464415     -0.0021855357   1000000       -0.0026578739  -0.00095423387 -0.0029444994   21.167376      0.04485975     18.352992    
    418000   1.8399169      0.00090226066  1000000        0.0022225708   0.00051028253 -2.6071344e-05  21.157463      0.043832942    18.353893    
    419000   1.8340076      0.00070694509  1000000        0.0029768308   0.0024515192  -0.0033075147   21.147403      0.046616075    18.349913    
    420000   1.8485127     -0.00027535907  1000000        0.0013290667  -0.00084760472 -0.0013075392   21.159193      0.044841816    18.341721    
    421000   1.8487436      0.00046748325  1000000        0.00034472165 -0.0013185264   0.0023762545   21.159678      0.045495459    18.341206    
    422000   1.8610155      0.0017665439   1000000        0.00044955146  0.0010282238   0.0038218564   21.17924       0.044018224    18.343838    
    423000   1.8611676      0.000133414    1000000       -0.00081989654  0.0016758074  -0.00045566885  21.173092      0.045503132    18.335977    
    424000   1.855782      -0.00096409588  1000000       -0.00086634293  0.001903642   -0.0039295867   21.177755      0.044448944    18.349773    
    425000   1.845491      -0.00063386451  1000000        0.0013394678  -0.00054635215 -0.0026947092   21.167946      0.048542776    18.351305    
    426000   1.8666141      0.0013117344   1000000        0.00086853261  0.001611511    0.0014551596   21.168086      0.04368899     18.324615    
    427000   1.8646371     -0.0011013415   1000000       -0.0013920304   0.00098888542 -0.0029008796   21.174546      0.04305514     18.334675    
    428000   1.8545563      0.00087939733  1000000        0.0039275888  -0.00023410551 -0.0010552913   21.180899      0.051624275    18.34758     
    429000   1.8634059      0.0013326595   1000000        0.0031777628   0.0019985273  -0.0011783117   21.175672      0.044899975    18.335803    
    430000   1.863857      -0.00019441212  1000000       -0.0012592613  -1.7045193e-05  0.00069307015  21.183285      0.046038711    18.341601    
    431000   1.8508109      0.0016222762   1000000        0.00048151178  0.00059039574  0.0037949211   21.175919      0.046604462    18.353237    
    432000   1.8501776      0.0036977637   1000000        0.0043797952   0.00071542253  0.0059980733   21.171888      0.047144044    18.349616    
    433000   1.845084       0.0021481764   1000000        0.00059697207  0.00073222161  0.0051153355   21.16809       0.048910421    18.351692    
    434000   1.8464999      0.00080720464  1000000        0.0022331251  -6.3576662e-05  0.00025206546  21.163812      0.043181935    18.351018    
    435000   1.845745       0.0026039577   1000000        0.0025000255   0.0033774572   0.0019343904   21.166168      0.047152082    18.350536    
    436000   1.8469986      0.00074993268  1000000       -0.0007202536   0.00040497707  0.0025650746   21.173294      0.048882329    18.354052    
    437000   1.8529473      0.0003981071   1000000       -0.00065298253 -0.00017101061  0.0020183144   21.166879      0.046719671    18.340877    
    438000   1.8447411      0.0028684819   1000000        0.0016049169   0.0045685457   0.002431983    21.168804      0.04497954     18.356851    
    439000   1.8521498      0.0010206155   1000000        0.00034028357  0.001072186    0.0016493768   21.170627      0.046081401    18.34646     
    440000   1.8465554      0.0011084702   1000000        0.0025374791  -0.0033828705   0.004170802    21.176653      0.047113872    18.359844    
    441000   1.8480217     -0.0021560657   1000000       -0.0010573685  -0.0032753316  -0.0021354968   21.166982      0.04217315     18.352915    
    442000   1.8339124      0.00051730044  1000000       -0.0026188426   0.0029697106   0.0012010333   21.159872      0.047176051    18.361965    
    443000   1.8480125      0.0011462983   1000000       -0.00045755721  0.00092219827  0.0029742538   21.173317      0.043135991    18.358301    
    444000   1.8524411      0.0014577067   1000000        0.0038360473   0.0012294532  -0.00069238039  21.164166      0.04008893     18.345554    
    445000   1.8496207      0.0016362505   1000000        0.0012041658   0.0028999451   0.00080464047  21.180984      0.047152985    18.359539    
    446000   1.8539321      0.0028886102   1000000        0.0017606119   0.0014627206   0.005442498    21.185758      0.044391222    18.360608    
    447000   1.8453667      1.5334741e-06  1000000        0.0028623414  -0.0025902333  -0.00026750777  21.174597      0.04824806     18.358437    
    448000   1.8412395      0.00027685128  1000000        0.002726352   -0.0017494845  -0.0001463137   21.165567      0.049164205    18.354682    
    449000   1.8500383      0.0015626623   1000000        0.0017041918   0.0016118784   0.0013719167   21.165946      0.045123282    18.345904    
    450000   1.8483764     -0.0035750111   1000000       -0.0038173336  -0.0025452846  -0.0043624151   21.166366      0.044636708    18.349303    
    451000   1.8404845     -0.003030152    1000000       -0.0023799534  -0.0013313894  -0.0053791131   21.158283      0.045889578    18.351805    
    452000   1.8404754      0.0015500497   1000000        0.0017109883   0.0015662808   0.0013728801   21.154724      0.043936831    18.350212    
    453000   1.8493836     -0.0013465712   1000000       -0.002841147    0.0014900537  -0.0026886202   21.179         0.041451322    18.363612    
    454000   1.8479899      0.0010853199   1000000        0.00067092843  0.0026674647  -8.2433452e-05  21.175696      0.050112197    18.353737    
    455000   1.8539464      0.0016971337   1000000        0.0027374531   0.00053510897  0.0018188391   21.186275      0.050381785    18.355112    
    456000   1.8582462     -0.00063121252  1000000       -0.00322647    -0.00061628841  0.0019491208   21.17905       0.044812333    18.347008    
    457000   1.8653551     -0.0011583949   1000000       -0.0036782434  -0.0002114628   0.00041452156  21.185542      0.045201311    18.342447    
    458000   1.8574493      0.0013904592   1000000       -0.00019084871  0.00015122114  0.0042110053   21.174314      0.045617412    18.342661    
    459000   1.8391964      0.00077727963  1000000        3.7399006e-05  0.0015132541   0.0007811858   21.158574      0.046211598    18.353705    
    460000   1.8424829      0.00080789036  1000000        0.00067742351 -0.00046512609  0.0022113737   21.15643       0.045477524    18.347366    
    461000   1.8509538      0.0031571294   1000000        0.0010200044   0.0041441993   0.0043071846   21.166698      0.046347887    18.344058    
    462000   1.8588713      0.00074837754  1000000       -0.0010965034   0.0026404868   0.00070114914  21.175709      0.04667981     18.340861    
    463000   1.8568541     -1.570153e-05   1000000        0.0014820526  -0.00022255256 -0.0013066047   21.197924      0.046608967    18.366173    
    464000   1.8774034      0.0011964101   1000000       -0.00018069192  0.0014597756   0.0023101465   21.210526      0.04587283     18.348689    
    465000   1.8614421      0.00083100568  1000000       -0.0006325411   0.0012308365   0.0018947217   21.204738      0.045696841    18.367018    
    466000   1.8546986      0.00095740137  1000000       -0.00087932462  0.0014532031   0.0022983257   21.185918      0.051662099    18.352347    
    467000   1.8646454      0.0008235262   1000000        0.0017285336  -0.00089916996  0.0016412149   21.185481      0.046214174    18.342439    
    468000   1.8761458      0.0036271477   1000000        0.0071138256   0.0025129937   0.0012546239   21.198015      0.051492982    18.332444    
    469000   1.8651796     -0.001044293    1000000       -0.0038831368   0.00027947211  0.00047078554  21.196319      0.045734071    18.352955    
    470000   1.8538749     -0.00074783763  1000000       -0.0026146264   0.00033150497  3.9608537e-05  21.179494      0.050071827    18.348749    
    471000   1.8616628      0.0031029149   1000000        0.0013648541   0.0052877316   0.0026561589   21.185501      0.047811013    18.345335    
    472000   1.8546687      0.0017832746   1000000       -0.00010520116  0.0021363066   0.0033187183   21.191901      0.044161015    18.365876    
    473000   1.860101      -0.00048487081  1000000       -0.0013411146   0.0026949455  -0.0028084433   21.206317      0.04794653     18.368358    
    474000   1.8745549      8.2948197e-06  1000000        0.001612614    0.0020261093  -0.0036138389   21.212858      0.044024558    18.357142    
    475000   1.8658476      0.0035245088   1000000        0.0016615548   0.0052687151   0.0036432564   21.210002      0.049402773    18.361967    
    476000   1.8636912      0.0023098141   1000000        0.0037478462   0.00065705821  0.0025245378   21.200039      0.045287244    18.359354    
    477000   1.8654759      0.0010225842   1000000        0.0004140291   0.0019847606   0.00066896282  21.194999      0.045398989    18.351526    
    478000   1.8532497      0.00038763757  1000000       -0.0022636051   0.0026856037   0.00074091416  21.193886      0.048751768    18.365399    
    479000   1.864846      -0.00031229218  1000000       -0.00080800208  0.00046037868 -0.00058925314  21.211541      0.044610567    18.369802    
    480000   1.8577278     -0.0038106089   1000000       -0.004947762   -0.0040630648  -0.0024209999   21.208131      0.044025914    18.377652    
    481000   1.8647808      0.0012368145   1000000        0.0001511114  -0.001242371    0.004801703    21.204594      0.047227692    18.360335    
    482000   1.8702277      0.0025411266   1000000        0.0034528279   0.0021969886   0.0019735632   21.185224      0.044436653    18.335586    
    483000   1.8460728      0.0019550735   1000000        0.0033193344   0.0010450192   0.0015008669   21.173126      0.046831162    18.357324    
    484000   1.8540516     -0.0010869779   1000000       -0.00089015409 -5.4575178e-05 -0.0023162045   21.17075       0.045340671    18.344471    
    485000   1.8504438      0.0033082396   1000000        0.0029379316   0.0033119724   0.0036748146   21.167532      0.044399055    18.347606    
    486000   1.8421261      0.0043963813   1000000        0.0037598004   0.0051139195   0.004315424    21.165775      0.046881285    18.355843    
    487000   1.835889      -0.0010042223   1000000       -0.0010131539  -0.00034756778 -0.0016519453   21.15472       0.042684746    18.35834     
    488000   1.8371943     -0.00057543224  1000000       -0.0024385404   0.0017200586  -0.001007815    21.162145      0.048111142    18.35838     
    489000   1.8499752      0.0011726884   1000000        0.00093598853 -0.00096011293  0.0035421895   21.152452      0.044431329    18.333197    
    490000   1.8395607      0.0014972581   1000000        0.00252233    -0.00093291718  0.0029023614   21.140195      0.049023025    18.331969    
    491000   1.8351983      0.0026800567   1000000        0.0049092991   0.00049448645  0.0026363845   21.142447      0.046765039    18.343023    
    492000   1.8482593      0.0012790181   1000000        0.00017304162  0.0013297959   0.0023342169   21.155104      0.0432546      18.339599    
    493000   1.84088        0.00033585286  1000000        0.00034295038  0.0025877657  -0.0019231575   21.159486      0.047987205    18.350317    
    494000   1.8474813     -0.00046140112  1000000        3.6484942e-05 -0.0011067934  -0.00031389494  21.16883       0.046765438    18.350982    
    495000   1.854831      -0.0011998172   1000000       -0.0021543317   5.3305894e-05 -0.0014984257   21.17773       0.044286557    18.351336    
    496000   1.856738      -0.0019081156   1000000       -0.0013883091  -0.0029811155  -0.0013549222   21.196477      0.048293408    18.363216    
    497000   1.8565948      0.0015156697   1000000        0.0012642211   0.0010892518   0.0021935363   21.182979      0.042403708    18.355823    
    498000   1.8458152      0.0003611299   1000000       -0.0011166419   0.0026965656  -0.000496534    21.168166      0.048452784    18.351129    
    499000   1.8439149     -0.00047824808  1000000        0.00050312727 -0.00076609823 -0.0011717733   21.175717      0.049265153    18.360718    
    500000   1.8430684     -0.0012577354   1000000       -0.00064420074 -0.0027103333  -0.00041867209  21.178591      0.049262098    18.364865    
    501000   1.8573657      0.00074790042  1000000        0.00046154546  0.0023092593  -0.0005271035   21.187374      0.04662133     18.354843    
    502000   1.8495936      0.00073182053  1000000       -0.0003585026   0.0023968127   0.0001571515   21.174134      0.048457897    18.351425    
    503000   1.847482      -0.0029672054   1000000       -0.0036619292  -0.0044703829  -0.00076930397  21.170408      0.044258885    18.355065    
    504000   1.8372118      0.0010416449   1000000       -0.0026105665   0.0014652375   0.0042702638   21.156954      0.046178327    18.355095    
    505000   1.8427675     -0.00035140779  1000000       -0.00037987709 -0.00051497343 -0.00015937286  21.148547      0.046807267    18.337727    
    506000   1.8334918     -0.0025969422   1000000       -0.0056994058   0.00086617863 -0.0029575995   21.143169      0.049132657    18.343936    
    507000   1.8346768     -0.00075636015  1000000       -0.0022866162   0.0014120271  -0.0013944914   21.154083      0.046259252    18.355947    
    508000   1.8403467      0.0034315906   1000000        0.0029615319   0.0063918756   0.00094136429  21.159261      0.04653389     18.352345    
    509000   1.8423834     -0.00034529051  1000000       -0.00037251104  0.00058429242 -0.0012476529   21.158382      0.045064834    18.34988     
    510000   1.8418799      0.00071078253  1000000        0.0019952612   0.0021995504  -0.0020624639   21.16325       0.046939375    18.353628    
    511000   1.8588087      0.0023869414   1000000        0.0016509417   0.0042198361   0.0012900464   21.186442      0.048036845    18.350332    
    512000   1.8451778      0.00078455179  1000000        0.00069016686  0.00093968447  0.00072380403  21.177078      0.048387198    18.361062    
    513000   1.856158       0.00030331075  1000000        0.00098703734  0.0012724519  -0.0013495569   21.169767      0.045443343    18.340225    
    514000   1.849232       0.00086097817  1000000        0.00067065497  0.00093376709  0.00097851245  21.170569      0.047170952    18.349689    
    515000   1.8579158     -0.0023619101   1000000       -0.0044031395  -0.0031188809   0.00043629006  21.191875      0.0447286      18.360412    
    516000   1.8647029      0.00053380543  1000000       -0.0012925232   0.0017984959   0.0010954436   21.187764      0.047718294    18.343131    
    517000   1.8620726      0.00073041845  1000000       -0.0011807702  -0.00088710273  0.0042591283   21.18724       0.046471898    18.347799    
    518000   1.8564498     -0.0010969056   1000000       -0.0058586424  -0.0011166738   0.0036845995   21.187769      0.041151371    18.362082    
    519000   1.8706375      0.00040367885  1000000       -0.0024182417   0.0020768876   0.0015523907   21.195899      0.04754353     18.34254     
    520000   1.8532636     -0.0011849869   1000000       -0.0030132719  -0.0011614435   0.00061975478  21.183961      0.043034379    18.36117     
    521000   1.8584457     -0.0012570329   1000000       -0.0032488507  -0.0002658149  -0.00025643317  21.180468      0.046139753    18.346799    
    522000   1.8608392      0.00088978966  1000000        0.0011991698   0.000962249    0.00050795019  21.178099      0.043663332    18.343316    
    523000   1.8425668      0.0030639196   1000000        0.0036444097   0.0025440609   0.003003288    21.167205      0.045429631    18.358063    
    524000   1.8373345     -0.0011442333   1000000       -0.00034871906  0.00112591    -0.0042098907   21.172405      0.044347215    18.372193    
    525000   1.8359821     -0.00075277775  1000000       -0.00045670095 -0.00062828589 -0.0011733464   21.164576      0.047872214    18.362869    
    526000   1.8588259      0.0033493006   1000000        0.0063728743   0.0025917695   0.001083258    21.177802      0.046202513    18.3435      
    527000   1.8456418      0.0013939675   1000000        0.0011377678   0.0023746234   0.00066951126  21.163536      0.043658236    18.351554    
    528000   1.844917      -0.00043244406  1000000        0.00013352268 -0.00034391975 -0.0010869351   21.165121      0.045876063    18.352008    
    529000   1.8460533     -0.00083278897  1000000       -0.0004796834  -0.0022953648   0.00027668126  21.17624       0.042914413    18.364384    
    530000   1.8625245     -0.0003733316   1000000        0.0016786312  -0.0025237214  -0.00027490454  21.187883      0.045670556    18.348565    
    531000   1.8661463      0.00052942516  1000000       -7.8087655e-05  0.00020017777  0.0014661854   21.193944      0.046319144    18.348546    
    532000   1.8432553     -0.00085111676  1000000       -0.0024882805   0.0023072657  -0.0023723355   21.180142      0.047357029    18.36804     
    533000   1.8417154     -0.0031388051   1000000       -0.0044833251  -0.0012480619  -0.0036850283   21.184582      0.046676064    18.375471    
    534000   1.8592067     -0.00016727075  1000000        0.0018380747  -0.0022047276  -0.00013515938  21.195937      0.048470073    18.358796    
    535000   1.8689377      0.0034692628   1000000        0.0023269111   0.0042067364   0.0038741409   21.210804      0.046755409    18.360783    
    536000   1.862077      -0.00098454634  1000000       -0.0021318433   0.00080285299 -0.0016246488   21.212097      0.046251304    18.37287     
    537000   1.8643531     -0.001712507    1000000       -0.004168189   -0.0009865644   1.7232269e-05  21.202208      0.046540058    18.359278    
    538000   1.8534464     -0.00070426489  1000000       -0.002766586    0.0012283703  -0.00057457895  21.191026      0.044783875    18.366211    
    539000   1.8565552     -0.00011428059  1000000        0.00092308996  0.0008555488  -0.0021214805   21.189385      0.043151891    18.36154     
    540000   1.8541671      0.0002679133   1000000       -0.00033731106  3.5869486e-05  0.0011051815   21.18077       0.046069867    18.353589    
    541000   1.8556594      0.0012243858   1000000        0.0020483116   0.00079680972  0.00082803614  21.170727      0.045766221    18.34161     
    542000   1.8582628      0.00040662401  1000000        0.0030157229  -0.00017023438 -0.0016256165   21.172306      0.042089885    18.342962    
    543000   1.8451794     -0.00029883551  1000000        0.0012901238  -0.0023706318   0.00018400144  21.166895      0.044138786    18.355126    
    544000   1.8366459      0.00052433613  1000000       -0.00033008554  0.0010590528   0.00084404108  21.158488      0.051858501    18.351799    
    545000   1.8437374     -0.002789236    1000000       -0.0036331676  -0.0016517312  -0.0030828091   21.170479      0.043140395    18.361871    
    546000   1.8380852      0.001104437    1000000       -0.001136054    0.00094598442  0.0035033807   21.148686      0.045622324    18.346074    
    547000   1.8456779      0.0024413311   1000000        0.0027668184   0.0021078092   0.0024493658   21.169503      0.046374634    18.35475     
    548000   1.8606755      0.0013153783   1000000        0.00049761942  0.0027449063   0.00070360931  21.176644      0.050634768    18.335136    
    549000   1.847061      -0.0009191709   1000000       -0.0016058234  -0.00069220765 -0.00045948169  21.175976      0.049964441    18.355558    
    550000   1.8553608     -0.0019994731   1000000       -0.0017534889  -0.0033384888  -0.00090644139  21.175651      0.047481348    18.345267    
    551000   1.8583243     -0.0015520815   1000000       -0.00013321685 -0.0004940995  -0.0040289283   21.170344      0.045018814    18.337978    
    552000   1.8670823     -0.0027962175   1000000       -0.0024922776  -0.0033724153  -0.0025239596   21.179654      0.040182073    18.338989    
    553000   1.8669775     -0.0022469141   1000000       -0.0016954135  -0.0037367726  -0.0013085563   21.188094      0.046571366    18.341196    
    554000   1.8684448      0.0010400357   1000000        0.00099842578  0.00071607233  0.0014056091   21.18924       0.049453185    18.337259    
    555000   1.8662364     -0.00034572397  1000000       -0.0030423452   0.0021317787  -0.00012660536  21.185726      0.050408778    18.336103    
    556000   1.8484152     -0.0033318584   1000000       -0.0047490798  -0.0032142806  -0.0020322148   21.167132      0.046488652    18.348159    
    557000   1.8477863      0.00075792683  1000000        0.0043253113  -0.00033668163 -0.0017148492   21.170785      0.049126942    18.350117    
    558000   1.8489634      0.00037358268  1000000        0.0011099906  -4.4098804e-06  1.5167336e-05  21.183548      0.046605971    18.363636    
    559000   1.8642763      1.0085745e-05  1000000       -0.0015826201   0.00059653402  0.0010163433   21.182107      0.045024344    18.340808    
    560000   1.8688269      0.0020456995   1000000        0.0026440106   0.0021803616   0.0013127264   21.19287       0.044814664    18.344955    
    561000   1.8606757     -0.0014024873   1000000       -0.001018401   -0.000800237   -0.0023888237   21.185061      0.041818418    18.352369    
    562000   1.8614272      0.0015873839   1000000        0.0022763616   0.0018089886   0.00067680141  21.182338      0.047629005    18.342708    
    563000   1.8596906      0.0012710951   1000000        0.0034182731   0.0020289195  -0.0016339074   21.181526      0.046787476    18.345342    
    564000   1.8520303     -0.000328019    1000000        0.0012786942  -0.00097015335 -0.0012925978   21.169108      0.046024566    18.345177    
    565000   1.8451404     -0.00086039104  1000000        0.0015652029  -0.0058108783   0.0016645023   21.160912      0.045663238    18.347677    
    566000   1.8375948     -0.00071494533  1000000       -0.0030771191  -0.00040568315  0.0013379662   21.160372      0.046065042    18.358053    
    567000   1.84461        0.0023730622   1000000        0.0030486546   0.00068158228  0.0033889497   21.160346      0.044396751    18.349173    
    568000   1.8403605      0.0020398596   1000000        0.0013743988   0.0029549449   0.0017902351   21.154605      0.047419479    18.346783    
    569000   1.8433032      0.00031252298  1000000        0.0001640218   0.0011033572  -0.00032981004  21.17891       0.045658591    18.368435    
    570000   1.8437534      4.1765803e-05  1000000       -0.0030019731   0.0013067234   0.0018205471   21.172617      0.045812352    18.361313    
    571000   1.8544522      0.0039186815   1000000        0.0036638717   0.0028223592   0.0052698136   21.171274      0.045506603    18.344228    
    572000   1.8442583      0.0013233737   1000000        0.001396457    0.00011833017  0.0024553339   21.173385      0.043988236    18.363148    
    573000   1.8506338      0.00029909768  1000000        0.0042208904  -0.0014112195  -0.0019123778   21.17076       0.047257582    18.347691    
    574000   1.8515962      0.002129467    1000000        0.0025121885   0.0024554747   0.0014207378   21.174108      0.047455536    18.349397    
    575000   1.8373569      0.00151633     1000000       -0.0014400988   0.0035541591   0.0024349297   21.163115      0.045236409    18.361981    
    576000   1.8568791      0.0018100929   1000000        0.00067521713  0.0025032843   0.0022517773   21.178697      0.045146959    18.348371    
    577000   1.8626967      0.0052597588   1000000        0.0050298117   0.0059641444   0.0047853204   21.170454      0.049881136    18.326668    
    578000   1.8463842      0.00099197746  1000000        0.0024889894   0.0021644742  -0.0016775311   21.163867      0.04731701     18.347113    
    579000   1.8319507      0.0003408868   1000000       -0.00059571279  0.0012073191   0.00041105407  21.154381      0.04804251     18.358549    
    580000   1.8503072      0.0007146595   1000000        0.0014865513   0.00067023108 -1.2803862e-05  21.161101      0.04312413     18.342655    
    581000   1.8484122      0.0033198243   1000000        0.0025237292   0.0039715359   0.0034642077   21.17136       0.044048209    18.354832    
    582000   1.8365564     -0.0021409229   1000000       -0.0018223185  -0.003545717   -0.0010547331   21.147983      0.042193174    18.351093    
    583000   1.82939       -0.00058005698  1000000       -0.0020763528  -0.0014324119   0.0017685938   21.149394      0.046845752    18.358601    
    584000   1.8417993      0.0005794001   1000000       -0.0025585579   0.0039143039   0.00038245431  21.152384      0.045134982    18.344688    
    585000   1.8323531      0.0017769468   1000000        0.00059341115  0.005008884   -0.00027145479  21.157012      0.047454108    18.361166    
    586000   1.8455761     -0.00030212206  1000000        0.0010866261  -0.0012554581  -0.00073753414  21.168949      0.043316189    18.357407    
    587000   1.8382108     -0.0020051615   1000000       -1.7753513e-05 -0.0014213303  -0.0045764005   21.154533      0.045111347    18.352244    
    588000   1.8289849     -0.0020672727   1000000       -0.0018930469  -0.00045043665 -0.0038583344   21.147954      0.042030903    18.362583    
    589000   1.8345342      4.2350133e-05  1000000       -0.0012623882  -0.0011604102   0.0025498488   21.154933      0.043100367    18.360169    
    590000   1.840526       0.00048605814  1000000       -0.00011857514  0.001561478    1.5271564e-05  21.166039      0.04416902     18.361219    
    591000   1.8392113      0.00093613976  1000000        0.00084015323  0.0032880186  -0.0013197525   21.15668       0.045272254    18.352729    
    592000   1.841205       0.0029885239   1000000        0.0016746011   0.0051959077   0.002095063    21.16661       0.046940911    18.358       
    593000   1.8504688      0.0044849975   1000000        0.0047760816   0.0028731994   0.0058057115   21.166671      0.044360306    18.346747    
    594000   1.84622        1.750706e-05   1000000       -0.00083921403  0.00075014048  0.00014159473  21.174651      0.046463466    18.358996    
    595000   1.8538278     -3.954754e-05   1000000        0.001257515    0.00042168629 -0.0017978439   21.180216      0.044305995    18.355307    
    596000   1.8517319     -0.00045533838  1000000        7.3080137e-05 -0.0021234689   0.00068437366  21.177192      0.04955498     18.350178    
    597000   1.8582655      0.0014465234   1000000        0.00097005629  0.0016175958   0.0017519182   21.170942      0.047317313    18.336365    
    598000   1.8456913     -0.00040613346  1000000       -0.0029785509   0.0015733697   0.00018678082  21.179026      0.05057144     18.360056    
    599000   1.8432474      0.0016525005   1000000        0.0026522462  -6.5424955e-05  0.0023706803   21.179313      0.047641219    18.366939    
    600000   1.862504      -0.00033076335  1000000       -0.00025077512 -0.00040345849 -0.00033805646  21.174476      0.043696125    18.337164    
    601000   1.8507255      0.00036360942  1000000       -0.00086725522  0.0021453929  -0.00018730939  21.172551      0.043911406    18.352691    
    602000   1.8652625     -0.00024138373  1000000       -0.00044952734  4.9860634e-05 -0.00032448449  21.181703      0.043228493    18.340721    
    603000   1.8414349     -0.00060155803  1000000        0.0010967603  -0.0031187713   0.00021733695  21.161452      0.042787453    18.356651    
    604000   1.8449511     -0.00093343657  1000000       -0.0027801181   0.0015744542  -0.0015946458   21.160895      0.046517988    18.347089    
    605000   1.8560217      0.00064540526  1000000        0.00039879142  0.00060449881  0.00093292554  21.183491      0.046625207    18.352973    
    606000   1.8543941      0.0013375477   1000000        0.0027766013  -0.00024337387  0.0014794156   21.166707      0.048425876    18.336829    
    607000   1.8485166      0.0020513345   1000000        0.0018880982   0.00022058251  0.0040453228   21.154609      0.043995812    18.337977    
    608000   1.8556777      0.0011718331   1000000       -0.00067056236  0.0030329688   0.0011530928   21.16028       0.047571914    18.32933     
    609000   1.8464141      0.0011503205   1000000        0.00058228781  0.003704375   -0.00083570125  21.159152      0.047601379    18.342068    
    610000   1.8401018      0.00034412932  1000000       -0.0016063028   0.0027103669  -7.1676134e-05  21.151372      0.046697832    18.34466     
    611000   1.8372156     -0.00081045213  1000000       -0.0019222756   0.00018844305 -0.00069752387  21.150425      0.04554585     18.349194    
    612000   1.8304418      0.0026133816   1000000        0.0004215451   0.0029054969   0.0045131027   21.130299      0.049530298    18.335244    
    613000   1.8390027      0.0030091205   1000000        0.0040173688   0.0010914901   0.0039185026   21.146648      0.04767214     18.34061     
    614000   1.8486125      0.00189266     1000000        0.00017580888  0.0017656941   0.0037364768   21.157154      0.047953751    18.33642     
    615000   1.8377184      0.0020178581   1000000       -0.0019042971   0.0050054875   0.0029523838   21.153898      0.046365672    18.351092    
    616000   1.8498547     -0.0002235341   1000000        0.00040951954 -0.00016214697 -0.00091797488  21.153513      0.044754158    18.334116    
    617000   1.8415224     -0.00075760361  1000000        0.0013841671  -0.0012175512  -0.0024394268   21.152574      0.046702754    18.343726    
    618000   1.8443706      0.00021541953  1000000       -0.00063882503  0.00055781796  0.00072726565  21.15181       0.047704962    18.337688    
    619000   1.8390436      0.0011481103   1000000        0.003633554    0.001405986   -0.0015952091   21.137227      0.046911112    18.331888    
    620000   1.833129       0.0022985967   1000000        0.00087806152  0.0046836569   0.0013340718   21.12676       0.050186925    18.327017    
    621000   1.8358601      0.0045088654   1000000        0.0041941049   0.0027911427   0.0065413486   21.137947      0.047896687    18.336398    
    622000   1.8378244      0.0036206626   1000000        0.0048371793  -0.00015701748  0.0061818259   21.142095      0.046661556    18.338834    
    623000   1.8455062     -4.2427039e-05  1000000       -0.00037590986 -0.0021577703   0.0024063991   21.137273      0.044987751    18.324164    
    624000   1.8339741      0.00066822815  1000000        0.00012676744  0.002903186   -0.001025269    21.130845      0.045404246    18.334617    
    625000   1.8289043      0.0012254303   1000000        0.0011028174   0.002964644   -0.00039117033  21.131267      0.047870211    18.340177    
    626000   1.8341207      0.0022032457   1000000        0.0034284348   0.00043422044  0.0027470819   21.140714      0.050445297    18.339226    
    627000   1.8265841      0.001536437    1000000        0.0021195115  -0.00061289259  0.0031026919   21.117434      0.04340264     18.334292    
    628000   1.827146       0.0025274147   1000000        0.0021029384   0.0032488613   0.0022304444   21.124872      0.047727808    18.336562    
    629000   1.8356061      0.00070456894  1000000       -1.4848641e-05  0.0018344611   0.00029409434  21.116073      0.046195529    18.316606    
    630000   1.8415646     -0.00012693177  1000000        0.0024258296  -0.00074294136 -0.0020636836   21.131507      0.04504479     18.324253    
    631000   1.8225872      0.0013440475   1000000        0.0023549634   0.0014817844   0.00019539481  21.120578      0.047310102    18.339524    
    632000   1.8252763      0.0022493333   1000000        0.0044107119  -0.00064644348  0.0029837315   21.133276      0.046191878    18.349306    
    633000   1.8310606     -3.5441838e-05  1000000        7.2273579e-06  0.00078280988 -0.00089636276  21.13252       0.044668747    18.341398    
    634000   1.8295746     -0.00030609544  1000000        0.0016442004  -0.00163266    -0.00092982673  21.125687      0.045103437    18.336359    
    635000   1.820541       0.0026975213   1000000        0.0050251298   0.0009188359   0.0021485981   21.12003       0.046096039    18.343259    
    636000   1.8321206      0.0024201566   1000000        0.0021365404   0.0056079278  -0.00048399848  21.127496      0.041815798    18.337637    
    637000   1.8372862      0.0023917136   1000000        0.0060956341   0.0022152322  -0.0011357255   21.143924      0.044255855    18.343877    
    638000   1.8316261      0.00086457557  1000000        0.0014695948   0.0041212058  -0.0029970739   21.147567      0.045068486    18.355196    
    639000   1.8357652      0.00085742105  1000000        0.0013783696   0.00086140802  0.00033248552  21.149134      0.050024398    18.3456      
    640000   1.8399495      0.0010041611   1000000        0.0032767648  -0.00058481721  0.00032053586  21.150621      0.04737728     18.343458    
    641000   1.8270109      0.00057774813  1000000        0.0034199641  -0.0013055575  -0.00038116218  21.142656      0.042381665    18.359895    
    642000   1.8348483      0.0010340835   1000000       -0.00015368409  0.0030622241   0.00019371051  21.136749      0.043909458    18.340704    
    643000   1.8291998      0.0027008226   1000000        0.0030723533   0.0016840007   0.0033461137   21.12411       0.046287815    18.334159    
    644000   1.8209323     -0.0038667189   1000000       -0.0054555215  -0.0055511507  -0.00059348447  21.135514      0.045063544    18.359189    
    645000   1.8380096     -0.0015967788   1000000        0.00062320266 -0.0016014261  -0.0038121129   21.14255       0.047129939    18.338543    
    646000   1.8359293     -0.00050811356  1000000        0.00029158858 -0.00053781754 -0.0012781117   21.123017      0.044370782    18.32489     
    647000   1.8278762      0.00060349822  1000000       -0.00062227147  1.0735967e-05  0.0024220302   21.110429      0.044610549    18.324141    
    648000   1.8393043     -0.001730484    1000000       -0.0032795703  -0.001125223   -0.0007866586   21.122994      0.04672312     18.317452    
    649000   1.8254916     -0.00054630648  1000000       -0.002860419    0.001116316    0.00010518356  21.118495      0.049484136    18.330911    
    650000   1.8398832     -7.8565969e-05  1000000       -0.00077006907  0.0019216495  -0.0013872784   21.135003      0.0465484      18.328768    
    651000   1.8316366     -0.0016048672   1000000       -0.0025792694  -0.0008340858  -0.0014012464   21.130037      0.043052423    18.339667    
    652000   1.8305243      0.00044081274  1000000       -0.00079667786  0.00034870728  0.0017704088   21.136053      0.048508545    18.341896    
    653000   1.834754       6.5456821e-05  1000000       -0.002452724    0.00086585799  0.0017832365   21.134141      0.042583971    18.339563    
    654000   1.8197219      0.0019722865   1000000        0.0025764586   0.0016125229   0.001727878    21.115222      0.049574248    18.336201    
    655000   1.8336007      0.002444404    1000000        0.0006190308   0.0054308177   0.0012833635   21.127491      0.045251975    18.331976    
    656000   1.8318443     -0.00072293875  1000000       -0.00022060349 -0.0011896548  -0.00075855791  21.129744      0.041259215    18.340856    
    657000   1.8387915     -0.00025458635  1000000       -0.0014444505   0.0019432717  -0.0012625803   21.134467      0.046780397    18.329638    
    658000   1.8368638     -0.00065146089  1000000       -0.0010588308  -0.00084506848 -5.0483427e-05  21.13737       0.045005084    18.337207    
    659000   1.8354225      0.0014569841   1000000        0.0016749029   0.0018927899   0.00080325937  21.151064      0.049712593    18.348355    
    660000   1.8330232      0.0016059194   1000000        0.0021453197   0.0020774913   0.00059494729  21.154633      0.044812429    18.360424    
    661000   1.8418934      0.0018405229   1000000        0.0032805126   0.0011524738   0.0010885822   21.159586      0.048381297    18.348503    
    662000   1.8385274      0.00046155589  1000000        0.0021676234  -0.0012769719   0.00049401616  21.147158      0.046788266    18.342717    
    663000   1.835715      -0.0033359018   1000000       -0.0060894269  -0.0010541098  -0.0028641687   21.147401      0.04309        18.350876    
    664000   1.8316364      0.0014279182   1000000        0.0016027873   0.00082393628  0.001857031    21.1366        0.047903744    18.341379    
    665000   1.8383012      0.0004413203   1000000        0.0010224247   0.00043016471 -0.00012862851  21.138589      0.0446863      18.336588    
    666000   1.8327995     -0.00067291627  1000000       -0.0013470077  -0.001006454    0.0003347129   21.143264      0.043806811    18.350396    
    667000   1.8434159      2.7511199e-05  1000000       -0.0022062819   0.0015046437   0.00078417187  21.148834      0.043852464    18.339996    
    668000   1.8296455      0.0013332162   1000000       -4.2247003e-05 -0.00042942714  0.0044713227   21.140271      0.042797297    18.353142    
    669000   1.8401322     -0.0010625239   1000000       -0.0021830142  -0.0019902539   0.00098569645  21.148606      0.045070127    18.343476    
    670000   1.839179      -0.00074026788  1000000        2.0347332e-05 -0.0005454073  -0.0016957437   21.151511      0.042034588    18.350846    
    671000   1.8377184     -0.002071614    1000000       -0.0041462808  -0.0025085812   0.00044001989  21.147587      0.043139772    18.348007    
    672000   1.8341638     -0.00089598298  1000000       -0.0021516489   0.00094218885 -0.0014784889   21.145691      0.047443443    18.347139    
    673000   1.8351894     -0.0011039703   1000000       -0.0010124681  -0.0034867969   0.0011873542   21.141216      0.043633481    18.344936    
    674000   1.8177775     -0.00077727891  1000000       -0.001556745   -0.0011623613   0.00038726947  21.142286      0.043302039    18.372454    
    675000   1.8358917      0.00054729336  1000000        0.00130869    -0.00027039796  0.00060358806  21.150871      0.047157015    18.350014    
    676000   1.8356312      0.0037914138   1000000        0.0043343456   0.0028446034   0.0041952923   21.149041      0.049832511    18.3459      
    677000   1.8396974      0.0011615103   1000000        0.00080708442  0.0021153396   0.0005621069   21.168803      0.046025693    18.363369    
    678000   1.848125       0.0010121095   1000000       -0.00066545078  0.0022265576   0.0014752217   21.172164      0.044940608    18.355175    
    679000   1.8460579     -0.0010235837   1000000       -0.001901837   -0.0019196749   0.00075076078  21.17561       0.047503019    18.359158    
    680000   1.8527888      0.00086088743  1000000        0.00018848034  0.0015574055   0.00083677643  21.181509      0.049517745    18.352947    
    681000   1.848564       0.0018919383   1000000        0.0028974248   0.0033033552  -0.00052496513  21.177971      0.042712487    18.362551    
    682000   1.8502152      0.0017059662   1000000        0.00086509847  0.0028170832   0.0014357169   21.167791      0.044259037    18.348348    
    683000   1.8466248      0.0029786218   1000000        0.0032220434   0.0032527968   0.0024610252   21.174155      0.043488522    18.360867    
    684000   1.846814       0.00044820528  1000000        0.0024780627   0.00041100565 -0.0015444525   21.171259      0.046549413    18.354627    
    685000   1.8437799      0.0041217965   1000000        0.002242707    0.0055937361   0.0045289464   21.16003       0.046434326    18.348064    
    686000   1.8446272      0.0038634135   1000000        0.0018883843   0.0037133334   0.0059885228   21.163003      0.044249151    18.351952    
    687000   1.8425022     -0.0024098786   1000000       -0.0043206295  -0.00045419577 -0.0024548106   21.170456      0.04504187     18.361799    
    688000   1.8516745     -0.0017906677   1000000       -0.0029233766  -0.00064019841 -0.001808428    21.168401      0.049598469    18.341429    
    689000   1.8483912      0.00059043098  1000000       -0.00037830896 -0.0010615068   0.0032111087   21.168267      0.047443561    18.348375    
    690000   1.8498955      0.0024796291   1000000       -0.001237187    0.0036688201   0.0050072543   21.172619      0.052357124    18.345558    
    691000   1.8466548      0.0013235599   1000000        0.0030692022   0.0004247426   0.00047673502  21.169037      0.049923066    18.34927     
    692000   1.8529072      0.00096664827  1000000        0.0038331109  -0.002356658    0.0014234919   21.169767      0.047024599    18.343521    
    693000   1.8532638      0.00098194214  1000000        0.002719682    0.00092633245 -0.00070018802  21.170135      0.045717841    18.344661    
    694000   1.8433982      0.003924216    1000000        0.0058213377   0.0037533478   0.0021979626   21.149733      0.04769483     18.337079    
    695000   1.846137       0.0014101297   1000000        0.0027996542   0.00042931725  0.0010014176   21.148759      0.047619936    18.332072    
    696000   1.840393       0.002768327    1000000        0.0020306113   0.0032844261   0.0029899437   21.141614      0.050767817    18.330395    
    697000   1.850469       0.0013309828   1000000        0.0031039142  -0.0021699797   0.0030590139   21.146015      0.045827888    18.324623    
    698000   1.8482565     -0.00042585652  1000000        0.00092517594 -0.0019830077  -0.00021973776  21.141913      0.044381508    18.325285    
    699000   1.8399305     -0.0030337716   1000000       -0.0033836499  -0.002154717   -0.0035629477   21.141589      0.038858378    18.342973    
    700000   1.8587435     -0.0015445434   1000000       -0.0024216664  -0.0002816623  -0.0019303015   21.157176      0.046029205    18.323171    
    701000   1.8368479      0.0017145962   1000000       -0.0010708604   0.0028271753   0.0033874735   21.133603      0.043819287    18.33465     
    702000   1.8390257      0.0016334675   1000000       -1.8499575e-05  0.0027592344   0.0021596678   21.138526      0.047440223    18.332685    
    703000   1.8327509     -0.0018795752   1000000       -0.0020678408  -0.0031616853  -0.00040919958  21.127284      0.042535425    18.33576     
    704000   1.8292155     -0.0022763031   1000000       -0.0022159064  -0.0025913931  -0.0020216097   21.140141      0.044299806    18.352155    
    705000   1.8403578      0.00015837861  1000000       -0.0011682915  -0.00067890756  0.0023223349   21.140055      0.046588425    18.333067    
    706000   1.8507883      0.0015141142   1000000        0.0041197117  -0.00014277472  0.00056540573  21.147234      0.042680243    18.32851     
    707000   1.8422304      0.00043161411  1000000        0.0034892179  -0.00020329005 -0.0019910855   21.147621      0.04583588     18.338577    
    708000   1.8401079      0.00045280986  1000000        0.00040357849  0.0022190028  -0.0012641517   21.135354      0.046179115    18.329151    
    709000   1.8361938     -0.001474329    1000000        0.0014098352  -0.0043982721  -0.0014345501   21.132939      0.044787928    18.333998    
    710000   1.8248589     -0.00014758678  1000000       -0.0011171364   0.00036884697  0.00030552905  21.11982       0.041686082    18.340983    
    711000   1.8280433      0.0023496081   1000000        0.0028678917   0.0024187438   0.0017621886   21.107267      0.044600805    18.320738    
    712000   1.824043      -0.00081664743  1000000       -0.0036607826   0.0026263405  -0.0014155002   21.114221      0.04263518     18.335658    
    713000   1.8177626     -7.2932759e-05  1000000        0.0001030537   0.0019897541  -0.0023116061   21.108695      0.044907767    18.33728     
    714000   1.8259917      0.0014320936   1000000        0.00079556863  0.00050045339  0.0030002587   21.108031      0.046689122    18.322491    
    715000   1.8157266     -0.0003032811   1000000       -0.0018376361   0.001028206   -0.00010041321  21.112854      0.049109221    18.340291    
    716000   1.8217383     -0.00066215454  1000000       -0.0026448115   0.0021265079  -0.00146816     21.118252      0.043168726    18.342612    
    717000   1.8217928      0.00093251883  1000000        0.0016738832   0.0013178366  -0.00019416334  21.119061      0.042172817    18.344336    
    718000   1.8286014      0.00026150058  1000000        7.4870694e-05  1.2804601e-05  0.00069682645  21.13048       0.047482932    18.340232    
    719000   1.8385402      0.0029359778   1000000        0.0015983415   0.0023778242   0.0048317675   21.132399      0.042626324    18.3321      
    720000   1.8426041      0.0037328702   1000000        0.0044970334   0.0023965066   0.0043050707   21.137291      0.043451386    18.330072    
    721000   1.8343861      0.0035805063   1000000        0.0046163498   0.00040808828  0.0057170808   21.143092      0.045366887    18.346284    
    722000   1.8375148      0.0016523223   1000000       -0.00028270768  0.0010063938   0.0042332808   21.151345      0.046337491    18.348874    
    723000   1.8426432      0.0012749649   1000000       -0.00039984611  0.0025043124   0.0017204285   21.149985      0.045268401    18.34089     
    724000   1.8317312      0.0027831385   1000000        0.001899076    0.0017318974   0.0047184422   21.147678      0.04836873     18.35185     
    725000   1.8531776     -0.00027247199  1000000        0.0015938008  -0.0030265897   0.0006153729   21.171096      0.043698994    18.347769    
    726000   1.8358988      0.0032624231   1000000        0.0039209915   0.0041846103   0.0016816675   21.153615      0.047333246    18.352571    
    727000   1.856225       1.7427211e-05  1000000       -0.001230933    0.0016993084  -0.00041609377  21.161358      0.044740797    18.332418    
    728000   1.8476968      0.0010372718   1000000        0.0020700026  -0.00067756711  0.0017193798   21.172152      0.047858903    18.352886    
    729000   1.840906      -0.0018432451   1000000       -0.0034226644  -0.002860766    0.00075369499  21.165099      0.045957089    18.357921    
    730000   1.8457857      0.0016310584   1000000        0.0020685008   0.0012108319   0.0016138424   21.171432      0.043899198    18.358993    
    731000   1.8533619      0.0025209179   1000000        0.0032832027   0.0022100659   0.0020694851   21.176434      0.049207561    18.347323    
    732000   1.8373066     -0.00043138329  1000000        0.0014935001  -0.0032532418   0.00046559184  21.167182      0.045264159    18.366095    
    733000   1.834661       0.00014895303  1000000        0.0021781601  -0.0031458456   0.0014145446   21.158319      0.04662403     18.359841    
    734000   1.8476306      0.0011114747   1000000        0.0023133193  -0.0010190748   0.0020401794   21.170569      0.046861379    18.3524      
    735000   1.8636193      0.0039090053   1000000        0.0055466747   0.0021306912   0.00404965     21.179989      0.047326417    18.337373    
    736000   1.85536        0.0016521308   1000000        0.0012503401  -0.00054262566  0.0042486778   21.183354      0.047891456    18.352562    
    737000   1.8626032     -0.0018317457   1000000       -0.0025786137  -0.00097544709 -0.0019411762   21.208928      0.044277399    18.370885    
    738000   1.8525589      0.0015457731   1000000        0.00024772356  0.0031559347   0.0012336609   21.198526      0.045851098    18.373976    
    739000   1.8494291      0.00050561599  1000000       -0.00048429896  0.0005326206   0.0014685263   21.192091      0.046519199    18.371567    
    740000   1.8458771      0.00050574659  1000000       -0.0016429135   0.00047335878  0.0026867944   21.179107      0.049049522    18.36138     
    741000   1.8483093      0.0033263733   1000000        0.0040431165   0.0025841564   0.0033518468   21.179035      0.045546551    18.361163    
    742000   1.8497207     -0.00060748018  1000000       -0.0019688824  -0.0018454247   0.0019918665   21.173601      0.041966447    18.357192    
    743000   1.8344233     -0.00080076249  1000000       -0.00049936091 -0.0015555804  -0.00034734617  21.163765      0.041646019    18.370622    
    744000   1.8387681     -0.00027364913  1000000        0.00032297995  0.001399383   -0.0025433103   21.149041      0.044997903    18.346029    
    745000   1.8301596      0.00075848     1000000        0.0016065293   0.00025086725  0.00041804347  21.138479      0.048981498    18.344395    
    746000   1.8279321      0.0019607531   1000000        0.0041759971   0.00050005259  0.0012062097   21.126864      0.046128785    18.338975    
    747000   1.8386556      0.002452782    1000000        0.0048411482   0.0033587932  -0.00084159531  21.141948      0.047622731    18.33648     
    748000   1.8376887      0.0013581892   1000000        0.0026256443   0.0020511752  -0.00060225198  21.142958      0.045303308    18.34126     
    749000   1.8376105      0.00297254     1000000        0.0031613028   0.00014018091  0.0056161362   21.137971      0.047018658    18.334674    
    750000   1.834032       0.0026916587   1000000        0.00065273434  0.0011450698   0.006277172    21.129338      0.048020329    18.330408    
    751000   1.8378667      0.0022251277   1000000        0.0018878567   0.0026423023   0.002145224    21.126969      0.04264667     18.327661    
    752000   1.8348011      0.0055276455   1000000        0.0043053529   0.0060433681   0.0062342154   21.117718      0.04853354     18.317121    
    753000   1.8333455      0.0026209487   1000000        0.0034430458   0.0021961689   0.0022236315   21.129811      0.047199579    18.332731    
    754000   1.8310113     -0.00086442545  1000000        0.0003362566  -0.0013471837  -0.0015823492   21.121717      0.045867869    18.329469    
    755000   1.8347852      0.00090275005  1000000        0.0027535196   0.00064442761 -0.00068969704  21.118026      0.04681927     18.319167    
    756000   1.8243769      0.00088009131  1000000       -0.0007676378   0.0041929612  -0.00078504948  21.120746      0.041818422    18.342499    
    757000   1.8340462      0.0009120028   1000000        0.00066758264  0.0017577771   0.00031064868  21.129612      0.043077733    18.335602    
    758000   1.827563       0.00084042065  1000000        0.00022206322 -0.00051382973  0.0028130285   21.136527      0.049460359    18.34586     
    759000   1.8208386      0.00025268856  1000000        0.001368368   -0.00018110498 -0.00042919738  21.131796      0.050343614    18.350331    
    760000   1.8406814      0.00042322763  1000000        0.001094038    0.00028724688 -0.00011160197  21.141131      0.042821531    18.337425    
    761000   1.8286457      0.0020667077   1000000        0.0026005599   0.0036090718  -9.5087216e-06  21.130881      0.043607008    18.344442    
    762000   1.8327218      0.00038183412  1000000        0.002652959    0.0001509518  -0.0016584084   21.131249      0.045160515    18.337144    
    763000   1.8450679     -0.00066553607  1000000       -0.00015594045 -0.00089006559 -0.00095060216  21.142294      0.042673007    18.332157    
    764000   1.8408807      0.0018201002   1000000        0.0015912547   0.0014330766   0.0024359692   21.154002      0.044967577    18.347851    
    765000   1.8508442     -0.00039916137  1000000        0.00074352411 -0.0009312718  -0.0010097364   21.159449      0.044974004    18.338347    
    766000   1.8530723      0.002124288    1000000        0.0026535234  -0.00038545163  0.0041047921   21.154659      0.04594226     18.329247    
    767000   1.8464934      0.0019265618   1000000        0.0057401136  -0.0020719544   0.0021115263   21.152521      0.045379778    18.33754     
    768000   1.8443457     -0.00074838474  1000000       -0.0011438407   0.00024788983 -0.0013492034   21.162417      0.046662831    18.349374    
    769000   1.8484632      0.00069810143  1000000        0.0017293849   0.00036566491 -7.4553408e-07  21.154827      0.048173745    18.334097    
    770000   1.8393249      0.0012888949   1000000        0.0030502476   0.00062165457  0.0001947825   21.147927      0.043744034    18.345333    
    771000   1.8313347     -0.0013192991   1000000       -0.0007804074  -0.0015646011  -0.0016128889   21.142094      0.043900503    18.351329    
    772000   1.8275848     -0.00092132478  1000000       -0.0019028897   0.0015950605  -0.0024561451   21.13718       0.050237851    18.345702    
    773000   1.8500161     -0.0015737595   1000000        2.7816968e-05 -9.4535284e-05 -0.00465456     21.133058      0.043106943    18.315066    
    774000   1.8270085     -0.00045565071  1000000        0.0016632465  -0.0014980049  -0.0015321938   21.118751      0.045646587    18.332728    
    775000   1.8269667     -0.00018092165  1000000       -0.0010810211  -0.00083968522  0.0013779414   21.126068      0.049203527    18.336551    
    776000   1.8415371     -0.0019070553   1000000        0.00075108207 -0.0033183842  -0.0031538637   21.137811      0.044681233    18.330962    
    777000   1.8438215      0.00011367653  1000000        0.00020115986  0.0011724052  -0.0010325355   21.13726       0.044341079    18.327325    
    778000   1.8473723      0.0022444326   1000000        0.0040896508   0.0010057289   0.0016379182   21.138361      0.045253617    18.322187    
    779000   1.8285007     -0.00216781     1000000       -0.002473265   -0.0027259025  -0.0013042626   21.125713      0.047179794    18.335919    
    780000   1.8316607     -0.0012455378   1000000       -0.0017816933  -0.00053535027 -0.0014195699   21.129587      0.04526104     18.336973    
    781000   1.8131094     -0.0006972754   1000000       -0.00034483704  0.0015686617  -0.0033156508   21.110461      0.046780638    18.344152    
    782000   1.8200194     -0.0010524457   1000000       -0.0012730341  -0.00035931174 -0.0015249911   21.116919      0.04239204     18.344634    
    783000   1.8237639     -0.00015749092  1000000       -0.00086564444  0.0013001906  -0.00090701895  21.113189      0.044602124    18.333077    
    784000   1.8337552      0.0029327732   1000000        0.0032559538   0.0058402483  -0.00029788227  21.111304      0.044218071    18.31659     
    785000   1.8114786      0.003452282    1000000        0.00299845     0.006493105    0.00086529108  21.104568      0.047936204    18.33955     
    786000   1.8241627      0.00028649052  1000000       -0.0001477685  -0.00063618681  0.0016434269   21.115634      0.045687161    18.33384     
    787000   1.831119       2.1693161e-05  1000000       -0.002238864   -0.00088102958  0.0031849731   21.119712      0.045090029    18.328081    
    788000   1.8317282      0.0013697532   1000000       -0.0011223161   0.0013630733   0.0038685022   21.109753      0.045700114    18.316597    
    789000   1.8203714      0.00054269535  1000000       -0.0022082413   0.0018350826   0.0020012448   21.104002      0.043222536    18.330359    
    790000   1.820374      -0.0011189467   1000000       -0.0018408395  -0.00058116675 -0.00093483384  21.113844      0.045342897    18.338076    
    791000   1.828542      -0.00043655128  1000000        0.0024363557  -0.0010234991  -0.0027225104   21.11654       0.046911474    18.326953    
    792000   1.8361275      0.000364615    1000000        0.00019065282  0.00089380633  9.385871e-06   21.112357      0.043144086    18.31516     
    793000   1.8224887      0.0028729549   1000000        0.0034492584   0.0025165828   0.0026530236   21.119661      0.045820538    18.340244    
    794000   1.8290377     -0.00027502362  1000000        0.0025992999  -0.003420484   -3.8866836e-06  21.13831       0.049261291    18.345629    
    795000   1.8394299      0.00095775699  1000000       -0.0010617904   0.0041147189  -0.00017965757  21.140472      0.046399729    18.335065    
    796000   1.8348739      3.017851e-06   1000000       -0.00056099402  0.0016710311  -0.0011009835   21.133013      0.046678322    18.334161    
    797000   1.820733      -0.00093692523  1000000       -0.0018401117  -0.0014317072   0.00046104314  21.13129       0.04528023     18.355047    
    798000   1.8338367     -0.0011889883   1000000       -0.0024364406   0.0012507437  -0.002381268    21.133451      0.047114233    18.335719    
    799000   1.8324334      0.0024454416   1000000        0.004986715    0.0033958177  -0.0010462077   21.130509      0.044064335    18.337932    
    800000   1.830988      -0.00035623026  1000000       -0.002165376    0.0016897617  -0.00059307647  21.138062      0.047934679    18.343783    
    801000   1.8402456     -0.0021434558   1000000       -0.0038486975  -0.0016275297  -0.00095414015  21.137492      0.041948739    18.335313    
    802000   1.8317918      0.0011203972   1000000       -0.00057995916  0.0024214393   0.0015197114   21.123978      0.04201369     18.334414    
    803000   1.8322848      0.0027404469   1000000       -0.00099274354  0.003849821    0.0053642631   21.123294      0.043645479    18.331358    
    804000   1.8288579      0.0015777795   1000000        0.00060918816  0.0019073065   0.0022168438   21.126123      0.043605127    18.339368    
    805000   1.8315221     -0.00042209291  1000000       -0.0026392031   0.001057375    0.00031554932  21.126192      0.048993537    18.330053    
    806000   1.8348068      0.00072494172  1000000        0.00030858284  0.003708238   -0.0018419957   21.140317      0.046205944    18.342039    
    807000   1.8365437     -0.0022666897   1000000        0.00068538715 -0.00054060722 -0.006944849    21.135489      0.044176918    18.336635    
    808000   1.8259246      0.00013963846  1000000        0.0033806081  -0.00093716101 -0.0020245317   21.135299      0.044989468    18.35156     
    809000   1.8336884      0.00022169816  1000000       -0.00032841526  0.00094998585  4.3523883e-05  21.146232      0.04892949     18.346907    
    810000   1.8294053     -0.00034204342  1000000       -0.0016646233   9.1063216e-05  0.00054742981  21.139687      0.044725828    18.350991    
    811000   1.8200055      0.0011490745   1000000        0.00033265601  0.0010722082   0.0020423593   21.140901      0.048064819    18.362964    
    812000   1.8482062      0.0024055606   1000000        0.0040154359   0.0011141047   0.0020871413   21.15596       0.042687135    18.341102    
    813000   1.852575       0.0034606029   1000000        0.0026628435   0.0056116807   0.0021072845   21.166141      0.043845479    18.343572    
    814000   1.8492855      0.0013758825   1000000        0.0023662756   0.0015966814   0.00016469034  21.162968      0.0412962      18.347882    
    815000   1.8374617     -0.0011704094   1000000        0.00084853419 -0.0017925154  -0.0025672469   21.157487      0.044393338    18.357039    
    816000   1.8324326      0.0012968005   1000000       -0.00057232682  0.0023757679   0.0020869604   21.149171      0.045503862    18.355156    
    817000   1.8437232      0.0024429719   1000000        0.0027387633   0.0042218572   0.00036829517  21.148275      0.044488083    18.338341    
    818000   1.8384274      0.00095737183  1000000        0.00016263952  0.0036396395  -0.00093016357  21.157661      0.044552262    18.355606    
    819000   1.8298171     -0.00044118616  1000000        0.0012487728  -0.0032624577   0.00069012642  21.14849       0.046183259    18.357718    
    820000   1.8183368     -0.0011124751   1000000       -0.0016338561  -0.0022737524   0.00057018308  21.141713      0.045556344    18.368788    
    821000   1.8284257     -0.00024948507  1000000       -0.0019450388   0.0011909724   5.611228e-06   21.141583      0.047410965    18.351671    
    822000   1.8288986      0.00018942075  1000000        0.0016045104  -0.0017369823   0.00070073418  21.138693      0.04632295     18.349159    
    823000   1.8269956     -0.0001243004   1000000        0.0018143968  -0.0015492756  -0.00063802243  21.142405      0.04175207     18.360296    
    824000   1.8238611     -0.00068406732  1000000       -0.00022676124 -0.0002201464  -0.0016052943   21.142602      0.045432643    18.361515    
    825000   1.8293517     -5.6798374e-05  1000000       -0.00020804639 -0.0011152681   0.0011529193   21.13256       0.044235025    18.344435    
    826000   1.8478475     -0.0010632295   1000000        0.00019677652 -0.0021933354  -0.0011931298   21.144986      0.042693429    18.33066     
    827000   1.8455406      0.00071318073  1000000        0.0010518178  -0.0016082034   0.0026959278   21.153968      0.044539667    18.341256    
    828000   1.8337961     -0.00051427765  1000000       -0.00080169274 -0.0012984747   0.00055733447  21.145459      0.044728601    18.350174    
    829000   1.8304957      0.0007157956   1000000        0.00027269732 -0.0003105421   0.0021852316   21.138493      0.045562083    18.347325    
    830000   1.8436842      0.0010882827   1000000        0.00054463366  0.00050726597  0.0022129484   21.143311      0.043464024    18.334459    
    831000   1.8364175      0.00025397448  1000000        0.00011875098  1.9817513e-05  0.00062335496  21.131218      0.047456121    18.329273    
    832000   1.8236509      0.00085739168  1000000        0.0037287326  -0.0012679297   0.00011137212  21.122934      0.043501585    18.344093    
    833000   1.8234282     -0.0015726702   1000000        0.00056991686 -0.0021636267  -0.0031243008   21.115965      0.040829705    18.34013     
    834000   1.8293786     -0.0010950282   1000000        0.0018413553  -0.0046953542  -0.00043108558  21.114865      0.043626906    18.327307    
    835000   1.8225184     -0.00093147675  1000000       -0.00027085594 -0.00096409739 -0.0015594769   21.108415      0.046520703    18.328254    
    836000   1.8261255     -0.0021003253   1000000       -0.00037353399 -0.0019842736  -0.0039431684   21.119375      0.043426011    18.336898    
    837000   1.8304218      0.00069469958  1000000        0.00056530572 -0.0011469428   0.0026657358   21.125418      0.042311586    18.337611    
    838000   1.8418386     -0.0004471011   1000000       -0.0039371513  -2.5012947e-05  0.002620861    21.141063      0.047158744    18.331284    
    839000   1.8307315     -0.0023525813   1000000       -0.0012876845   0.00054395667 -0.0063140162   21.143157      0.044199312    18.352998    
    840000   1.8309166     -0.0036847422   1000000       -0.0029453008  -0.003949548   -0.0041593779   21.133718      0.045992578    18.341488    
    841000   1.8098895     -0.00063788724  1000000        0.00079404247 -0.0030053961   0.00029769191  21.128277      0.051002368    18.362576    
    842000   1.8213267      0.0033478996   1000000        0.0036660035   0.0025351288   0.0038425666   21.119641      0.045324751    18.342463    
    843000   1.8254227      0.00017709379  1000000       -0.0018022237   0.0024406346  -0.00010712951  21.125511      0.044533485    18.342981    
    844000   1.8312143     -0.0020331024   1000000       -0.0013943208  -0.0015477056  -0.0031572807   21.153765      0.046951133    18.36013     
    845000   1.8428375      0.0019268908   1000000        0.00037378228  0.0029212049   0.0024856851   21.138012      0.049605486    18.324288    
    846000   1.8239401      0.0011137025   1000000        0.0011729453   0.0030524513  -0.00088428921  21.117837      0.04408298     18.33798     
    847000   1.8353495      0.00028526011  1000000       -0.0003987778   0.0013928546  -0.00013829643  21.137808      0.047536883    18.337384    
    848000   1.8415749     -0.00074714319  1000000        0.0023029885  -0.0002532069  -0.0042912112   21.142183      0.048557       18.331402    
    849000   1.8348066     -0.002003563    1000000       -0.00047195681 -0.0033105956  -0.0022281368   21.138792      0.045937129    18.340783    
    850000   1.8359731      0.00010484877  1000000        0.0028152797  -0.00043339949 -0.002067334    21.144707      0.047963378    18.342922    
    851000   1.8356132      0.0011513413   1000000        8.6574014e-05  0.0030508204   0.00031662933  21.137313      0.046300613    18.337731    
    852000   1.8451688      0.001514246    1000000        0.0012021251   0.0024787201   0.0008618929   21.136935      0.044763241    18.324557    
    853000   1.8335461     -0.0011065097   1000000       -9.5728572e-05 -8.711249e-05  -0.003136688    21.136395      0.043825302    18.342388    
    854000   1.8174856     -0.002760315    1000000       -0.0028386227  -0.0033590664  -0.0020832558   21.121512      0.041268572    18.354151    
    855000   1.8181434     -0.0024151195   1000000       -0.00020732512 -0.0035609672  -0.0034770663   21.128977      0.043242483    18.358656    
    856000   1.8265868      0.00073050222  1000000        0.0010877966  -0.00026294061  0.0013666507   21.129773      0.049059426    18.34097     
    857000   1.8254359      0.00068775186  1000000        0.0025386131  -0.0032894696   0.0028141121   21.136796      0.045678964    18.3531      
    858000   1.8399963      0.0001616748   1000000       -0.00091108469 -0.0015433028   0.0029394119   21.137407      0.045040985    18.33251     
    859000   1.8419455      0.0026013228   1000000        0.00033966783  0.0035582007   0.0039061      21.139091      0.046080266    18.33023     
    860000   1.8399859      0.0026653844   1000000        0.0027093977   0.0034653889   0.0018213666   21.137654      0.046981802    18.330831    
    861000   1.8362591      0.0018257788   1000000        0.0021732476   0.0037720744  -0.00046798551  21.145176      0.046942026    18.343983    
    862000   1.8439646     -7.7346352e-05  1000000       -0.00043698792 -0.00031923127  0.00052418013  21.148179      0.043505026    18.338865    
    863000   1.8387788      0.0019036619   1000000       -0.00011518483  0.0012831898   0.0045429807   21.144122      0.042619365    18.343472    
    864000   1.8228179      0.0025885493   1000000        0.0031685346   0.00053868558  0.0040584276   21.127063      0.044409141    18.348563    
    865000   1.8437994      0.0033146175   1000000        0.0034529529   0.0015360199   0.0049548797   21.139228      0.047385131    18.326282    
    866000   1.8475498     -0.00078479079  1000000        8.7937771e-05 -0.0013851136  -0.0010571966   21.145115      0.047226559    18.326703    
    867000   1.84252       -0.0014893476   1000000       -0.003612084   -0.0010327417   0.00017678302  21.13907       0.045288771    18.33014     
    868000   1.8366795      4.4002936e-05  1000000       -0.0012612982   0.00066526916  0.00072803787  21.126241      0.043899876    18.32746     
    869000   1.8229258      0.0032802443   1000000        0.0036626939   0.0039866093   0.0021914297   21.131353      0.04818888     18.348912    
    870000   1.8409994      0.0010933486   1000000        0.0016204038   0.00033951923  0.0013201229   21.14113       0.044893482    18.334875    
    871000   1.8285125     -0.0011388712   1000000       -0.00050387795 -0.002347116   -0.00056561967  21.129567      0.042739659    18.344196    
    872000   1.8259874     -0.00046500002  1000000       -0.001621213   -0.00013355716  0.0003597701   21.118803      0.047350187    18.332609    
    873000   1.841053       0.0029600904   1000000        0.0004782285   0.0061563767   0.0022456661   21.121396      0.044607469    18.315347    
    874000   1.8344503      0.0013581229   1000000        0.0037573876   0.0021512483  -0.0018342674   21.132053      0.043284325    18.337231    
    875000   1.8308982     -0.00080941254  1000000       -0.0019164561   0.00015572686 -0.00066750841  21.126178      0.042835443    18.337132    
    876000   1.8502347      0.0022816082   1000000        0.0025101489   0.0037613119   0.00057336369  21.145268      0.047396496    18.322658    
    877000   1.8373204     -0.00086325985  1000000       -0.00051483456  0.0002679235  -0.0023428685   21.134892      0.046332656    18.332716    
    878000   1.8324447      0.00011108213  1000000        0.00092087757  9.3872939e-05 -0.00068150412  21.13263       0.044695012    18.339406    
    879000   1.8269102      0.00030089795  1000000        0.001518902    0.00081800952 -0.0014342177   21.137299      0.046696707    18.350374    
    880000   1.8333215     -0.0022716594   1000000       -0.004133602   -3.9372084e-05 -0.0026420041   21.139168      0.046979326    18.342344    
    881000   1.8527065     -0.0017798113   1000000       -0.0037766612  -0.0018413409   0.00027856805  21.156762      0.045403796    18.332437    
    882000   1.8447985     -0.0012396675   1000000       -0.0018891467  -0.0029164878   0.0010866321   21.139265      0.0428174      18.329388    
    883000   1.8336274      0.00022464366  1000000       -0.0024089399   0.0040379564  -0.0009550855   21.120231      0.041798302    18.328129    
    884000   1.828182       5.2047268e-05  1000000       -0.0028053026   0.00386085    -0.00089940558  21.115528      0.04509445     18.328298    
    885000   1.8275237      0.0014237206   1000000       -0.0014844977   0.0030696095   0.0026860499   21.122839      0.048697602    18.332993    
    886000   1.841625       0.00097960446  1000000       -0.00026790246  0.0015996083   0.0016071075   21.123765      0.046677885    18.314787    
    887000   1.8165236      0.0021514056   1000000        0.0027816999   0.0030360295   0.00063648745  21.106875      0.048594052    18.333632    
    888000   1.8291452      0.0010918869   1000000        0.0010819224   0.0026002684  -0.00040653016  21.105207      0.046041919    18.315585    
    889000   1.8275867      0.0002170691   1000000       -0.0022117885   0.0022771759   0.00058581996  21.105271      0.04528695     18.318741    
    890000   1.8184803     -0.0013544822   1000000       -0.0010773723  -0.00065465167 -0.0023314227   21.107536      0.043159915    18.336792    
    891000   1.8128658     -0.00021880806  1000000       -0.0017578644  -0.00032975883  0.001431199    21.102269      0.046976688    18.33613     
    892000   1.824181       0.00042108977  1000000       -0.0011835863   3.0772199e-05  0.0024160834   21.100401      0.042644164    18.321623    
    893000   1.8092315     -0.001831826    1000000       -0.0016889485  -0.0040265856   0.00022005593  21.099371      0.045963538    18.339696    
    894000   1.8328758     -0.00081476145  1000000        0.0016554435  -0.0017037899  -0.002395938    21.118013      0.047486395    18.32135     
    895000   1.8339449      0.0015374315   1000000        0.00097246442  0.0023596083   0.0012802217   21.110894      0.041262093    18.318852    
    896000   1.8236753     -0.00088225176  1000000       -0.0012546173  -0.00017415696 -0.0012179811   21.118303      0.046844799    18.336082    
    897000   1.8354251     -0.0014483471   1000000        0.00080914299 -0.0013141265  -0.0038400577   21.126292      0.045992336    18.3273      
    898000   1.835589       0.00033829133  1000000       -0.0010621041   0.001038337    0.001038641    21.144792      0.048151365    18.343395    
    899000   1.8437199      0.00057693313  1000000       -0.0014673195   0.003725727   -0.00052760814  21.132915      0.045720027    18.321754    
    900000   1.8461228      0.0031905729   1000000        0.0019849704   0.0026468555   0.0049398928   21.139146      0.045026134    18.325074    
    901000   1.8426486     -0.00044331914  1000000        0.0012553669  -0.0020496702  -0.00053565409  21.132894      0.045560814    18.323498    
    902000   1.8234709      0.00020036622  1000000       -0.00058486713  0.00020072527  0.00098524052  21.119337      0.044831814    18.339435    
    903000   1.8459051     -0.00026914859  1000000       -0.0015016408  -0.0012195513   0.0019137463   21.132278      0.040684571    18.322874    
    904000   1.8373019      0.0018945452   1000000        0.001773649    0.002503359    0.0014066274   21.14488       0.044478434    18.344586    
    905000   1.83298        0.0013443216   1000000        0.0050726791   0.00034871833 -0.0013884327   21.140005      0.046227273    18.344446    
    906000   1.8403898      0.00053625058  1000000        0.00091103419  0.00016451042  0.00053320712  21.155771      0.045936173    18.349388    
    907000   1.848524       0.00062325563  1000000        0.00068652947 -4.304426e-07   0.0011836679   21.155631      0.044104103    18.33888     
    908000   1.8439886      0.0016460402   1000000        0.00071528645  0.0028277469   0.0013950872   21.148633      0.046280481    18.336508    
    909000   1.8439613      6.6972023e-05  1000000       -0.00024296691 -0.0015214443   0.0019653273   21.14045       0.042376649    18.33227     
    910000   1.8218809      0.00032920357  1000000        0.00097572521  0.00095497247 -0.00094308695  21.112847      0.049773446    18.330389    
    911000   1.8286803      0.00046716879  1000000        0.0013620273  -0.00074904153  0.00078852062  21.116584      0.04774835     18.325952    
    912000   1.8356106      0.00040510641  1000000        0.0032524845  -0.00049192845 -0.0015452368   21.127518      0.043936925    18.330303    
    913000   1.8302459      0.0006771254   1000000       -6.7695625e-05  0.0013287489   0.00077032294  21.114669      0.045151891    18.324285    
    914000   1.8279927     -0.0008771952   1000000       -0.0017036484   0.00017329874 -0.0011012359   21.102233      0.045351075    18.31503     
    915000   1.8285607     -8.683627e-05   1000000       -0.0016569987  -0.00074763076  0.0021441207   21.102488      0.041532273    18.318252    
    916000   1.8137651      0.0017736124   1000000        0.0016298964   0.0033181858   0.00037275489  21.099178      0.047934814    18.330731    
    917000   1.8171908      0.0013891234   1000000        0.0041606449   0.00038031574 -0.00037359035  21.108921      0.043220223    18.340051    
    918000   1.8118602      0.0030602748   1000000        0.0045272167   0.0042230166   0.00043059099  21.078935      0.047534003    18.313746    
    919000   1.8284236     -0.00024885192  1000000        0.0010889238   0.0017088365  -0.0035443161   21.108338      0.047354708    18.318485    
    920000   1.8345352     -3.6256064e-06  1000000        0.00060839557 -0.0008182667   0.00019899431  21.114177      0.0447225      18.31779     
    921000   1.8177802      0.0037211424   1000000        0.0045929867   0.0030886883   0.0034817523   21.111435      0.047113068    18.337788    
    922000   1.8246712      0.00073507337  1000000        0.0020169843   0.00080837498 -0.00062013917  21.098046      0.042726927    18.318449    
    923000   1.8280747     -0.0012698728   1000000       -0.0012538555  -0.0014718857  -0.0010838773   21.107492      0.048014552    18.317503    
    924000   1.8233327      0.0012976968   1000000        0.00074384899  3.2210374e-05  0.003117031    21.092287      0.048436898    18.308988    
    925000   1.8308661      0.0012788258   1000000       -2.5760219e-05  0.00076529042  0.0030969472   21.0967        0.046634863    18.303903    
    926000   1.8196661     -9.5519767e-05  1000000       -0.00031938796 -6.6989699e-05  9.9818362e-05  21.088425      0.042465632    18.316597    
    927000   1.809681      -0.0022264868   1000000       -8.6950414e-05 -0.0048776459  -0.0017148641   21.091231      0.046615464    18.330229    
    928000   1.8191669      0.0011493715   1000000        0.00066250096  0.0025572321   0.00022838128  21.095457      0.042459374    18.324384    
    929000   1.8338681      0.0012893905   1000000        0.00025268778  0.0013104585   0.0023050254   21.115507      0.046443973    18.318399    
    930000   1.8130576      0.0027775735   1000000        5.7919066e-06  0.004607638    0.0037192907   21.106596      0.04858917     18.338556    
    931000   1.8021653      0.0018191184   1000000        0.003288596    0.0022791125  -0.00011035345  21.091009      0.044934389    18.342962    
    932000   1.8257141     -0.00029997958  1000000       -0.00075325087 -0.0011423822   0.00099569431  21.106094      0.043402712    18.324257    
    933000   1.8264666      0.0018069712   1000000        0.0028073026   0.0014829723   0.0011306389   21.108053      0.045710655    18.322779    
    934000   1.8137131      0.00046242903  1000000        0.00029776836 -0.00047935003  0.0015688688   21.092257      0.045796204    18.326027    
    935000   1.8261478      0.00055799652  1000000        0.00078648053  0.0015191044  -0.00063159542  21.088531      0.045233821    18.304212    
    936000   1.8197811      0.0016309043   1000000        0.0029542599   0.0020283881  -8.9935228e-05  21.098417      0.044194105    18.324688    
    937000   1.8194894      0.0024253298   1000000       -0.00018531149  0.0036833787   0.0037779223   21.100947      0.043384196    18.328465    
    938000   1.8150614     -0.00018769634  1000000        0.00073292198 -0.002702866    0.001406855    21.092934      0.047867035    18.322611    
    939000   1.8038236      0.0010391136   1000000        0.001146578    0.0020944393  -0.00012367645  21.096138      0.043760296    18.346778    
    940000   1.8363842      0.0011647945   1000000        0.0037632786   0.00030069744 -0.00056959265  21.112843      0.041420901    18.316983    
    941000   1.819784      -0.0011073348   1000000       -0.00066095753 -0.0030730146   0.0004119676   21.095273      0.045016339    18.320717    
    942000   1.835929       0.00020635869  1000000        0.00096332943 -0.0014517765   0.0011075231   21.113848      0.046835416    18.313257    
    943000   1.8344048      0.001576498    1000000        0.0046540901  -0.0020864581   0.0021618622   21.106243      0.042278955    18.312495    
    944000   1.8361474      0.00070626394  1000000       -0.0011017026   0.0022470408   0.00097345359  21.118331      0.049916834    18.314331    
    945000   1.8437334      0.003082571    1000000        0.0034318548   0.0032851574   0.0025307008   21.118182      0.048493497    18.304227    
    946000   1.8319694      0.00095551455  1000000        0.00049854615  0.0025738734  -0.00020587589  21.136174      0.04477504     18.343582    
    947000   1.8343591      0.00065865923  1000000        0.0014059935   0.00064183927 -7.1855095e-05  21.13716       0.045080338    18.340678    
    948000   1.8366309      0.0022020228   1000000        0.0053634236   6.8766626e-06  0.0012357682   21.129963      0.04585535     18.329299    
    949000   1.8285854      0.0054349265   1000000        0.0077743023   0.0023940449   0.0061364323   21.130081      0.047509867    18.33983     
    950000   1.825497       0.0039142852   1000000        0.0041077488   0.0011120716   0.0065230351   21.130255      0.045789751    18.346356    
    951000   1.8363078      7.7748544e-05  1000000        0.0015242045  -0.00087141011 -0.00041954878  21.137859      0.04084393     18.342691    
    952000   1.842608       0.0001876802   1000000        0.00053912865 -0.0010882437   0.0011121556   21.135002      0.040044183    18.331184    
    953000   1.826518      -0.00040588094  1000000        0.0017495818  -0.0010133223  -0.0019539024   21.142614      0.044616982    18.358357    
    954000   1.8275387      0.00021037821  1000000       -6.8648298e-05  0.00082822308 -0.00012844014  21.14199       0.045148822    18.35567     
    955000   1.8199567     -0.00047552334  1000000       -7.0698086e-05 -0.00099610805 -0.0003597639   21.135771      0.047420444    18.358552    
    956000   1.8176654      0.00049639773  1000000        0.00042634143  0.00028745031  0.00077540145  21.130664      0.049388868    18.354913    
    957000   1.8285409      0.0010610466   1000000        0.0012144174   0.00086988294  0.0010988395   21.131076      0.046302504    18.342099    
    958000   1.8278093      0.00060691768  1000000        0.0011811245  -8.2973146e-05  0.00072260171  21.114893      0.042731819    18.330584    
    959000   1.830673       0.0014061318   1000000       -0.0022645477   0.00049428398  0.0059886592   21.126354      0.045275131    18.335207    
    960000   1.835369       0.0035874268   1000000        0.0038756008   0.0014864139   0.0054002657   21.129551      0.046370497    18.330265    
    961000   1.8333105     -0.00037299446  1000000       -0.00025237945 -0.0011548054   0.00028820149  21.124864      0.046465326    18.328571    
    962000   1.8212841     -0.0014870638   1000000       -0.0037663917  -0.0026100769   0.0019152773   21.121126      0.045076089    18.34426     
    963000   1.8354759      0.0032811479   1000000        0.0020162599   0.0029946686   0.0048325152   21.131659      0.046513043    18.33207     
    964000   1.8332365      0.00073889328  1000000       -0.00046838824  0.0020317211   0.00065334692  21.124495      0.049034277    18.325744    
    965000   1.8213504     -0.0014654319   1000000       -0.0027925272  -5.5324677e-06 -0.001598236    21.099288      0.044737047    18.322662    
    966000   1.8172244     -0.0021932378   1000000       -0.0010851579  -0.0017161509  -0.0037784045   21.10495       0.043584303    18.335665    
    967000   1.8180511     -0.00043352526  1000000       -0.0010651679  -3.1719568e-05 -0.00020368832  21.102289      0.048099933    18.327249    
    968000   1.8256393     -0.0013663631   1000000       -0.00017648552 -0.0017981379  -0.0021244659   21.105233      0.046980522    18.31993     
    969000   1.8203515     -0.0025745667   1000000        5.935394e-05  -0.0033794735  -0.0044035804   21.102308      0.046384727    18.325532    
    970000   1.8149777     -0.002049781    1000000       -0.0011245217  -0.0009935725  -0.0040312488   21.108829      0.046041777    18.340456    
    971000   1.82329        0.00072954794  1000000        0.0016236649  -0.0007496106   0.0013145895   21.099113      0.046562473    18.317752    
    972000   1.8147949      0.0017056827   1000000        0.00093015808  0.0015791501   0.0026077398   21.081037      0.042959782    18.316021    
    973000   1.8155968      0.0026174957   1000000        0.003570536    0.00037623878  0.0039057124   21.093276      0.046306908    18.32371     
    974000   1.8069164      0.0025674648   1000000        0.002157739    0.0020455414   0.0034991139   21.087986      0.043366745    18.33438     
    975000   1.8177084      0.00097752835  1000000       -0.00015701202  0.0022198548   0.00086974229  21.091392      0.046149209    18.318816    
    976000   1.8208036     -0.00014198312  1000000        0.0014892931  -0.00048150203 -0.0014337405   21.109789      0.042989816    18.33573     
    977000   1.8160615      0.0019564892   1000000        0.0015361515   4.9493887e-05  0.0042838222   21.106695      0.045398889    18.33734     
    978000   1.8304218      0.0015837687   1000000        0.00066433461  0.00044826786  0.0036387037   21.09972       0.045997587    18.308227    
    979000   1.8264552      0.00014180305  1000000       -0.0015546104   0.0018545422   0.00012547736  21.113055      0.047410361    18.326099    
    980000   1.82299        0.0014613683   1000000        0.0020222883   0.0028288702  -0.00046705351  21.114392      0.049737558    18.330306    
    981000   1.8188412     -0.00095079188  1000000       -0.0003178712   0.00076129267 -0.0032957971   21.112516      0.043067466    18.341324    
    982000   1.823883      -0.00091890154  1000000        0.0023094355  -0.0026743272  -0.0023918129   21.122889      0.041594109    18.345607    
    983000   1.8272549      0.0024016275   1000000        0.0048604206   0.0018885414   0.00045592045  21.119588      0.042532849    18.33631     
    984000   1.829454       0.0018446062   1000000        0.0047479624   0.0015955405  -0.00080968428  21.114557      0.04263129     18.327882    
    985000   1.8289673     -0.00061602006  1000000       -0.0010559003   0.00071790074 -0.0015100607   21.117549      0.03931992     18.334915    
    986000   1.8262631     -0.00082306377  1000000       -0.0010345565   0.0017461191  -0.0031807539   21.122606      0.047575132    18.335773    
    987000   1.8227439      0.0015023408   1000000       -0.00034373171  0.0022047048   0.0026460492   21.102239      0.046268875    18.321991    
    988000   1.8210294      0.0036623358   1000000        0.0054716508   0.0048246019   0.00069075461  21.097029      0.043733719    18.321888    
    989000   1.8221197     -0.0003444599   1000000       -0.00094033318  0.00052999935 -0.00062304588  21.100204      0.044459177    18.322702    
    990000   1.8149075      0.00093165808  1000000       -0.0029404701   0.00088065768  0.0048547866   21.093244      0.044280075    18.326739    
    991000   1.8159168      0.00053167438  1000000       -0.00066092696  0.00061464469  0.0016413054   21.092051      0.047411621    18.320901    
    992000   1.8221794     -0.00085297037  1000000       -0.00054243992  0.00085087211 -0.0028673433   21.098969      0.046652277    18.319185    
    993000   1.8263768      0.0015403815   1000000        0.00074318045  0.0058477305  -0.0019697663   21.099508      0.044498825    18.315581    
    994000   1.8307668      0.0035009363   1000000        0.0037367502   0.0040189322   0.0027471266   21.097092      0.04139694     18.309682    
    995000   1.8151959      0.00013025752  1000000        0.00016780017 -0.0019352957   0.0021582681   21.093522      0.043535866    18.327329    
    996000   1.8221327     -0.0013607677   1000000       -0.00094274623 -0.0042964389   0.0011568821   21.102904      0.045311286    18.324531    
    997000   1.8373267      0.00052584585  1000000       -0.00041218786  0.0018708852   0.00011884022  21.120792      0.047039512    18.3179      
    998000   1.8304741      0.0014985273   1000000       -5.4138275e-06  0.006036678   -0.0015356822   21.112196      0.047754313    18.318868    
    999000   1.8091798     -0.00019677148  1000000       -0.00065054715 -0.00056555288  0.00062578559  21.096733      0.046266536    18.336832    
   1000000   1.810396      -0.0018164727   1000000       -0.0019023029  -0.0037569306   0.00020981541  21.082676      0.047799431    18.319418    
   1001000   1.8085182     -0.00014346839  1000000        0.00018824279 -0.00084517076  0.00022652281  21.087843      0.043576406    18.331625    
   1002000   1.8202023      0.0014009206   1000000       -0.0016748587   0.00097851271  0.0048991077   21.106707      0.046397537    18.330143    
   1003000   1.826423       0.0049540327   1000000        0.0039245901   0.0052636257   0.0056738822   21.107654      0.044677087    18.32348     
   1004000   1.8224158     -0.0004734162   1000000       -0.00052414025 -0.00013184664 -0.00076426171  21.118998      0.040707323    18.344804    
   1005000   1.8272312     -0.0017156095   1000000       -0.0022556318  -0.0014312945  -0.0014599023   21.114061      0.043639295    18.329712    
   1006000   1.8185634      0.00037228159  1000000       -0.0016766819   0.0027007822   9.2744404e-05  21.102187      0.047741626    18.326737    
   1007000   1.8241278     -0.00079745637  1000000       -0.001775516    0.00013538571 -0.00075223885  21.097942      0.043444462    18.318442    
   1008000   1.8117208      0.00049543167  1000000        0.00042403817  0.0005933076   0.00046894925  21.086403      0.04482955     18.324128    
   1009000   1.8014936     -0.00027898895  1000000       -0.00036689646 -0.0003036741  -0.00016639629  21.077898      0.043147001    18.332646    
   1010000   1.8201848     -0.001433031    1000000       -0.0021576985   0.00083188746 -0.002973282    21.098671      0.044299046    18.324231    
   1011000   1.8087181     -0.0016146061   1000000       -0.0021732702  -0.0013174511  -0.001353097    21.09209       0.043484544    18.335664    
   1012000   1.8072347      6.0285583e-05  1000000        0.00076910474  0.000165876   -0.00075412399  21.107721      0.04626169     18.350743    
   1013000   1.8188711      0.0015981319   1000000        0.0014241528   0.0012737527   0.0020964901   21.117135      0.045432748    18.343532    
   1014000   1.8210066     -0.00040697479  1000000       -0.00052150237 -0.0012135747   0.00051415265  21.116997      0.04235493     18.343269    
   1015000   1.8298464      0.0011407661   1000000        0.0019944734   0.0021159902  -0.00068816539  21.121944      0.041452929    18.335859    
   1016000   1.8242374      0.0012984466   1000000        0.0030453503   0.0021006212  -0.0012506318   21.113248      0.042712268    18.334317    
   1017000   1.8194412      0.00087532376  1000000        0.00068786445  0.00074537677  0.0011927301   21.106889      0.047637747    18.330225    
   1018000   1.8304418      0.0014150444   1000000       -0.0021741284   0.0022663603   0.0041529013   21.110115      0.043469612    18.32112     
   1019000   1.8324705     -0.0010821744   1000000       -0.0026566101   0.00084339661 -0.0014333098   21.110311      0.042869968    18.318873    
   1020000   1.8329251     -0.0017233754   1000000       -0.0031757866  -0.0016572676  -0.00033707207  21.125049      0.044810972    18.330988    
   1021000   1.8317119     -0.00013532981  1000000       -0.0019703527   0.0010501695   0.00051419369  21.124169      0.048406973    18.328332    
   1022000   1.8403143      0.0026862126   1000000        0.0046216807   0.0040863227  -0.00064936564  21.135669      0.043503494    18.331832    
   1023000   1.8264468      0.0014752729   1000000        0.0021038362   0.0015107606   0.00081122195  21.124254      0.046668361    18.338053    
   1024000   1.8403541      0.00016313654  1000000       -6.790898e-05   0.00040528448  0.00015203413  21.127351      0.046896323    18.320061    
   1025000   1.8191289     -0.0011211559   1000000       -0.0019198679  -0.0018136341   0.00037003422  21.109917      0.044624455    18.336736    
   1026000   1.8188286      0.0025928736   1000000        0.00065045855  0.0045264131   0.0026017493   21.105206      0.047106599    18.329993    
   1027000   1.819573       0.0034461957   1000000        0.0027493966   0.0033204298   0.0042687607   21.105167      0.047780998    18.328163    
   1028000   1.8189576     -3.8724039e-05  1000000       -0.00075727617  0.0010453269  -0.00040422285  21.10178       0.048913366    18.324567    
   1029000   1.8242327     -0.00082661005  1000000       -0.00012193899 -0.0019578641  -0.0004000271   21.093495      0.043097082    18.314186    
   1030000   1.8090777      0.0004745681   1000000       -0.00056632042  0.00068296758  0.0013070571   21.09106       0.047388893    18.33019     
   1031000   1.8090555      0.00074375106  1000000        0.0010893378   0.0016240548  -0.00048213944  21.084566      0.046782707    18.324336    
   1032000   1.827222      -0.00043398944  1000000       -0.00075434888 -0.00012903427 -0.00041858516  21.103348      0.045469052    18.317183    
   1033000   1.8299628     -0.00027545172  1000000       -0.0035414492   0.00060782816  0.0021072659   21.114002      0.04452251     18.324673    
   1034000   1.831238      -0.00056127136  1000000        0.00057329084 -9.8828779e-05 -0.0021582761   21.111036      0.047777931    18.316538    
   1035000   1.8303624      0.00089047151  1000000        0.0020362953  -0.00071216234  0.0013472816   21.115951      0.045290663    18.325254    
   1036000   1.8252174      0.0020320317   1000000        0.0022827116   0.0016184818   0.0021949016   21.106781      0.047818056    18.321273    
   1037000   1.8306413     -0.00042060504  1000000        1.7438595e-05 -0.0013553548   7.6101071e-05  21.102522      0.045440853    18.311256    
   1038000   1.8200474     -0.0024895707   1000000       -0.001714305   -0.0038332068  -0.0019212004   21.093597      0.044094325    18.319568    
   1039000   1.8168573     -0.00053334796  1000000       -0.00067973761 -0.0003511033  -0.00056920297  21.095225      0.046754388    18.323321    
   1040000   1.8065368     -0.00024509657  1000000       -0.000294096   -0.00023405753 -0.00020713618  21.087563      0.047024013    18.33087     
   1041000   1.81325       -0.0019287585   1000000       -0.0037753076  -0.00088600165 -0.0011249661   21.084799      0.045078777    18.319981    
   1042000   1.8183453      0.00064572378  1000000        0.00044092711 -0.0010183559   0.0025146001   21.08888       0.044009352    18.317489    
   1043000   1.8061101     -0.00096805989  1000000       -0.00085272584 -0.0034768528   0.001425399    21.075274      0.046386636    18.319858    
   1044000   1.8102366      0.001179183    1000000        0.0029609423  -8.3066279e-05  0.00065967306  21.088689      0.047929095    18.32554     
   1045000   1.7975696      0.0010923829   1000000        0.0016375233   0.0022625373  -0.0006229119   21.07633       0.046048184    18.334062    
   1046000   1.8119612      0.00093082518  1000000        0.0020835669   0.00094983719 -0.0002409285   21.096514      0.047606423    18.331102    
   1047000   1.8147575     -0.00017360833  1000000        0.0011847415  -0.0025215264   0.00081595987  21.094939      0.046235416    18.326704    
   1048000   1.8110894      0.0014498326   1000000        0.0013727534   0.001003081    0.0019736634   21.08159       0.046099913    18.318992    
   1049000   1.7986723      0.0037448747   1000000        0.0025900528   0.0055118859   0.0031326854   21.0817        0.044440354    18.339386    
   1050000   1.8130879      0.0012507536   1000000        0.0013986966   0.001651647    0.00070191726  21.090598      0.043342042    18.32776     
   1051000   1.8091213      0.0019885215   1000000        0.0014655811   0.0018945885   0.0026053948   21.081636      0.045036829    18.323053    
   1052000   1.825315      -0.0013244938   1000000        0.0010080724  -0.0021362008  -0.0028453529   21.09098       0.04187471     18.31127     
   1053000   1.8078311      0.0013038976   1000000        0.0015617111   0.0038225602  -0.0014725784   21.087303      0.043874009    18.331818    
   1054000   1.8241003      0.0020512204   1000000        0.0043353418   0.0038933671  -0.0020750476   21.087008      0.045438918    18.305556    
   1055000   1.8216622     -0.00065737103  1000000        0.00094995925 -0.0011179473  -0.001804125    21.089255      0.042141406    18.314757    
   1056000   1.8075828     -0.0016348422   1000000        0.0010695717  -0.0054740385  -0.00050005968  21.089834      0.048753949    18.329842    
   1057000   1.812556      -0.003542852    1000000       -0.0022193418  -0.0069059791  -0.0015032352   21.078353      0.044417629    18.315237    
   1058000   1.8114831     -0.00087296041  1000000       -0.0020171469  -0.0021455464   0.0015438121   21.075008      0.04324545     18.314674    
   1059000   1.8125083     -0.00051506913  1000000       -0.0009841557   3.6508938e-06 -0.00056470259  21.089685      0.044487982    18.326571    
   1060000   1.8007487      0.0011218621   1000000        0.0011898226   0.0011145195   0.0010612441   21.08637       0.043401888    18.34198     
   1061000   1.8188746      0.0019889709   1000000        0.0030873214   0.00023358738  0.002646004    21.098592      0.04489423     18.325523    
   1062000   1.8180585      0.0021321337   1000000        0.0015183826  -0.0010624789   0.0059404974   21.09556       0.044311468    18.324297    
   1063000   1.8322144      0.002617182    1000000        0.0031872824  -0.00012889738  0.004793161    21.107625      0.046067404    18.313373    
   1064000   1.8185133      0.0017505836   1000000        0.0014485961   0.0016444371   0.0021587177   21.107807      0.044399386    18.335774    
   1065000   1.8248148     -0.0001552555   1000000       -0.002842385   -0.00081513409  0.0031917525   21.09841       0.044753363    18.316571    
   1066000   1.8262884     -0.00042330851  1000000       -0.0014157769  -0.0010727274   0.0012185788   21.100571      0.045240119    18.316035    
   1067000   1.8233058     -0.0019256073   1000000        5.4795765e-05 -0.0063674443   0.00053582665  21.102052      0.043208446    18.324021    
   1068000   1.8107001     -0.0021782096   1000000       -0.00091400669 -0.0042778936  -0.0013427284   21.093964      0.043946583    18.334103    
   1069000   1.821721       0.00097365156  1000000        0.00083277878  0.0017913982   0.00029677764  21.100109      0.044458111    18.323206    
   1070000   1.8092467      0.00099493604  1000000        0.0023193714   0.0020170944  -0.0013516577   21.095097      0.043963077    18.3374      
   1071000   1.8338456      0.0023829174   1000000        0.0021864613   0.0023675956   0.0025946952   21.103451      0.048669948    18.30415     
   1072000   1.8283814      0.0022759851   1000000        0.002441821    0.0015409099   0.0028452242   21.09184       0.049340026    18.300065    
   1073000   1.8058221      0.0014375285   1000000       -0.00018503185  0.00064840234  0.003849215    21.080071      0.046670396    18.324803    
   1074000   1.804475      -0.0010717078   1000000       -0.00054987982 -0.00037914124 -0.0022861024   21.087141      0.043526342    18.337037    
   1075000   1.8154106      0.0012913884   1000000        0.0026720028  -0.00018265433  0.0013848167   21.099189      0.045114777    18.331094    
   1076000   1.8130242      0.0024359395   1000000       -0.0012070687   0.0029395401   0.005575347    21.102128      0.04315227     18.339576    
   1077000   1.8265392      0.00028000833  1000000        0.001017439   -0.00073256916  0.0005551551   21.111332      0.047613971    18.324047    
   1078000   1.8238609      0.00019481402  1000000        0.00010857636 -0.0014331662   0.0019090319   21.116325      0.044304569    18.336366    
   1079000   1.8329161      0.0016335062   1000000        0.0018690067   0.001769759    0.0012617529   21.129497      0.041476936    18.338784    
   1080000   1.8236714      0.00092287054  1000000        0.0030203489   0.0017328037  -0.001984541    21.131988      0.044805162    18.351812    
   1081000   1.8271755     -0.0014124812   1000000       -0.0019095009  -0.0015170959  -0.00081084682  21.128435      0.043429213    18.344379    
   1082000   1.8337884      0.00096869533  1000000       -0.00075102064  0.0016604441   0.0019966625   21.125244      0.047141594    18.327557    
   1083000   1.8134791     -0.0016301088   1000000       -0.0013308544  -0.0021068102  -0.0014526618   21.115961      0.047633489    18.348245    
   1084000   1.8114995      0.0015567387   1000000        0.0035788426   0.0021832699  -0.0010918965   21.115131      0.052150501    18.345867    
   1085000   1.828369      -0.0002760176   1000000        0.00043102776  0.00053990335 -0.0017989839   21.119163      0.044866925    18.331879    
   1086000   1.8422104      0.0050296696   1000000        0.0028180583   0.0076311687   0.0046397818   21.13592       0.047623034    18.325119    
   1087000   1.8350736      0.0011508212   1000000        0.00051456075  0.0017662318   0.0011716711   21.133895      0.042710757    18.338712    
   1088000   1.8279751     -0.0014370907   1000000       -0.0036292617  -0.0011182934   0.00043628304  21.1258        0.045068652    18.338906    
   1089000   1.825425      -0.003285818    1000000       -0.0030148624  -0.0049176512  -0.0019249404   21.116849      0.043423178    18.335425    
   1090000   1.8174944     -0.00031799094  1000000        8.7812882e-05  0.00039626831 -0.001438054    21.095282      0.044402301    18.324775    
   1091000   1.8216228      0.00089281272  1000000       -0.00055632834  0.0018831364   0.0013516301   21.098404      0.049357677    18.316748    
   1092000   1.8120897      0.0015334166   1000000        0.0025654246   0.0017035733   0.00033125196  21.082642      0.042967563    18.321676    
   1093000   1.8237608      6.054742e-05   1000000        0.00055945235 -0.0012987887   0.0009209786   21.099668      0.044660755    18.319503    
   1094000   1.8171531      0.0025782302   1000000        0.00095628385  0.0017688747   0.0050095319   21.1097        0.0499213      18.334185    
   1095000   1.8229807     -0.0021969613   1000000       -0.0038193402  -0.0026956493  -7.5894275e-05  21.11265       0.04627652     18.332039    
   1096000   1.8153173      0.0023635102   1000000        0.0012316378   0.0065117514  -0.00065285873  21.089927      0.046602684    18.320485    
   1097000   1.82186        0.0022216153   1000000        0.0027257118   0.0031336417   0.00080549245  21.095021      0.048306736    18.314061    
   1098000   1.8025675     -0.00093697568  1000000       -0.00063982181 -0.0011136223  -0.001057483    21.073345      0.045910029    18.323719    
   1099000   1.8078145     -0.00083646631  1000000       -0.0016844146  -0.0028928663   0.002067882    21.083179      0.043786939    18.327806    
   1100000   1.8152135     -0.00091688178  1000000        0.00051283192 -0.003404341    0.00014086369  21.0924        0.047634008    18.322082    
   1101000   1.8104723     -0.0026753558   1000000       -0.0033290718  -0.00087850092 -0.0038184947   21.098113      0.042849347    18.339691    
   1102000   1.8254205     -5.995063e-05   1000000        0.0036921804  -0.0018316798  -0.0020403525   21.108466      0.043768406    18.326703    
   1103000   1.8096238     -0.00064262141  1000000        0.0025499011  -0.0010547656  -0.0034229997   21.094002      0.043863324    18.335838    
   1104000   1.8246253     -0.0016492741   1000000        9.0204455e-05 -0.0037761349  -0.0012618918   21.113087      0.044481501    18.331804    
   1105000   1.8170721      0.0035661371   1000000        0.0042761228   0.00206272     0.0043595685   21.108615      0.044743997    18.338399    
   1106000   1.8210197      0.0040820755   1000000        0.0031090922   0.0062540728   0.0028830615   21.096063      0.04521061     18.31946     
   1107000   1.8109701     -0.00060229937  1000000       -0.0017116313   0.0024011281  -0.0024963949   21.101687      0.040521005    18.344847    
   1108000   1.8276125     -0.0003287657   1000000       -0.0019922315   0.0010284482  -2.2513837e-05  21.10842       0.0441916      18.322947    
   1109000   1.815995       0.0038572065   1000000        0.0063943641   0.0013552776   0.0038219779   21.100335      0.048808155    18.327671    
   1110000   1.8231689     -0.001251657    1000000       -0.0012159817  -0.0020975609  -0.00044142854  21.109936      0.04282399     18.332495    
   1111000   1.8023421     -0.0027408713   1000000       -0.0028564589  -0.0021922442  -0.0031739108   21.103732      0.049806897    18.350547    
   1112000   1.8129397     -0.0018216401   1000000        0.00052357946 -0.0054565187  -0.00053198094  21.100003      0.043204366    18.337525    
   1113000   1.8108161      0.0036103132   1000000        0.0056232609   0.0026698554   0.0025378233   21.096711      0.047521758    18.333101    
   1114000   1.8182897     -0.00059872656  1000000        3.4884989e-05 -0.00051857712 -0.0013124876   21.096358      0.042546866    18.326512    
   1115000   1.8147332     -0.00064608794  1000000       -0.0016328346  -0.0013678545   0.0010624253   21.113208      0.04408607     18.347158    
   1116000   1.812787       0.0013157281   1000000        0.0020295575  -0.0012198212   0.003137448    21.115745      0.048712414    18.347988    
   1117000   1.821139       0.001689861    1000000        0.0013019336   0.00080053622  0.0029671131   21.103051      0.043181283    18.328298    
   1118000   1.8001475     -0.0017050157   1000000       -0.0028913834  -0.0012963121  -0.0009273515   21.086186      0.046159881    18.33994     
   1119000   1.8083158     -0.0016567194   1000000       -0.0013958032  -0.00083718304 -0.0027371719   21.09089       0.04875169     18.3298      
   1120000   1.8286542      0.00069862371  1000000        0.00101807     0.00074053007  0.00033727107  21.11983       0.042515193    18.334471    
   1121000   1.8319616      0.0007796279   1000000        0.0013308477   0.0009868421   2.1193863e-05  21.122406      0.045147767    18.329454    
   1122000   1.8147003      0.0012186526   1000000        0.0044104552  -0.0023763649   0.0016218675   21.103622      0.044476541    18.337231    
   1123000   1.8166313      0.0006211455   1000000        0.0029280653  -0.0015647194   0.00050009062  21.103574      0.048114308    18.330649    
   1124000   1.8117399      0.00014873204  1000000        0.0012485364  -0.0010638232   0.00026148288  21.095837      0.049238976    18.329124    
   1125000   1.8304177      0.0013740699   1000000        0.0006294878   0.0005507447   0.0029419773   21.108966      0.0479653      18.315511    
   1126000   1.8294156      0.00068017761  1000000        2.9143271e-05  0.0029786668  -0.00096727719  21.102324      0.044242725    18.314095    
   1127000   1.823176      -0.00069845143  1000000       -0.0018869609   0.0021715363  -0.0023799296   21.100731      0.045319933    18.320784    
   1128000   1.8175184     -9.7245415e-05  1000000        0.00090874947 -0.00029022908 -0.00091025664  21.110516      0.048423803    18.335951    
   1129000   1.813917      -0.0031582274   1000000       -0.004390029   -0.0043519971  -0.00073265615  21.110332      0.042045032    18.347547    
   1130000   1.8205917     -0.00039429351  1000000       -0.0017647001   0.0018357402  -0.0012539206   21.118205      0.044946951    18.342507    
   1131000   1.8364016      0.0014865956   1000000        0.0014324371   0.0019199458   0.0011074038   21.124825      0.045217278    18.325143    
   1132000   1.8348642      0.0015067765   1000000       -0.0001337409   0.0034325096   0.0012215608   21.113283      0.042155354    18.318969    
   1133000   1.8289697     -0.00077961598  1000000       -0.0017426816   0.0032014596  -0.0037976259   21.114083      0.043672851    18.327093    
   1134000   1.8236304     -0.0011713103   1000000        0.001747855   -0.0024632214  -0.0027985645   21.118282      0.04350878     18.339464    
   1135000   1.8284921      0.00042237092  1000000        0.00040098008  0.00086048254  5.6501457e-06  21.123273      0.046593133    18.334079    
   1136000   1.8327314      0.00031966855  1000000        0.0011132729   0.00036751482 -0.00052178203  21.123177      0.045200649    18.329017    
   1137000   1.8120261     -6.9254568e-05  1000000       -0.00022167675 -0.00043276602  0.00044667907  21.107161      0.042644909    18.346613    
   1138000   1.8024958      0.00029349553  1000000        0.0017488345   0.00060376063 -0.0014721085   21.092412      0.049209481    18.339594    
   1139000   1.8131261     -0.0012235513   1000000       -3.0956368e-05 -0.0020028082  -0.0016368894   21.102435      0.040542462    18.34234     
   1140000   1.8204378     -0.00029366857  1000000        0.0020546459  -0.0034762336   0.00054058206  21.117387      0.044249242    18.342618    
   1141000   1.8109751     -0.00041326707  1000000       -0.00084105769 -0.00094099366  0.00054225016  21.101613      0.045376137    18.33991     
   1142000   1.8265941      0.0007098658   1000000        3.0711007e-05  0.0021150691  -1.6182742e-05  21.098693      0.042188528    18.316751    
   1143000   1.8220672      0.0030291318   1000000        0.0032739647   0.0018531477   0.0039602829   21.1027        0.045477822    18.324258    
   1144000   1.813184       0.0022938871   1000000        0.0015700486   0.0028351024   0.0024765102   21.099108      0.048501256    18.330967    
   1145000   1.8227916     -0.00042719477  1000000        0.00062423533  0.0011701351  -0.0030759547   21.103489      0.041439119    18.327999    
   1146000   1.8239529     -0.00062771249  1000000       -0.00010925946 -0.0020110502   0.00023717218  21.107266      0.041949276    18.329524    
   1147000   1.8205085      0.00013244665  1000000        0.00080082036 -0.0012154688   0.00081198836  21.110209      0.0452472      18.334335    
   1148000   1.8209977      0.0006047629   1000000       -0.00037147429 -0.002015808    0.004201571    21.110671      0.045218624    18.334092    
   1149000   1.8280597     -0.00029773269  1000000       -0.0023665839   0.00123938     0.00023400582  21.107084      0.037780086    18.327352    
   1150000   1.8252003      0.0027363925   1000000        0.0012991733   0.003922488    0.0029875162   21.116752      0.046753181    18.332335    
   1151000   1.8173051      0.00058238876  1000000        0.00054554875 -0.00072132919  0.0019229467   21.097936      0.045163269    18.326951    
   1152000   1.8262005      0.00070224165  1000000        0.0031434493   0.0015253417  -0.002562066    21.107399      0.044514038    18.323721    
   1153000   1.8262823      0.00081190163  1000000       -0.00056364934  0.0046842186  -0.0016848643   21.120962      0.044963178    18.336712    
   1154000   1.8323911      0.001116465    1000000       -0.0007798532   0.00048463634  0.0036446119   21.112184      0.045668671    18.318066    
   1155000   1.8304075     -0.00056923384  1000000       -0.0027264845  -0.00030542055  0.0013242035   21.106928      0.046650186    18.314804    
   1156000   1.812592      -0.001088433    1000000        0.00010014265 -0.00095892373 -0.0024065179   21.103992      0.046222376    18.339018    
   1157000   1.8170499      0.001372469    1000000        0.0040937688  -0.00075129784  0.00077493621  21.099258      0.049865674    18.323954    
   1158000   1.8228525      0.0010475662   1000000        0.0020296294   0.0014275376  -0.00031446853  21.108757      0.043844996    18.33077     
   1159000   1.8139002     -0.00098080587  1000000       -0.00084945952 -0.0014469144  -0.00064604375  21.105786      0.046454886    18.338616    
   1160000   1.8129428      3.857387e-05   1000000       -0.00073302392 -0.00046923405  0.0013179796   21.109629      0.044006097    18.346344    
   1161000   1.8357803      0.0019185345   1000000        0.00086379609  0.004714492    0.00017731557  21.105783      0.047230062    18.30502     
   1162000   1.8359564      0.0013897969   1000000       -0.00033520729  0.0011609419   0.003343656    21.109169      0.04668642     18.308686    
   1163000   1.82417        0.00028634101  1000000       -0.0018433214   0.0033347025  -0.00063235808  21.109263      0.044445332    18.328699    
   1164000   1.8258822     -0.00087160175  1000000       -0.0013671166   0.000964768   -0.0022124566   21.103345      0.041810589    18.322848    
   1165000   1.8237332      0.0014050187   1000000        0.0010441077   0.0021009309   0.0010700174   21.098651      0.043116191    18.320072    
   1166000   1.8241285     -0.00010701436  1000000       -0.00047617646 -0.00054493163  0.000700065    21.104498      0.04431372     18.324128    
   1167000   1.8220824     -0.00065810494  1000000       -0.00052594147  0.0011630964  -0.0026114698   21.119498      0.043897122    18.342614    
   1168000   1.8191302     -0.0011126465   1000000       -0.0028347128   0.00059854285 -0.0011017696   21.098807      0.043423545    18.326825    
   1169000   1.8102152     -0.0019367491   1000000       -0.003710037   -0.00075414336 -0.0013460669   21.08442       0.046575449    18.322657    
   1170000   1.8170095      0.0020818497   1000000        0.002340066    0.0021422249   0.0017632582   21.083652      0.042321776    18.315952    
   1171000   1.8207615      0.0043390937   1000000        0.001294483    0.0045030719   0.0072197263   21.09528       0.042716384    18.321558    
   1172000   1.8098459     -0.00053792864  1000000       -0.002038018   -0.00069779859  0.0011220307   21.085835      0.044421313    18.326781    
   1173000   1.8065736      0.0020405093   1000000        0.00022921265  0.0041694407   0.0017228745   21.08749       0.041697331    18.336068    
   1174000   1.8261217     -0.00010833812  1000000       -0.00079616047  0.00074436229 -0.00027321619  21.098708      0.044042086    18.31562     
   1175000   1.8176808      0.0017116833   1000000        0.001139753    0.00093294833  0.0030623487   21.098308      0.042498134    18.329425    
   1176000   1.8127342      0.0019772858   1000000        0.0016103989   0.0028114405   0.0015100182   21.099111      0.045297802    18.334848    
   1177000   1.8188593     -0.00041437553  1000000       -0.00057859972 -0.0016194897   0.00095496281  21.098875      0.043261931    18.327461    
   1178000   1.8121328      0.0010768382   1000000       -0.00058665358  0.0014460954   0.0023710729   21.086254      0.042899792    18.325291    
   1179000   1.8159812      0.0011787932   1000000        0.0023767493  -0.00028222914  0.0014418594   21.09783       0.045708522    18.328285    
   1180000   1.8157287      0.00038365426  1000000        0.0029292919  -0.00018082183 -0.0015975073   21.099723      0.043867079    18.332399    
   1181000   1.8068392      0.00058250822  1000000        0.00049296366  0.0024219601  -0.0011673991   21.104038      0.048021978    18.345893    
   1182000   1.8076451      0.00072741641  1000000        0.00058151264 -0.0024790528   0.0040797894   21.109798      0.04875394     18.349712    
   1183000   1.8259215      8.879156e-05   1000000       -0.0013214785   0.0004313734   0.0011564798   21.11569       0.043974474    18.33297     
   1184000   1.8258216     -0.0011170462   1000000       -0.0039286673   0.0017847211  -0.0012071925   21.116663      0.045377009    18.332691    
   1185000   1.8331847      0.0015755407   1000000        0.0030371755   0.0015690513   0.00012039516  21.103984      0.042226795    18.312118    
   1186000   1.8144281      0.0021976114   1000000        0.0014056299   0.0010414767   0.0041457276   21.090386      0.042747693    18.326132    
   1187000   1.8050508     -0.0021744369   1000000       -0.0029741358  -0.00034011192 -0.003209063    21.087334      0.044903334    18.33499     
   1188000   1.8060885     -8.1564276e-05  1000000        0.0006178789  -0.0014694989   0.0006069272   21.08356       0.049256784    18.325306    
   1189000   1.8255111      0.00016898535  1000000        0.00036908733 -0.00070049701  0.00083836574  21.095085      0.041877088    18.315078    
   1190000   1.8144686     -0.0010654048   1000000       -0.0019648523  -0.0001673929  -0.0010639692   21.099663      0.040887533    18.337208    
   1191000   1.8177634      3.6496589e-05  1000000       -0.00095490376  0.0021863964  -0.0011220029   21.104125      0.045433705    18.332182    
   1192000   1.824649      -8.27199e-05    1000000        1.0217968e-05 -6.6213205e-05 -0.00019216446  21.114828      0.045442822    18.332548    
   1193000   1.8193503     -0.0012188152   1000000       -0.00098659333 -0.0011815741  -0.001488278    21.11812       0.043281502    18.345949    
   1194000   1.8204789      0.00056270851  1000000       -0.00062410036  0.00034994529  0.0019622806   21.103226      0.041427763    18.331216    
   1195000   1.8238585      0.0013417784   1000000        0.0007331893  -8.3112143e-05  0.0033752581   21.09099       0.041860322    18.313479    
   1196000   1.8101759      0.0012172499   1000000       -0.00097028421  2.9241357e-06  0.0046191098   21.079309      0.044169073    18.320012    
   1197000   1.7887669      0.0011945644   1000000       -0.002469645    0.002773776    0.0032795622   21.064279      0.047831999    18.333431    
   1198000   1.8182727      0.00077761048  1000000       -0.0010175784   0.0015872762   0.0017631336   21.070535      0.044637724    18.298625    
   1199000   1.8127003      0.001550547    1000000        0.00032407681  0.0020209167   0.0023066474   21.079579      0.047585858    18.313079    
   1200000   1.8115912      0.0024141172   1000000        0.0022430919   0.00055131859  0.0044479411   21.078176      0.046732184    18.314193    
   1201000   1.810102       0.0027702864   1000000        0.003796618    0.0013339444   0.0031802968   21.080771      0.045078246    18.320675    
   1202000   1.7986427     -0.0025115451   1000000        0.0021031846  -0.0043246603  -0.0053131596   21.070867      0.043445012    18.329593    
   1203000   1.8144994      0.00019138213  1000000       -0.0005707514   0.00083053026  0.00031436754  21.09267       0.045363377    18.325693    
   1204000   1.830817       0.003148638    1000000        0.0027005402   0.0041024791   0.0026428947   21.113301      0.045380179    18.321832    
   1205000   1.8309701     -0.00079222766  1000000       -0.00054040801 -0.0011625346  -0.00067374042  21.127446      0.045031548    18.336097    
   1206000   1.8345795     -0.0027291548   1000000       -0.0017406115  -0.0040671115  -0.0023797415   21.130702      0.040855542    18.338115    
   1207000   1.8358479      0.00019994674  1000000        0.0012413387   0.00092938046 -0.001570879    21.125433      0.047791205    18.324007    
   1208000   1.8368541      0.00081555363  1000000       -0.00038357729  0.002961208   -0.00013096985  21.132105      0.045396317    18.331565    
   1209000   1.8369661     -0.00022012843  1000000        0.00030826166  0.00020421336 -0.0011728603   21.135518      0.048727631    18.331479    
   1210000   1.8288306      0.00076513922  1000000        0.0018197472   0.0014162714  -0.00094060087  21.132126      0.049641198    18.339376    
   1211000   1.8168535      0.00037577009  1000000        0.0010559244  -0.0010860116   0.0011573975   21.116836      0.043708348    18.347983    
   1212000   1.8178213     -0.002019923    1000000       -0.0058333713  -0.0032082507   0.0029818531   21.11748       0.047608853    18.343275    
   1213000   1.808042      -0.0006493424   1000000       -0.0012100732  -0.00035423989 -0.00038371417  21.098007      0.043852713    18.342227    
   1214000   1.8181754      0.0012628631   1000000        0.0023079304   0.0022552606  -0.0007746017   21.122268      0.044957485    18.350183    
   1215000   1.8339537     -0.00074222544  1000000        0.0014749276  -0.0014380265  -0.0022635774   21.130662      0.044871271    18.334997    
   1216000   1.8325114      0.0010973263   1000000        0.0022174037   0.0028341314  -0.0017595561   21.124606      0.043662249    18.332314    
   1217000   1.8387595      0.00059341485  1000000        0.00082433465  0.0036279119  -0.002672002    21.127888      0.042886251    18.327       
   1218000   1.8243175     -0.00047094018  1000000       -0.0014452336  -8.6722452e-05  0.00011913553  21.122283      0.042556213    18.343387    
   1219000   1.8348236      0.0005224039   1000000       -0.00084450336  0.0016818141   0.00072990092  21.12157       0.045130073    18.324343    
   1220000   1.8278735      0.000872889    1000000       -0.00058059861  0.0023183221   0.00088094355  21.114988      0.043406632    18.329908    
   1221000   1.8256304      0.0022571129   1000000        0.0024124102   0.0035245248   0.00083440371  21.105841      0.044478001    18.323054    
   1222000   1.8218069      0.00038878143  1000000       -0.00016667375  0.0015310269  -0.00019800885  21.106883      0.047298941    18.32701     
   1223000   1.8335088      0.00086355181  1000000        0.0017770419   0.0012495773  -0.00043596377  21.106577      0.042531964    18.31392     
   1224000   1.8316743      0.0010422718   1000000        0.004680775   -0.0029716498   0.0014176902   21.11636       0.045596755    18.323389    
   1225000   1.8348003     -5.4547518e-05  1000000        0.00098685724 -0.00046402059 -0.00068647921  21.122303      0.047613042    18.322627    
   1226000   1.8260782      0.00083314363  1000000        0.0016656757   0.00067110816  0.00016264699  21.118264      0.041320422    18.337963    
   1227000   1.8288549      0.0026467542   1000000        0.0016811498   0.003329725    0.002929388    21.119812      0.044600376    18.332067    
   1228000   1.8241975      0.0019600736   1000000       -0.0022078446   0.0051217168   0.0029663486   21.107755      0.044042315    18.327554    
   1229000   1.8181519      0.0041262898   1000000        0.0018912805   0.0056657817   0.0048218072   21.089142      0.048708832    18.313342    
   1230000   1.8164899      0.0019356406   1000000        0.0019920797   0.0022122228   0.0016026194   21.087991      0.046097247    18.317295    
   1231000   1.8278825     -0.00072004026  1000000        0.00073915765 -0.0017530772  -0.0011462013   21.102143      0.042521266    18.317935    
   1232000   1.8138091      9.5180815e-05  1000000        0.0010405956  -0.0018268696   0.0010718164   21.086501      0.044470344    18.321453    
   1233000   1.8064371      0.00069071895  1000000        0.0028866049  -0.0009435857   0.00012913768  21.082522      0.042947706    18.330055    
   1234000   1.8118565      0.00023212935  1000000       -0.00053329122 -0.0003696723   0.0015993516   21.085065      0.044680064    18.322736    
   1235000   1.813476       0.0024987598   1000000        0.0034330803   0.001514534    0.0025486651   21.074022      0.043617513    18.310327    
   1236000   1.8143291      0.0030323341   1000000        0.0050771123   0.0033534567   0.0006664332   21.082774      0.043830987    18.317586    
   1237000   1.8199249     -9.7284019e-06  1000000        0.001489732    0.001132358   -0.0026512752   21.084123      0.040497689    18.313874    
   1238000   1.8268328      0.0031725493   1000000        0.0023592333   0.0036035068   0.0035549077   21.097953      0.046443375    18.311398    
   1239000   1.8272755      0.00075512028  1000000        0.00034220554  0.0012610659   0.00066208939  21.115748      0.04255097     18.332421    
   1240000   1.8356921      0.00098788063  1000000        0.0012282691   0.00029568395  0.0014396889   21.126263      0.044293213    18.328569    
   1241000   1.8302446      0.00066627347  1000000       -0.00036969325 -0.0011351696   0.0035036833   21.113827      0.045919839    18.322677    
   1242000   1.8415373      0.00050970182  1000000       -0.0028454458   0.0011637847   0.0032107666   21.122724      0.045167767    18.315388    
   1243000   1.8152914     -0.00025516362  1000000       -0.0034937851   0.0013987142   0.0013295801   21.114331      0.042871804    18.348658    
   1244000   1.8197793      0.00032692935  1000000        0.001059519   -0.00046774358  0.00038901259  21.114563      0.042972088    18.342059    
   1245000   1.8359032      0.0014101862   1000000        0.00048276194  0.0021179138   0.0016298827   21.118695      0.043623545    18.321355    
   1246000   1.8278854      0.0038066538   1000000        0.0023688849   0.0045950048   0.0044560718   21.115949      0.04852944     18.325728    
   1247000   1.825663      -0.0022687205   1000000       -0.0031018605  -0.003771658    6.7356913e-05  21.113646      0.043838666    18.331449    
   1248000   1.8227821      0.00021858679  1000000        0.0013850228   0.00094149733 -0.0016707597   21.108279      0.041687984    18.332555    
   1249000   1.8216964      0.0020213447   1000000        0.00127186     0.0038665401   0.00092563399  21.091308      0.046184549    18.312716    
   1250000   1.8111689      0.00082568596  1000000        0.0007657417  -0.00040714291  0.0021184591   21.081784      0.045031492    18.320135    
   1251000   1.8037127      0.0018356956   1000000        0.0018559427   0.0011893328   0.0024618114   21.067702      0.045709363    18.316559    
   1252000   1.8108736      0.0016934819   1000000        0.0010994452   0.0021311341   0.0018498665   21.065414      0.043671044    18.305568    
   1253000   1.8115586      0.0007413229   1000000        0.0015461689  -0.00078014984  0.0014579496   21.084582      0.042273377    18.325107    
   1254000   1.8074449     -0.0021793944   1000000       -0.00051814761 -0.0034398437  -0.0025801918   21.086277      0.040685887    18.33456     
   1255000   1.825202       6.9792057e-05  1000000        0.00042170776  0.0032344891  -0.0034468207   21.095397      0.044634292    18.313097    
   1256000   1.8205879      0.0028542048   1000000        0.0024642031   0.0025774565   0.0035209548   21.10241       0.040756181    18.330909    
   1257000   1.8166071      0.0020142299   1000000        0.00051322435  0.0034590182   0.0020704473   21.083074      0.045401312    18.312898    
   1258000   1.8079794      0.00017667938  1000000       -0.00050871211  0.0025744977  -0.0015357474   21.079097      0.043652437    18.323611    
   1259000   1.8037998     -0.00083893504  1000000        9.0630509e-05 -0.0031897642   0.00058232859  21.082192      0.045709771    18.330918    
   1260000   1.8147363     -0.0013527349   1000000        0.0022178095  -0.0043333083  -0.001942706    21.085422      0.044318429    18.319136    
   1261000   1.8056392     -0.0003213028   1000000        0.0004181867  -0.00074820872 -0.00063388638  21.081086      0.04896201     18.323801    
   1262000   1.8089696     -0.0018333125   1000000       -0.0011758423  -0.001574804   -0.0027492914   21.086902      0.045976182    18.327607    
   1263000   1.809559      -0.001196479    1000000       -0.00092167739 -0.0011695811  -0.0014981785   21.076498      0.041962029    18.320333    
   1264000   1.8128332      0.0013630732   1000000        0.0019353946   0.00128546     0.00086836509  21.079567      0.047501214    18.312952    
   1265000   1.8124237     -0.0014654604   1000000       -0.00051035318 -0.0023286368  -0.0015573913   21.091467      0.044430389    18.328537    
   1266000   1.8049569     -0.00046572602  1000000       -0.00014987774  0.001780999   -0.0030282993   21.090981      0.044427508    18.339254    
   1267000   1.8048958     -0.0019085644   1000000       -0.00085784655 -0.0016959126  -0.0031719339   21.072507      0.045012196    18.320287    
   1268000   1.8186052      0.0030165632   1000000        0.00305982     0.0020903803   0.0038994892   21.086636      0.047757559    18.311107    
   1269000   1.8134436      0.00085899602  1000000        0.00014243804 -0.00043978417  0.0028743342   21.079297      0.040439671    18.318828    
   1270000   1.8120965     -0.00062026448  1000000       -0.0014728901   0.0015895473  -0.0019774506   21.085123      0.046148695    18.320965    
   1271000   1.8218572      0.00054520817  1000000        3.6784961e-05  0.0011185568   0.00048028274  21.088498      0.043502423    18.312346    
   1272000   1.8142514      0.00054029692  1000000        0.0028452197  -0.001700893    0.00047656402  21.088393      0.045836079    18.321316    
   1273000   1.8096785     -0.00088242412  1000000        0.00046032276 -0.00014240706 -0.0029651881   21.086413      0.044322809    18.327708    
   1274000   1.8046319      0.0011617656   1000000       -0.00052148028  0.00026879101  0.0037379861   21.081236      0.04385695     18.330567    
   1275000   1.8013252      0.0019836992   1000000        0.0020644959   0.0038925746  -5.9727409e-06  21.083725      0.045739996    18.336132    
   1276000   1.8107322     -0.0009813743   1000000        0.0012597418  -0.0037235944  -0.00048027022  21.101114      0.045392417    18.339759    
   1277000   1.816272       0.00026135536  1000000        0.00061767099 -0.00099154626  0.0011579414   21.104306      0.045099169    18.334936    
   1278000   1.8131801      0.001538658    1000000        0.001375133    0.00055505096  0.0026857901   21.101112      0.04112047     18.340357    
   1279000   1.8045557      0.0001423227   1000000        0.0020644139  -0.0038301503   0.0021927045   21.094024      0.04477459     18.342551    
   1280000   1.8287943      0.00087593841  1000000        0.0029380452  -0.0016799922   0.0013697623   21.116434      0.044516737    18.328863    
   1281000   1.8284813     -0.00181864     1000000       -0.00059069686 -0.0013318391  -0.0035333841   21.113945      0.041955327    18.329405    
   1282000   1.8155866     -0.00095800987  1000000       -0.0018509193   0.00047173758 -0.0014948479   21.106955      0.048426253    18.335285    
   1283000   1.8260527      0.0021002392   1000000        0.0047751324   2.5254962e-05  0.0015003301   21.10606       0.043615907    18.323502    
   1284000   1.8164264      0.0048509959   1000000        0.0058862454   0.0055527091   0.0031140331   21.104786      0.04473871     18.335544    
   1285000   1.8238248      0.00062010661  1000000        0.0005029976   0.00067564451  0.00068167771  21.113888      0.045789164    18.332498    
   1286000   1.8195829      0.0018501664   1000000        0.0004576196  -0.0021500311   0.0072429107   21.118683      0.045796971    18.343648    
   1287000   1.8261248      0.0036252028   1000000        0.0051466659   0.0021664062   0.0035625364   21.102156      0.04289328     18.320212    
   1288000   1.817257       0.0026885548   1000000        0.0034207714   0.0018157198   0.0028291734   21.122803      0.050733881    18.34632     
   1289000   1.8301335     -0.0007689409   1000000       -0.0010745217   4.7234921e-05 -0.0012795359   21.121603      0.041795827    18.334745    
   1290000   1.8149626      0.0025952882   1000000        0.0025876663   0.0044732156   0.00072498278  21.105036      0.051849172    18.330879    
   1291000   1.8186387      0.001796109    1000000        0.00011272236  0.0045174141   0.00075819062  21.102036      0.043875324    18.330339    
   1292000   1.821297       0.0025389263   1000000        0.00067031658  0.0042691394   0.0026773228   21.089427      0.044605593    18.313013    
   1293000   1.8164194      0.0036660237   1000000        0.002358069    0.0043612749   0.0042787273   21.096696      0.043272467    18.328931    
   1294000   1.8156056      0.0021282557   1000000        0.0041349003  -0.00011774951  0.0023676163   21.110987      0.045810489    18.341904    
   1295000   1.8208835      0.0017265725   1000000        0.0024141932  -0.00014659893  0.0029121233   21.091503      0.043175363    18.317139    
   1296000   1.8080873      0.0015194801   1000000        0.003688599   -0.00033859376  0.0012084352   21.076379      0.04205366     18.322331    
   1297000   1.8019314     -0.0022805654   1000000        0.0022056191  -0.0049552134  -0.0040921019   21.075932      0.045374896    18.327795    
   1298000   1.80767       -0.00094181795  1000000        0.0016736744  -0.0011972828  -0.0033018454   21.084579      0.044886112    18.328324    
   1299000   1.8153811      0.0011421475   1000000        0.0023615718   0.00064810823  0.00041676243  21.088115      0.043555447    18.321624    
   1300000   1.8070316     -0.0016878715   1000000       -0.0026589762  -0.0017406964  -0.00066394184  21.090946      0.048235213    18.332299    
   1301000   1.8012738     -0.0038237678   1000000       -0.0054032069  -0.0031570529  -0.0029110435   21.09482       0.044892524    18.348152    
   1302000   1.8131308      0.0011864554   1000000       -0.0019331739   0.0010311604   0.0044613797   21.091947      0.04831468     18.324072    
   1303000   1.8119494      2.0975391e-05  1000000        0.0014497785  -0.0035564842   0.0021696319   21.094338      0.049227147    18.327322    
   1304000   1.8064347     -0.0016305846   1000000       -0.0007214999  -0.00099082356 -0.0031794304   21.083038      0.046870551    18.326651    
   1305000   1.8072615      0.00020764275  1000000       -0.000743708   -0.00024134579  0.001607982    21.068548      0.042721585    18.315069    
   1306000   1.7994122      0.0023552496   1000000        0.00029707118  0.0030781512   0.0036905265   21.0585        0.046509385    18.313008    
   1307000   1.8012029      0.0016951172   1000000        0.0018287751   0.0029975051   0.00025907131  21.055955      0.040526376    18.313759    
   1308000   1.8118471      0.0031788273   1000000        0.0038329195   0.0052842195   0.00041934287  21.077955      0.045170437    18.31515     
   1309000   1.7953112      0.0022610187   1000000       -0.00095777066  0.0046306809   0.0031101458   21.055638      0.042038003    18.320768    
   1310000   1.8140429      0.0019154516   1000000        0.0019586642   0.003933529   -0.00014583826  21.076689      0.046406356    18.309354    
   1311000   1.8176455      0.00060948324  1000000        0.0017424991  -0.00063707452  0.00072302513  21.085755      0.046986036    18.312437    
   1312000   1.8238073      0.0005814194   1000000        0.0028818049  -0.0014209891   0.00028344232  21.106165      0.04731244     18.323279    
   1313000   1.8290743      0.0010517391   1000000        0.0018120746  -0.0003989121   0.0017420548   21.128316      0.042093215    18.342749    
   1314000   1.8144746      0.0010077185   1000000        0.00082641264  0.00071220332  0.0014845394   21.113766      0.04540606     18.346784    
   1315000   1.8318622      0.0017145303   1000000        0.002146434    0.0031045832  -0.00010742612  21.10856       0.043578678    18.317326    
   1316000   1.8092588      0.001461591    1000000        0.0022938698   0.00037357821  0.001717325    21.089245      0.044047847    18.331445    
   1317000   1.8176501      0.0013379754   1000000        0.00091681751  0.00030631102  0.0027907977   21.113457      0.046135311    18.340983    
   1318000   1.8208101      0.0030418463   1000000        0.0049006218   0.0020278929   0.0021970241   21.104021      0.045894055    18.327049    
   1319000   1.8120427      0.001856561    1000000        0.00077090662  0.0034036434   0.0013951331   21.098257      0.043700147    18.336628    
   1320000   1.8096295      0.00047409547  1000000       -0.00037898337  0.0017833374   1.7932354e-05  21.087411      0.044039503    18.329063    
   1321000   1.8051808     -0.0012463145   1000000       -0.0028957148  -0.0013171251   0.00047389637  21.088046      0.047168845    18.333242    
   1322000   1.8011281     -0.0001840299   1000000       -0.00052472147  0.00073705767 -0.0007644259   21.081148      0.04498208     18.334609    
   1323000   1.7999791     -0.00048507927  1000000        0.0010869625  -0.0017485561  -0.00079364416  21.072352      0.046192       18.326327    
   1324000   1.8061196      0.0040101868   1000000        0.0031966105   0.0049329491   0.003901001    21.063222      0.043820544    18.310357    
   1325000   1.8030709      0.0016787343   1000000        0.0033494571   0.0015154849   0.00017126093  21.07232       0.045378926    18.32247     
   1326000   1.7854581     -0.001034878    1000000        0.0021260419  -0.00099770487 -0.004232971    21.052779      0.042432164    18.332293    
   1327000   1.7995068      0.00042427868  1000000       -0.00082165004  0.0019480433   0.00014644282  21.06992       0.046875891    18.323919    
   1328000   1.8225883      0.0023590411   1000000        0.0012827831   0.0035111112   0.0022832288   21.081445      0.044197888    18.303501    
   1329000   1.8134359      0.00095411229  1000000        0.0010422412   0.00041990895  0.0014001867   21.075886      0.040844924    18.315023    
   1330000   1.8117981     -0.0013820409   1000000       -0.00045229351 -0.0016867229  -0.0020071063   21.079274      0.046778917    18.314934    
   1331000   1.8162917     -0.00042436918  1000000       -0.0016712781   0.0022768331  -0.0018786625   21.084604      0.042709762    18.317593    
   1332000   1.8115099      0.0014535193   1000000       -0.00014151746  0.0012886056   0.0032134699   21.082256      0.047758304    18.317368    
   1333000   1.8154063     -0.00098618264  1000000       -0.00095005827 -0.0021567691   0.00014827948  21.095674      0.046872938    18.325828    
   1334000   1.8171509     -0.002069667    1000000       -0.00070407078 -0.0029281919  -0.0025767385   21.085285      0.04427858     18.315416    
   1335000   1.8176577     -0.00066629862  1000000        3.3003976e-05 -0.0022816102   0.00024971036  21.077905      0.047540866    18.304014    
   1336000   1.8020395      0.00067828253  1000000       -0.0025923682   0.0013563634   0.0032708524   21.081403      0.046362547    18.332116    
   1337000   1.8150848      0.00075648889  1000000        0.0014146013   0.00090809469 -5.3229358e-05  21.102087      0.046580138    18.333016    
   1338000   1.8120915      0.00082747131  1000000        0.0015395382   8.5419139e-05  0.00085745659  21.097312      0.046743919    18.332567    
   1339000   1.8111597      0.0024351985   1000000        0.00066088772  0.0040150333   0.0026296746   21.092129      0.043578796    18.331946    
   1340000   1.8131265      0.00017993421  1000000        0.0014203002  -0.0014834678   0.00060297019  21.102067      0.045331453    18.337182    
   1341000   1.8154923     -0.0010560247   1000000        0.00032061715 -0.0020543505  -0.0014343406   21.090885      0.042740013    18.325043    
   1342000   1.7943899     -0.00247541     1000000       -0.0029887851  -0.0025925876  -0.0018448571   21.073051      0.046377505    18.335223    
   1343000   1.8005276     -0.0022371632   1000000       -0.001959275   -0.0032623363  -0.0014898782   21.070946      0.046729516    18.32356     
   1344000   1.815985       0.0018497751   1000000        0.00219322    -0.0002366679   0.0035927733   21.081997      0.044120254    18.314036    
   1345000   1.8236368      0.0024997108   1000000        0.0024441524   0.00093469266  0.0041202875   21.088595      0.045989047    18.307287    
   1346000   1.8187061      0.00026533192  1000000        0.00017395835 -0.0025460967   0.0031681342   21.090001      0.043870783    18.318207    
   1347000   1.8155108     -0.00156221     1000000       -0.0024387902  -0.001285997   -0.00096184292  21.08559       0.047548348    18.314912    
   1348000   1.8067468      0.0010342254   1000000        0.0013050514   0.001365671    0.0004319539   21.073677      0.047012592    18.31668     
   1349000   1.8065094      0.0010752954   1000000        0.00071253198  0.0020090373   0.00050431697  21.074067      0.045359897    18.319078    
   1350000   1.8004902     -0.00030076323  1000000       -0.00071790727  0.0015191337  -0.0017035162   21.073805      0.046758104    18.326447    
   1351000   1.8057954      0.00045071092  1000000        0.0017337584   0.00031435511 -0.00069598073  21.070997      0.045297328    18.317142    
   1352000   1.8079776      0.0012677822   1000000        0.0015749733  -0.00055053861  0.0027789118   21.071505      0.04306841     18.316606    
   1353000   1.8170858     -0.0011387147   1000000       -0.0024861241   0.00051166173 -0.0014416819   21.086712      0.040649957    18.32057     
   1354000   1.7969692     -0.0012682938   1000000       -0.00013497622 -0.0025091144  -0.0011607909   21.073634      0.046700338    18.331615    
   1355000   1.7941346      0.00033367605  1000000       -0.002097982    0.0013310217   0.0017679884   21.070866      0.047031081    18.332768    
   1356000   1.8111935      0.00066008958  1000000       -0.0012615256   6.815077e-05   0.0031736436   21.085434      0.046091997    18.322687    
   1357000   1.8142772      0.00032287406  1000000        0.0030144837  -0.00038229817 -0.0016635634   21.092107      0.044431655    18.326396    
   1358000   1.8001432      0.00018089284  1000000        0.0029742225  -0.0026850771   0.00025353318  21.088432      0.048207989    18.340144    
   1359000   1.8042953      0.00025972891  1000000        0.0021001303  -0.001301152   -1.9791565e-05  21.083272      0.046857992    18.330106    
   1360000   1.8043569     -0.0015718655   1000000       -0.00089075235 -0.00096715278 -0.0028576915   21.074803      0.04438628     18.324017    
   1361000   1.8133617      0.00059517848  1000000        0.0017019709  -0.00021370955  0.00029727407  21.084187      0.044751909    18.319529    
   1362000   1.8046858     -0.00024905405  1000000       -0.00042278932 -0.0013344126   0.0010100398   21.089239      0.044723002    18.337623    
   1363000   1.8237528      0.0020278625   1000000        0.0014234386   0.0022952888   0.0023648601   21.105269      0.04159385     18.328183    
   1364000   1.8274082     -0.00036371406  1000000        0.0011510604  -0.0011231715  -0.0011190311   21.110545      0.045057336    18.324512    
   1365000   1.8157433      0.0020879741   1000000        0.0048051076   0.002147446   -0.00068863138  21.10119       0.048399579    18.329311    
   1366000   1.8276491     -0.00038385512  1000000        0.0026699994   0.00022748988 -0.0040490547   21.094184      0.040929359    18.311918    
   1367000   1.8062361     -0.0035426886   1000000       -0.003290817   -0.0047929151  -0.0025443337   21.095554      0.045426913    18.340908    
   1368000   1.82961        0.0015895651   1000000        0.0037872352   0.001339679   -0.00035821888  21.102398      0.045670795    18.312449    
   1369000   1.8100445      0.00088720568  1000000        0.00038213515  0.0030647399  -0.00078525804  21.088746      0.04503569     18.328779    
   1370000   1.816576      -0.00040838747  1000000       -0.0013599679   0.00062984548 -0.00049503997  21.098607      0.045352279    18.328527    
   1371000   1.8125034     -0.0018546048   1000000        0.00070852126 -0.0037643515  -0.0025079841   21.097747      0.043219448    18.335908    
   1372000   1.8117191      0.002182685    1000000        0.0029471184   0.0016787425   0.0019221939   21.088389      0.04224443     18.328702    
   1373000   1.8083398      0.002440117    1000000        0.0016791088   0.0021938334   0.0034474089   21.09298       0.046851567    18.333755    
   1374000   1.8048917      0.0013095005   1000000        0.0013805568   0.0021420348   0.00040590998  21.074241      0.045944959    18.321094    
   1375000   1.8096106      0.002041275    1000000        0.0025022876   0.0026344672   0.00098707008  21.084871      0.044932631    18.325658    
   1376000   1.8180595      0.0017235364   1000000        0.00020988535  0.0023874664   0.0025732574   21.089561      0.044541519    18.318066    
   1377000   1.8110274     -0.0014690357   1000000       -0.0047289148   0.0011646191  -0.00084281151  21.085341      0.04671955     18.322216    
   1378000   1.8157785     -0.0043242953   1000000       -0.0053931365  -0.0022555215  -0.005324228    21.083842      0.040969888    18.319341    
   1379000   1.8199006      0.0012973064   1000000        0.00054164256  0.0028551399   0.00049513672  21.080194      0.038721166    18.311758    
   1380000   1.8135063      0.0050960464   1000000        0.0041926085   0.0053006006   0.00579493     21.083149      0.046057187    18.316968    
   1381000   1.8239796      0.00065321321  1000000        0.0014546406  -0.00032277423  0.00082777322  21.087268      0.045192739    18.306242    
   1382000   1.8093084      0.0018771975   1000000        0.0034061647   4.7427752e-05  0.0021779999   21.086563      0.053508034    18.319228    
   1383000   1.8114989      0.0032622747   1000000        0.0038800942   0.0038760465   0.0020306833   21.082943      0.045358084    18.320472    
   1384000   1.8071965      0.00060780963  1000000        0.00081500357 -0.00030524418  0.0013136695   21.076887      0.042105369    18.324123    
   1385000   1.8001826     -0.00037725541  1000000       -0.00055847222 -0.00096278064  0.00038948661  21.064888      0.045385068    18.319364    
   1386000   1.8068007      0.0010539991   1000000        0.0011326389   0.0025165484  -0.00048718993  21.072351      0.041469975    18.320816    
   1387000   1.7943556      3.2958024e-05  1000000        0.0013764004   0.00097273331 -0.0022502596   21.085935      0.046444197    18.348092    
   1388000   1.8132735     -0.002078729    1000000       -0.0026801433  -0.0016969054  -0.0018591384   21.095697      0.043565503    18.332357    
   1389000   1.8138045      0.00053496035  1000000        4.0421572e-05 -0.00049807012  0.0020625296   21.098336      0.047955022    18.32981     
   1390000   1.8152808      0.001151846    1000000        0.0016553482  -0.0028117307   0.0046119205   21.105267      0.04884909     18.333633    
   1391000   1.8132592      0.0012483736   1000000        0.00058235532  0.0024934515   0.00066931399  21.095896      0.045685407    18.330458    
   1392000   1.8196549      0.00055509079  1000000       -0.001187353    0.0016781074   0.001174518    21.091193      0.046326614    18.31552     
   1393000   1.8215192     -0.00076686372  1000000       -0.00060661119  5.1669156e-05 -0.0017456491   21.10185       0.049949292    18.319759    
   1394000   1.8145931      0.0023538988   1000000        0.003368573    0.0011978152   0.0024953083   21.083948      0.045723382    18.316471    
   1395000   1.8148453      0.00078118981  1000000        0.00016392934 -0.00010282905  0.0022824691   21.069243      0.043496197    18.303615    
   1396000   1.8020161      0.00014422819  1000000       -0.0017462262   0.00093522418  0.0012436866   21.074811      0.045582782    18.326339    
   1397000   1.8097294     -0.00053681676  1000000       -0.004218232    0.00018626538  0.0024215163   21.080614      0.044585525    18.32157     
   1398000   1.8063339     -0.00056874372  1000000        0.0016447541  -0.001892099   -0.0014588863   21.088005      0.047387509    18.331252    
   1399000   1.8143046     -0.00094607734  1000000        0.0010119943  -0.003513422   -0.00033680433  21.095289      0.041623334    18.332345    
   1400000   1.8087914     -0.00036313218  1000000       -0.002689525   -0.00052635435  0.0021264828   21.081498      0.043379619    18.325067    
   1401000   1.8028289     -0.0010261709   1000000       -0.0014287714  -0.00014246535 -0.0015072761   21.081049      0.044385582    18.332555    
   1402000   1.8090147     -0.00037308696  1000000        0.0024571347  -0.0019290812  -0.0016473144   21.082535      0.04476021     18.324389    
   1403000   1.8104182      0.00086915698  1000000        0.0012657425  -0.00034153057  0.001683259    21.078418      0.044200472    18.318726    
   1404000   1.8073848      0.0050258843   1000000        0.0040940913   0.0048733708   0.0061101906   21.07325       0.043160638    18.319148    
   1405000   1.8221068      0.003479756    1000000        0.0019652485   0.0045401223   0.0039338971   21.084704      0.043744089    18.307936    
   1406000   1.810601       0.0017803262   1000000        0.002333272    0.0031249298  -0.00011722319  21.091927      0.046152111    18.330009    
   1407000   1.8183677      0.0014650809   1000000        0.0053033397  -0.00044009641 -0.00046800055  21.083856      0.044731133    18.31171     
   1408000   1.8109852      0.0015142103   1000000        0.0019487553   0.00010169299  0.0024921828   21.081054      0.041632079    18.32308     
   1409000   1.8084183     -0.0008316631   1000000        0.0011327239  -0.0027922636  -0.00083544959  21.09547       0.047209258    18.335769    
   1410000   1.8177245     -0.0025243187   1000000       -0.0027548207  -0.0013234105  -0.003494725    21.09111       0.045028029    18.319632    
   1411000   1.8232868      0.00046999643  1000000        0.00024549223  0.00087722183  0.00028727522  21.080185      0.045161783    18.30023     
   1412000   1.8108382      0.0030245189   1000000        0.0031130816   0.0023544369   0.0036060383   21.076208      0.046163728    18.313923    
   1413000   1.8131655      0.0019162391   1000000        0.0013926747   0.0043774426  -2.1399922e-05  21.084742      0.043531101    18.321598    
   1414000   1.8226227      0.001804527    1000000        0.0016709421   0.003427369    0.00031526983  21.089277      0.045752343    18.309728    
   1415000   1.8080454      0.001326521    1000000       -0.00056705433  0.0030251286   0.0015214886   21.078026      0.043642383    18.322451    
   1416000   1.7943759     -0.0029183714   1000000       -0.00069632702 -0.0006449631  -0.0074138239   21.061813      0.041402096    18.328982    
   1417000   1.7927461     -0.00017161528  1000000        0.00055329285  0.00080532973 -0.0018734684   21.05853       0.049547897    18.319997    
   1418000   1.8083569      2.6923452e-05  1000000        0.00076741869  0.0022378813  -0.0029245296   21.050928      0.04489869     18.29363     
   1419000   1.8012833      4.7865013e-05  1000000        0.001525408   -0.0011335694  -0.00024824357  21.050141      0.044919608    18.303432    
   1420000   1.8042361      4.4453853e-05  1000000       -0.0012781336   0.0019350251  -0.00052352987  21.056164      0.043301515    18.306644    
   1421000   1.8120742      0.00013884434  1000000       -0.00047163753  0.0022394387  -0.0013512681   21.057715      0.045334108    18.294405    
   1422000   1.811356      -4.6887244e-06  1000000        0.00060304226 -0.00076324594  0.0001461375   21.077182      0.041447245    18.318836    
   1423000   1.8051768      0.0011642349   1000000       -0.0017504375   0.0014333199   0.0038098225   21.072624      0.044951563    18.320043    
   1424000   1.803849       0.0011489858   1000000       -0.00011765371  0.0033564105   0.00020820047  21.081108      0.046805165    18.328665    
   1425000   1.8041418      0.00020597346  1000000        0.001793364   -0.00059777604 -0.00057766755  21.07939       0.043411572    18.329901    
   1426000   1.800153       0.001383884    1000000        0.0037188197  -0.00043756855  0.00087040083  21.075697      0.046264619    18.329338    
   1427000   1.8069493      0.0011380243   1000000       -0.0010784491   0.002824469    0.0016680529   21.097612      0.046841902    18.340481    
   1428000   1.8100865      0.0017394925   1000000        0.0033203975   0.00040157883  0.0014965012   21.093442      0.045913207    18.332535    
   1429000   1.8079481      0.0020783699   1000000        0.006046247    0.00045718891 -0.00026832611  21.090385      0.048209171    18.330389    
   1430000   1.7941988      9.0146466e-05  1000000       -0.00055756992  0.0021368695  -0.0013088602   21.085372      0.043939403    18.350269    
   1431000   1.814475      -0.001283362    1000000       -0.0023412159  -0.0020364656   0.00052759546  21.094205      0.041597471    18.331031    
   1432000   1.8172971     -0.0016534938   1000000       -0.0024085897  -0.00041271134 -0.0021391804   21.097352      0.044006571    18.327536    
   1433000   1.8208322      0.0024927733   1000000        0.0041958947   0.00077504899  0.0025073762   21.097696      0.045330221    18.321254    
   1434000   1.8268378     -3.9094046e-05  1000000       -0.00041389076  0.0013861704  -0.0010895617   21.101         0.040890033    18.31999     
   1435000   1.8126906      0.00066967176  1000000       -0.0019210757   0.0016274472   0.0023026437   21.086597      0.046129496    18.321568    
   1436000   1.8011801      0.0015502253   1000000        0.0019701241   0.0021892602   0.00049129173  21.07597       0.046348571    18.327986    
   1437000   1.8125571     -0.0015347925   1000000       -0.001408978   -0.0018703932  -0.0013250062   21.079506      0.045007037    18.315799    
   1438000   1.8060576     -0.00043855802  1000000       -0.0023730813  -0.00029680903  0.0013542162   21.079378      0.042308388    18.328119    
   1439000   1.8113461      0.0011335026   1000000       -0.00060611554  0.0016129072   0.0023937161   21.086103      0.047245789    18.321974    
   1440000   1.8037063     -0.00018174281  1000000        2.2242713e-05 -0.0026468937   0.0020794225   21.07384       0.046218229    18.322198    
   1441000   1.8012265     -0.0010118823   1000000       -0.0010922421   0.0003452719  -0.0022886767   21.078576      0.047540578    18.329331    
   1442000   1.808053      -0.0018859145   1000000       -0.0029489315  -0.0012004658  -0.0015083462   21.086342      0.043909685    18.330488    
   1443000   1.8108635      0.00070134185  1000000        0.001774491   -0.00087754305  0.0012070776   21.080054      0.045031969    18.318862    
   1444000   1.8092572     -0.0012194679   1000000       -0.0024532585  -0.0026611143   0.0014559691   21.095681      0.045800814    18.33613     
   1445000   1.8126609     -0.00014182754  1000000       -0.00072461791  0.0014031394  -0.0011040041   21.097963      0.047853038    18.331254    
   1446000   1.8164001      0.00054265957  1000000        0.0020350803  -0.00056553399  0.00015843238  21.092655      0.045359417    18.322831    
   1447000   1.8158955     -0.00029341253  1000000        0.00096496336 -0.001727433   -0.00011776796  21.092794      0.04281242     18.326275    
   1448000   1.8100281     -0.00025988072  1000000        0.0006614907   0.00016750817 -0.001608641    21.079671      0.042109532    18.322655    
   1449000   1.8246899      0.0019135039   1000000        0.003266534    0.0022679054   0.00020607232  21.100195      0.04752542     18.315772    
   1450000   1.8164061      0.00025716837  1000000        0.0022880583  -0.0017602577   0.00024370454  21.094529      0.049233215    18.320823    
   1451000   1.8093692     -0.0027387344   1000000        0.00073871395 -0.0032997874  -0.0056551298   21.078425      0.043396393    18.32111     
   1452000   1.7954443      0.0007594868   1000000        0.0007216072   0.001844877   -0.00028802385  21.066485      0.045528152    18.327925    
   1453000   1.8097844     -0.0012512872   1000000        0.00019344918 -0.00015817951 -0.0037891314   21.073119      0.041163307    18.317415    
   1454000   1.8175804     -3.0166873e-06  1000000        0.0020174613  -0.00027647547 -0.0017500359   21.082508      0.045483589    18.310791    
   1455000   1.8162669      0.0011077466   1000000        0.001225748    1.8540584e-05  0.0020789513   21.073687      0.042437735    18.306985    
   1456000   1.80037        0.00041751635  1000000        2.5983118e-05  0.0033621189  -0.002135553    21.06264       0.044954029    18.317266    
   1457000   1.8109112     -0.0010094698   1000000       -0.0017093585  -0.00025598459 -0.0010630662   21.066328      0.04360121     18.306496    
   1458000   1.8015231     -0.0014506045   1000000       -0.00391994    -0.0014006294   0.00096875592  21.073477      0.044407786    18.32692     
   1459000   1.8069228     -0.00014661115  1000000       -0.00084387007  0.00099050502 -0.00058646838  21.079542      0.04364163     18.325651    
   1460000   1.818412      -0.003334171    1000000       -0.0031453393  -0.0027599873  -0.0040971863   21.089978      0.040581409    18.321915    
   1461000   1.8091705      0.0036525187   1000000        0.0037813093   0.0029983628   0.004177884    21.091793      0.043495096    18.334678    
   1462000   1.8173595      0.0014178272   1000000        0.0010234923   0.001533586    0.0016964032   21.088963      0.044366023    18.318694    
   1463000   1.813575      -0.00034416812  1000000       -0.00056065978 -0.0018719602   0.0014001156   21.089307      0.04554626     18.323534    
   1464000   1.8113077     -0.00072432108  1000000       -0.0015402692   0.00069463934 -0.0013273334   21.083984      0.04454865     18.32261     
   1465000   1.8098479     -0.00011610729  1000000       -0.0020100053   0.00014503135  0.0015166521   21.075744      0.043979664    18.317128    
   1466000   1.7915909     -0.0018249856   1000000       -0.0018316934  -0.0022087319  -0.0014345315   21.078011      0.049480407    18.341278    
   1467000   1.8002165     -0.0029715637   1000000       -0.0017313096  -0.0016090724  -0.0055743091   21.067193      0.042058038    18.324945    
   1468000   1.7985574     -0.0016004391   1000000       -0.0023301449  -0.0015991152  -0.00087205713  21.074886      0.043419038    18.333766    
   1469000   1.7962518     -0.00017518405  1000000       -0.00076922843 -0.00076741241  0.0010110887   21.073559      0.043332326    18.335984    
   1470000   1.7974965     -0.00088217519  1000000       -0.00075571836 -0.00072647817 -0.001164329    21.074162      0.043449889    18.334602    
   1471000   1.7966208     -0.002505204    1000000       -0.0022586503  -0.0024283271  -0.0028286346   21.063328      0.044904688    18.323627    
   1472000   1.8029316      0.0014609048   1000000        0.0023738261   0.00072611916  0.0012827691   21.078385      0.046082007    18.328041    
   1473000   1.8162986      0.0027121288   1000000        0.0034970508   0.0028188915   0.0018204441   21.094729      0.042972695    18.327445    
   1474000   1.8232286      0.00026305554  1000000       -0.0025444922  -0.00049079002  0.0038244488   21.099141      0.043959835    18.320475    
   1475000   1.8235425      0.0007632775   1000000        0.0016627529  -0.0020080723   0.0026351519   21.108304      0.043562867    18.329564    
   1476000   1.8108494      0.00021472612  1000000        0.0017125467  -0.0015656422   0.00049727386  21.108556      0.046366652    18.346051    
   1477000   1.8224448     -0.0017298345   1000000        0.0017696152  -0.0042765517  -0.0026825672   21.106124      0.04480822     18.327786    
   1478000   1.8215411      6.1312123e-05  1000000       -0.0015654269   0.0030858299  -0.0013364666   21.108686      0.046096792    18.330414    
   1479000   1.8161968      0.0016474142   1000000        0.0007685854   0.00287324     0.0013004173   21.101633      0.044981288    18.332493    
   1480000   1.8147105      0.0029716275   1000000        0.00017770926  0.0034991606   0.0052380126   21.095654      0.042908577    18.330816    
   1481000   1.8015497      0.001583605    1000000        0.0023275981   0.0018116785   0.0006115385   21.087006      0.043987471    18.34083     
   1482000   1.7956279     -0.0002807356   1000000       -0.0004023385   0.00058112501 -0.0010209933   21.074403      0.045113431    18.335983    
   1483000   1.8024668     -0.0012199237   1000000        0.0027598665  -0.0045486205  -0.001871017    21.079255      0.043401489    18.332288    
   1484000   1.7951545     -0.0010540451   1000000        0.0018326745  -0.0036718352  -0.0013229746   21.071652      0.046763767    18.332291    
   1485000   1.7916469      0.0020863259   1000000        0.0020483536   0.0038542587   0.00035636557  21.056197      0.044939744    18.323921    
   1486000   1.8068705      0.0012607966   1000000        0.0017939884   0.00075562818  0.0012327733   21.072257      0.045256101    18.316831    
   1487000   1.8007146      0.0001421081   1000000       -0.00091693497  0.0007111872   0.00063207206  21.086006      0.047387958    18.337681    
   1488000   1.8177353      0.0020782089   1000000        0.0010530539   0.00073848768  0.0044430851   21.090369      0.044653665    18.319248    
   1489000   1.8168292      9.7908624e-05  1000000        0.00039320497  0.0012812857  -0.0013807648   21.090973      0.040466457    18.325399    
   1490000   1.80813       -0.0015226624   1000000       -0.00046750855 -0.0030002196  -0.001100259    21.09557       0.046373899    18.337137    
   1491000   1.8027386     -0.0019553867   1000000       -0.0026138245  -0.0023181822  -0.00093415348  21.087086      0.041437009    18.341676    
   1492000   1.8214694      0.00037451198  1000000       -0.0011888526   0.00037215556  0.001940233    21.100707      0.042713495    18.325926    
   1493000   1.817332      -0.0023054195   1000000       -0.00045797776 -0.0039863156  -0.0024719651   21.088318      0.0396616      18.322795    
   1494000   1.7999515      0.00059443247  1000000        0.0011947081   0.0002359736   0.0003526157   21.072279      0.0451136      18.327373    
   1495000   1.8064428      0.0014871307   1000000        0.0011727857   0.00091300862  0.0023755977   21.087357      0.045814095    18.332014    
   1496000   1.8054554      6.437408e-05   1000000        7.3186241e-05 -8.8255789e-05  0.00020819179  21.07387       0.047233949    18.318588    
   1497000   1.7978047     -0.0024392593   1000000        9.4525589e-05 -0.0022341681  -0.0051781355   21.076812      0.045088596    18.335151    
   1498000   1.7923855      0.00088354538  1000000        0.00080134794  0.0031706937  -0.0013214055   21.059274      0.04449932     18.326331    
   1499000   1.7872912      0.0029475995   1000000        0.0035566776   0.0035513992   0.0017347216   21.046107      0.048033323    18.317271    
   1500000   1.7952301      2.0730476e-06  1000000        0.0022785016  -0.0012176607  -0.0010546218   21.051886      0.044897555    18.314278    
   1501000   1.7835863      0.0010049506   1000000        0.001980463   -0.0013153225   0.0023497113   21.054863      0.046972182    18.332645    
   1502000   1.7947667      0.00094158838  1000000        0.00077790221 -0.00076809685  0.0028149598   21.057043      0.043962517    18.321065    
   1503000   1.8044437     -0.00050434873  1000000       -0.0030860625   0.0016001771  -2.7160736e-05  21.066061      0.047364062    18.312166    
   1504000   1.816742       0.0016089511   1000000       -0.00017408532  0.0032796106   0.0017213281   21.07845       0.046985824    18.306487    
   1505000   1.8139061      0.0030650732   1000000        0.0040379677   0.0035209659   0.001636286    21.087903      0.046918589    18.320261    
   1506000   1.8033723      0.0016092971   1000000       -0.0007469276   0.0048541828   0.00072063596  21.059884      0.045773152    18.309188    
   1507000   1.8060235      3.2885085e-05  1000000       -0.0020055569  -0.00017133217  0.0022755443   21.058453      0.0430352      18.306518    
   1508000   1.8021413      0.0011938542   1000000        0.0015225036   0.0020909686  -3.190962e-05   21.064769      0.0431447      18.318547    
   1509000   1.7927161     -0.00036354463  1000000       -0.00032356242  0.00028552503 -0.0010525965   21.051214      0.044937101    18.317337    
   1510000   1.7904025     -0.00032712871  1000000       -1.429133e-05  -0.0022102696   0.0012431748   21.053255      0.044562241    18.323224    
   1511000   1.810002       0.0014097042   1000000        0.0010894771   0.00088892609  0.0022507094   21.069341      0.045328087    18.309146    
   1512000   1.7929401      0.00099289926  1000000        0.0031974546  -0.00037749338  0.00015873659  21.045565      0.044575645    18.311713    
   1513000   1.795221      -0.00013734813  1000000       -0.00082594072 -0.0001329246   0.00054682093  21.057142      0.042762127    18.321683    
   1514000   1.7936519      0.0044491633   1000000        0.0021890068   0.0039039138   0.0072545693   21.05572       0.046336295    18.31904     
   1515000   1.801832       0.0009215584   1000000       -0.0014332939  -0.00024137045  0.0044393395   21.058122      0.043587193    18.311922    
   1516000   1.7969366      0.00051360065  1000000        0.0020781459  -0.00088357893  0.00034623499  21.064331      0.045300242    18.323761    
   1517000   1.7974518      0.00051041289  1000000       -0.0018758793   0.0016080047   0.0017991132   21.057589      0.043482617    18.318063    
   1518000   1.794268      -4.3352244e-05  1000000       -0.0014578264  -0.00037731663  0.0017050863   21.050557      0.044508844    18.31478     
   1519000   1.7972231     -0.0014810367   1000000        0.00015670857 -0.0019002695  -0.0026995492   21.049739      0.043598165    18.310441    
   1520000   1.7981573      0.00074803043  1000000        0.0019826323   0.00074277316 -0.0004813142   21.040431      0.047262936    18.296067    
   1521000   1.7864245      0.00099532335  1000000       -0.002090027    0.0047568765   0.00031912053  21.027245      0.043901444    18.303841    
   1522000   1.7906956      0.00034365424  1000000       -0.00013622379  0.0018768401  -0.00070965363  21.038942      0.044779656    18.308253    
   1523000   1.7921845     -0.0016545969   1000000       -0.0014054281  -0.0016923036  -0.0018660589   21.032327      0.04379893     18.300386    
   1524000   1.7843811      0.00057571594  1000000        0.0011590603   0.0016797089  -0.0011116214   21.03221       0.043075087    18.312697    
   1525000   1.7899833      0.0019657342   1000000       -0.00079389234  0.0035677312   0.0031233639   21.039358      0.045390237    18.309127    
   1526000   1.7910894      0.00099936586  1000000        0.0012287781   0.00065117788  0.0011181416   21.0306        0.043232983    18.300867    
   1527000   1.7859064     -1.9123668e-05  1000000        5.220872e-05  -0.00050596267  0.00039638294  21.03359       0.045317997    18.309546    
   1528000   1.7940237      0.00020103351  1000000        0.00088137485 -0.0011711985   0.00089292416  21.040938      0.042157985    18.307879    
   1529000   1.8025283      0.0031844707   1000000        0.0032686752   0.005730466    0.00055427101  21.039864      0.040710976    18.295496    
   1530000   1.7992956      0.0046656676   1000000        0.0051547772   0.004333437    0.0045087885   21.038981      0.048452308    18.29172     
   1531000   1.7965636      0.002088538    1000000        0.0011580475   0.0018356495   0.0032719168   21.036563      0.044814995    18.297037    
   1532000   1.7975523      0.0016131462   1000000        0.0017347315   0.00011898744  0.0029857196   21.037367      0.041352674    18.29982     
   1533000   1.7817308      0.0019618703   1000000        0.0031596074   0.00020880383  0.0025171997   21.04448       0.045812469    18.326205    
   1534000   1.7979585      0.00068408949  1000000        0.00020889929  0.00038910249  0.0014542667   21.056465      0.040977603    18.318685    
   1535000   1.8064554     -0.0013947033   1000000       -0.0044184086   0.00089259056 -0.00065829185  21.067617      0.042842823    18.315226    
   1536000   1.7997291     -0.001522186    1000000       -0.0031508765  -0.0022149032   0.00079922158  21.065588      0.043216711    18.322913    
   1537000   1.8145068      0.0019113799   1000000        0.0029013321   0.00030310802  0.0025296997   21.081937      0.049034344    18.311278    
   1538000   1.8155995      0.001773844    1000000        0.001929748    0.0037243201  -0.00033253607  21.092444      0.044342329    18.324838    
   1539000   1.8127304      0.0019960971   1000000        0.0036521503   0.00083086926  0.0015052719   21.088434      0.042997349    18.326477    
   1540000   1.8064099      9.0479594e-05  1000000        2.5557821e-06  0.0008735461  -0.0006046631   21.088427      0.050193091    18.328754    
   1541000   1.8081871      0.0016989714   1000000        0.0033576797   0.00015200388  0.0015872305   21.071843      0.042401618    18.317296    
   1542000   1.8111323      0.00044134527  1000000       -6.7592723e-05  0.0020943731  -0.00070274459  21.076973      0.042645703    18.317765    
   1543000   1.8146566     -0.00057260777  1000000       -0.0012244887   0.0032803751  -0.0037737098   21.083365      0.046503728    18.315013    
   1544000   1.8263163     -0.00018010861  1000000       -0.0020836567   0.0022097674  -0.00066643648  21.103382      0.044137903    18.319906    
   1545000   1.8098081      0.00081507079  1000000       -0.00017164183 -0.0014780702   0.0040949244   21.103519      0.044082775    18.34486     
   1546000   1.8164548      0.00083570416  1000000        0.0020691727  -0.00094546278  0.0013834025   21.090934      0.044446252    18.321942    
   1547000   1.8135209     -0.00070605301  1000000        0.00031799631  0.00047886291 -0.0029150182   21.090079      0.042891999    18.327042    
   1548000   1.8077128      0.0011560731   1000000       -0.00061218766  0.0064058227  -0.0023254158   21.076707      0.046875408    18.318398    
   1549000   1.8035437      0.0018814859   1000000        0.0029997798   0.0039448102  -0.0013001323   21.068757      0.046509564    18.317067    
   1550000   1.7961145     -0.0017608587   1000000       -0.0026030436  -0.0016655992  -0.0010139334   21.057596      0.044708451    18.31885     
   1551000   1.7965475      0.0005710244   1000000        0.00040100095  0.00031906922  0.00099300305  21.063265      0.045034688    18.323544    
   1552000   1.8060612      0.00037343214  1000000        0.00086485592  0.0022084504  -0.0019530099   21.0799        0.044107769    18.326836    
   1553000   1.8105278     -0.00081815166  1000000       -0.0019308794  -0.00049874172 -2.4833898e-05  21.087322      0.047239738    18.324426    
   1554000   1.8142273      0.00057705991  1000000        0.0026818775   0.00037368853 -0.0013243863   21.08663       0.041720699    18.323705    
   1555000   1.815149       0.0014623694   1000000        0.0029648982   0.0012751194   0.00014709078  21.087117      0.04791344     18.316616    
   1556000   1.8179693      0.0012165945   1000000       -2.8191862e-05  0.0014501023   0.0022278729   21.098299      0.045382569    18.326098    
   1557000   1.8084533     -0.00069283769  1000000        0.0020753424  -0.0010655958  -0.0030882597   21.072087      0.04554685     18.313996    
   1558000   1.8063652      0.0028797392   1000000        0.0032379851   0.0034698839   0.0019313486   21.072268      0.045489773    18.317366    
   1559000   1.8111682      0.0029243729   1000000        0.0019549918   0.0043761417   0.0024419851   21.072121      0.045894895    18.30961     
   1560000   1.8080869      0.00039612687  1000000       -0.0018907199   0.00090393402  0.0021751666   21.078135      0.042156534    18.323983    
   1561000   1.8054112      0.001458162    1000000        0.0015898063   0.0027561093   2.8570503e-05  21.063412      0.043560011    18.311871    
   1562000   1.7970286      0.002295072    1000000        0.0047734098  -7.6632442e-05  0.0021884387   21.054687      0.04630355     18.312975    
   1563000   1.8037019      0.0027871253   1000000        0.0048951895   0.0037223143  -0.00025612794  21.0464        0.045340899    18.295642    
   1564000   1.801341       0.0010311526   1000000        0.0012855944   0.0018754336  -6.7570061e-05  21.047928      0.04343389     18.302618    
   1565000   1.8003777     -0.0010718979   1000000       -0.0017236752  -0.001453087   -3.8931457e-05  21.049996      0.043149653    18.306415    
   1566000   1.7912145     -0.00094301856  1000000       -0.0025966565  -0.0020884663   0.0018560671   21.043891      0.047263193    18.309941    
   1567000   1.7960935      0.00071823919  1000000        0.00024718306  0.0006877356   0.0012197989   21.055839      0.044259845    18.317574    
   1568000   1.8039368      0.00070724852  1000000       -0.0013302161   0.0030357452   0.00041621643  21.06391       0.046348852    18.311791    
   1569000   1.79865       -0.00049024225  1000000       -4.0658465e-07 -0.00018667437 -0.0012836458   21.066529      0.044265554    18.324424    
   1570000   1.8031114      0.0022433405   1000000        0.0031008878   0.00043781955  0.0031913142   21.066911      0.045644951    18.316734    
   1571000   1.7984511      0.00052941074  1000000        4.1751829e-05  0.0017038228  -0.00015734239  21.068454      0.044471715    18.326441    
   1572000   1.8000804      0.0016579131   1000000        0.0036741309   0.0019436806  -0.00064407222  21.068719      0.045265197    18.323468    
   1573000   1.8031855      0.0021309795   1000000        0.00031459354  0.0038260914   0.0022522537   21.067789      0.044770121    18.318375    
   1574000   1.8037262      0.0018863601   1000000        0.0023739971  -0.00022177762  0.0035068609   21.064227      0.04691135     18.311862    
   1575000   1.8037559      0.0022815278   1000000        0.0046972421   0.0021372227   1.0118504e-05  21.053055      0.045753494    18.301803    
   1576000   1.8021635      0.00078635072  1000000        0.0008121371   0.002198235   -0.00065131995  21.060331      0.047123411    18.310097    
   1577000   1.7987954     -3.559765e-05   1000000       -6.5337855e-05  0.00016383398 -0.00020528907  21.063668      0.043056677    18.322553    
   1578000   1.7980869      0.0006874147   1000000        0.00083574425 -0.00030363406  0.0015301339   21.063125      0.042804346    18.323325    
   1579000   1.8112714     -0.0021547138   1000000       -0.0023012437  -0.0028688346  -0.001294063    21.087908      0.042385456    18.328751    
   1580000   1.820833       0.00037527318  1000000       -3.4269344e-05 -0.00048851465  0.0016486035   21.092666      0.042647081    18.318906    
   1581000   1.8142605      0.00052865484  1000000       -0.0012925056   0.0012502275   0.0016282427   21.092358      0.045697331    18.325406    
   1582000   1.8028821     -0.001419432    1000000       -0.001481743   -0.00077420628 -0.0020023466   21.087196      0.044631289    18.338377    
   1583000   1.8139382      0.0018211637   1000000       -0.00022284549  0.0029146013   0.0027717353   21.095117      0.04802833     18.326317    
   1584000   1.8204974      0.001040119    1000000       -0.0018150491   0.0022499864   0.0026854196   21.089957      0.0425184      18.316829    
   1585000   1.825698       0.0024069587   1000000        0.0014689711   0.0011675936   0.0045843114   21.101894      0.04298932     18.320494    
   1586000   1.8091316      0.0024441204   1000000        0.00098032988  0.0025912923   0.0037607391   21.080355      0.044621984    18.322171    
   1587000   1.8128878     -0.0013319565   1000000       -0.0022527303  -0.0016839052  -5.9233942e-05  21.082106      0.046042893    18.316868    
   1588000   1.8229708     -0.00032653256  1000000       -0.00026900735 -0.0017329856   0.0010223952   21.083476      0.042827278    18.306329    
   1589000   1.8105723     -0.00091916924  1000000       -0.00089946624 -0.0030747946   0.0012167531   21.082891      0.043044291    18.324124    
   1590000   1.8163019     -0.00096147945  1000000        0.00087177516 -0.0021423422  -0.0016138713   21.098201      0.047472825    18.326411    
   1591000   1.8123283      0.00050832255  1000000        0.00052452279  0.0026598214  -0.0016593766   21.092164      0.047099078    18.326708    
   1592000   1.8243144     -0.0013047393   1000000       -0.00065186915 -0.00068485355 -0.0025774951   21.095406      0.044940996    18.31413     
   1593000   1.8148407      0.0018475481   1000000        0.0030928917   0.0019522733   0.00049747936  21.078277      0.042074349    18.314078    
   1594000   1.8073782      0.00059015663  1000000        0.00075490929  0.001725491   -0.00070993042  21.07854       0.047041548    18.320567    
   1595000   1.8136813     -0.0024776858   1000000       -0.0026448532   0.001004503   -0.0057927073   21.078813      0.046031038    18.312396    
   1596000   1.8043262     -0.00086369663  1000000       -0.0014483025   0.0006823875  -0.0018251749   21.067964      0.047384403    18.314226    
   1597000   1.8038248     -0.00041789681  1000000       -0.00073825788  0.00046483677 -0.00098026933  21.079518      0.048403783    18.325512    
   1598000   1.8101235      0.00072812314  1000000        0.0039590799  -0.0021546683   0.00037995789  21.070141      0.046528245    18.308564    
   1599000   1.8053291      0.0014785801   1000000        0.0018777803  -0.0024536063   0.0050115664   21.07238       0.042346688    18.322175    
   1600000   1.8141341      0.0011818634   1000000        0.001875278    6.6658114e-05  0.0016036541   21.077459      0.045172947    18.31122     
   1601000   1.8086816      0.0018294956   1000000       -0.0014519692   0.0035971115   0.0033433444   21.069962      0.044489633    18.312586    
   1602000   1.8109836      0.001002854    1000000        0.00014777745  0.0017555371   0.0011052475   21.065632      0.048024068    18.301268    
   1603000   1.7997308     -0.0019189043   1000000        7.4220601e-05 -0.0019515595  -0.0038793741   21.07214       0.04726915     18.325409    
   1604000   1.7965399     -0.00038354927  1000000       -0.00091018921 -0.0015162226   0.001275764    21.074049      0.044612226    18.334761    
   1605000   1.7974216     -0.00073723043  1000000       -0.0007785103  -0.0007640236  -0.00066915739  21.062785      0.043404112    18.323384    
   1606000   1.8031141      0.00073339099  1000000       -0.001001906    0.003721941   -0.00051986197  21.057059      0.040890511    18.311633    
   1607000   1.8073791      0.0021437841   1000000        0.0050757615   0.0023718878  -0.0010162971   21.080614      0.044670631    18.32501     
   1608000   1.8032101     -5.2171615e-05  1000000       -0.00043644191  0.00048517905 -0.00020525199  21.065494      0.042897132    18.317917    
   1609000   1.7896026      0.0017631124   1000000        0.00084182105  0.0025551212   0.0018923951   21.059436      0.044765264    18.330401    
   1610000   1.7890034      0.0018509893   1000000        0.0017585942   0.0028491161   0.00094525769  21.063949      0.047296266    18.333282    
   1611000   1.7927449     -0.0024738888   1000000       -0.0031912091  -0.00086756739 -0.0033628898   21.061276      0.048118477    18.324174    
   1612000   1.8101213      0.002862195    1000000        9.0154091e-05  0.004913489    0.0035829419   21.075929      0.046517783    18.314365    
   1613000   1.8195461      0.003944499    1000000        0.0026994537   0.0049799398   0.0041541035   21.087121      0.047015669    18.310922    
   1614000   1.8088263      0.00078171441  1000000        0.0014045564   6.00832e-05    0.00088050365  21.085687      0.046839729    18.325743    
   1615000   1.8200398      0.004367786    1000000        0.0045633916   0.0049414376   0.0035985287   21.092108      0.04460433     18.317581    
   1616000   1.8298296     -0.00049680813  1000000       -0.00059279227  0.00027822035 -0.0011758525   21.10706       0.042444186    18.320008    
   1617000   1.8253393      0.00021854837  1000000       -0.00021924272  0.0032618771  -0.0023869893   21.090203      0.045953382    18.306378    
   1618000   1.8042696      0.00065112677  1000000        0.0012723617   0.0014712954  -0.00079027681  21.086599      0.044228832    18.336101    
   1619000   1.8126394      0.00036071331  1000000        0.001994741   -0.00050964142 -0.00040295968  21.083765      0.04530964     18.319633    
   1620000   1.8186404      0.00011289188  1000000        0.0011209564   0.00058861249 -0.0013708933   21.087898      0.044112675    18.315962    
   1621000   1.798224       0.001517469    1000000        0.0018582551   0.00081207655  0.0018820753   21.060045      0.049149757    18.313694    
   1622000   1.8077221      0.0014452075   1000000        0.001835759   -0.00017241141  0.002672275    21.064992      0.045881557    18.307663    
   1623000   1.8201911      0.0028212869   1000000        0.0047513243   0.0019230085   0.001789528    21.088248      0.04576407     18.312334    
   1624000   1.823613       0.0004163439   1000000        0.00043244559 -0.00059063039  0.0014072165   21.094555      0.042422734    18.31685     
   1625000   1.8148776      0.00013404363  1000000        0.00013462349 -0.00014383046  0.00041133785  21.090883      0.045232344    18.32347     
   1626000   1.8215453      0.00067761514  1000000       -0.0012708092   0.0029119536   0.00039170098  21.088675      0.045016788    18.311476    
   1627000   1.8176067      0.0018270701   1000000        0.00074745312  0.0026758564   0.0020579008   21.081836      0.042948572    18.312614    
   1628000   1.8207273     -0.00027803255  1000000        0.000475533   -0.00039967859 -0.00090995207  21.080763      0.044187579    18.305621    
   1629000   1.8077753      0.00010552532  1000000       -0.0023625929   0.0034299664  -0.00075079758  21.079001      0.043391545    18.324082    
   1630000   1.814077      -0.0010542661   1000000       -0.0028679297   0.001620294   -0.0019151628   21.079217      0.044408423    18.313829    
   1631000   1.8155428      0.00036372127  1000000        0.00011369008  0.0017504394  -0.00077296565  21.088519      0.044722639    18.320618    
   1632000   1.8150403      0.002199366    1000000        0.0017502139   0.0032767266   0.0015711575   21.081398      0.046577674    18.312396    
   1633000   1.8003746      0.0022257026   1000000        0.0013334846   0.0037010203   0.001642603    21.068686      0.046172006    18.322087    
   1634000   1.8031027     -0.00096557678  1000000        0.00067788206 -0.0036023657   2.775326e-05   21.072713      0.040917997    18.327276    
   1635000   1.7961539      0.0013585755   1000000        0.0026547383   0.0013605743   6.0413881e-05  21.059532      0.046257911    18.319178    
   1636000   1.8146896      0.0012008978   1000000        0.0019231593   0.0010923069   0.00058722713  21.070285      0.044143725    18.304243    
   1637000   1.8079038     -0.0023339524   1000000       -0.0014566646  -0.0013248508  -0.0042203417   21.072835      0.044280374    18.316834    
   1638000   1.8037131     -0.0007783656   1000000       -0.0012302184  -0.0015313128   0.00042643445  21.068493      0.045541003    18.317518    
   1639000   1.8072541     -0.0012982234   1000000       -0.003401563   -0.0011770029   0.00068389584  21.070185      0.045709238    18.31373     
   1640000   1.8174409      0.0027949329   1000000        0.0045286604   0.0011031131   0.0027530252   21.069785      0.044915514    18.298844    
   1641000   1.8089283      0.0010967675   1000000        0.0017816778  -0.000404858    0.0019134827   21.055677      0.044279593    18.298141    
   1642000   1.8066485     -0.0015446774   1000000       -0.0026779512  -0.002049535    9.3454009e-05  21.051599      0.04408716     18.297675    
   1643000   1.7929604     -0.00016541937  1000000       -0.0017541851  -0.00021449445  0.0014724214   21.044086      0.046190498    18.30859     
   1644000   1.8107736      0.00088592569  1000000       -0.00075356235  0.0012925333   0.0021188061   21.059505      0.041102368    18.302378    
   1645000   1.8024795      0.0022272893   1000000        0.0011241249   0.0028494411   0.002708302    21.062667      0.04509982     18.313983    
   1646000   1.8100696      0.0010131693   1000000        0.0016889543   0.0016110969  -0.00026054321  21.072371      0.04375935     18.313643    
   1647000   1.8082666     -0.00082145574  1000000       -0.0016899221  -0.001658771    0.00088432587  21.068308      0.042701454    18.313342    
   1648000   1.8104487     -0.0030552726   1000000       -0.0036683552  -0.0029857789  -0.0025116837   21.062098      0.047380211    18.299181    
   1649000   1.8051773     -2.7377407e-05  1000000       -0.0025200242   0.0013365866   0.0011013054   21.067224      0.043663822    18.31593     
   1650000   1.802735       0.00060890222  1000000       -0.0015862292  -0.00095682072  0.0043697566   21.063698      0.047836404    18.311894    
   1651000   1.7992802     -0.001417915    1000000       -0.0001197739  -0.0047069066   0.00057293553  21.067452      0.045226339    18.32344     
   1652000   1.7936084     -0.00087288493  1000000        0.00045919391 -8.5905274e-05 -0.0029919434   21.040203      0.043916325    18.306009    
   1653000   1.7908524     -0.001051584    1000000       -0.0015315162   0.0019591621  -0.003582398    21.063808      0.046591729    18.331072    
   1654000   1.8010748     -0.00041813167  1000000       -8.4250713e-05 -0.00082793661 -0.0003422077   21.070474      0.04378461     18.325212    
   1655000   1.8052427     -0.00064326231  1000000       -0.001349873   -0.001372078    0.00079216404  21.072249      0.044093847    18.320427    
   1656000   1.7987009     -0.00083825635  1000000       -0.00082353179 -0.0019915065   0.0003002692   21.054361      0.043056985    18.313388    
   1657000   1.810458      -0.00062479781  1000000       -0.002560862   -0.00028754008  0.00097400869  21.066866      0.043458425    18.307857    
   1658000   1.8056936      0.00020656466  1000000       -0.00062083692 -0.00036955911  0.00161009     21.065594      0.049794703    18.307394    
   1659000   1.7994772      0.0012247323   1000000        0.00058218519  0.0023057631   0.00078624875  21.070048      0.044871378    18.326095    
   1660000   1.8107584     -0.0018063833   1000000       -0.001041522   -0.0021616912  -0.0022159368   21.083697      0.045593228    18.322102    
   1661000   1.805842      -0.0027480754   1000000       -0.0035829233  -0.0023709089  -0.002290394    21.085994      0.046527396    18.330839    
   1662000   1.8090659     -0.0021977023   1000000       -0.00042833569 -0.0032784116  -0.0028863595   21.084961      0.042207105    18.329291    
   1663000   1.805033       0.00027384363  1000000        0.003586044   -0.0017844434  -0.00098006976  21.086432      0.043965893    18.335052    
   1664000   1.8232355     -0.00058611391  1000000       -0.0021621833   0.00072654275 -0.00032270114  21.101518      0.044252545    18.322549    
   1665000   1.8162608     -0.0006278886   1000000       -0.0012906993   0.00087374269 -0.0014667092   21.098422      0.043208718    18.330958    
   1666000   1.8182688      0.0020277518   1000000        0.0027393133   0.0020077814   0.0013361605   21.089886      0.045221611    18.317397    
   1667000   1.8187822      0.00070820776  1000000        0.00072165082  0.00027112752  0.0011318449   21.101762      0.043240433    18.330485    
   1668000   1.8217543      0.00076254175  1000000        0.00019582309  0.00037283979  0.0017189624   21.09513       0.041152131    18.321483    
   1669000   1.8095826      0.0033972446   1000000        0.0062070757   0.003238437    0.00074622112  21.079633      0.042929609    18.322466    
   1670000   1.8087414      0.00068923981  1000000        0.0030790445   0.00082843768 -0.0018397627   21.084939      0.047103368    18.324859    
   1671000   1.8122957      2.4258805e-05  1000000        0.0014229526   0.0018065238  -0.0031567001   21.071896      0.046154754    18.307434    
   1672000   1.8168994      0.00045415857  1000000        0.0007134727   0.001786498   -0.001137495    21.07947       0.044727897    18.309529    
   1673000   1.8045383     -0.0011979231   1000000       -0.001137777    0.00029761833 -0.0027536107   21.075471      0.046046732    18.322752    
   1674000   1.7951503      0.0021186277   1000000        0.0043950891   0.0032739942  -0.0013132001   21.057565      0.044420384    18.320554    
   1675000   1.7851941      0.001119178    1000000        0.0022109025   0.00070315713  0.0004434744   21.041359      0.044117203    18.319584    
   1676000   1.7903791      0.00044633805  1000000       -0.0026104096   0.00077230949  0.0031771143   21.042933      0.04231871     18.31518     
   1677000   1.8005656      0.0032362928   1000000        0.0021768783   0.0059273324   0.0016046677   21.055627      0.042742098    18.312171    
   1678000   1.7908158      0.0016634425   1000000        0.0013771888   0.0022901743   0.0013229644   21.041873      0.043716997    18.312066    
   1679000   1.796878       0.00018025941  1000000       -0.00024149275 -0.00098557502  0.001767846    21.04237       0.042772522    18.304415    
   1680000   1.7950633      3.0758015e-05  1000000        0.00045809364 -0.0019585146   0.001592695    21.046346      0.044783229    18.309102    
   1681000   1.7887772     -0.0012737367   1000000        0.0011296254  -0.00097421062 -0.003976625    21.043377      0.040383452    18.319962    
   1682000   1.7955768      0.00034979068  1000000        0.0017651329   0.00067056068 -0.0013863215   21.051189      0.04249746     18.315461    
   1683000   1.8002752      0.0028073054   1000000        0.001065741    0.0040462605   0.0033099145   21.056763      0.045081786    18.311404    
   1684000   1.7864966     -0.0011729138   1000000       -0.0016058372  -0.0018661313  -4.6772986e-05  21.069989      0.044269322    18.346109    
   1685000   1.8202534     -0.00052797137  1000000       -0.00052015694 -0.00074865097 -0.0003151062   21.081008      0.042679664    18.308084    
   1686000   1.812116       0.0039713074   1000000        0.00522952     0.0047117031   0.0019726991   21.080409      0.044527286    18.317843    
   1687000   1.8094073      0.0023974552   1000000        0.00055409053  0.0038875599   0.002750715    21.08813       0.043941292    18.330214    
   1688000   1.807434      -0.0013742661   1000000        1.7780722e-05 -0.0023690592  -0.00177152     21.077942      0.043668711    18.323258    
   1689000   1.8098779     -0.0022482907   1000000       -0.00071535309 -0.0045983294  -0.0014311895   21.090852      0.043383173    18.332788    
   1690000   1.8081559      0.00061254906  1000000        0.0011874471  -0.00027742049  0.00092762061  21.096338      0.04717514     18.337065    
   1691000   1.8098688     -0.00042368343  1000000        0.0013747301  -0.0032960092   0.00065022884  21.083669      0.044386833    18.324615    
   1692000   1.8061508     -0.001408281    1000000       -0.0018946353  -0.001756905   -0.00057330273  21.07383       0.041748863    18.32299     
   1693000   1.7995887     -0.0012735967   1000000       -0.00064628145 -0.0019687713  -0.0012057372   21.075023      0.044105731    18.331669    
   1694000   1.8067435      0.00048575739  1000000        0.00044803866  0.00055489351  0.00045433999  21.075238      0.04503549     18.320223    
   1695000   1.8170061      0.0033874795   1000000        0.0035951106   0.0043642099   0.0022031179   21.079431      0.047680158    18.306378    
   1696000   1.8056913      0.001479284    1000000        0.0012923017   0.0019945878   0.0011509626   21.082376      0.052160523    18.321814    
   1697000   1.8146         0.0023746731   1000000        0.0024912792   0.004835052   -0.00020231186  21.07099       0.04027871     18.308947    
   1698000   1.814642      -0.0010140232   1000000        0.0011099843  -0.00081569411 -0.0033363598   21.066211      0.041676477    18.302707    
   1699000   1.806806       0.00079078767  1000000        0.0031430004  -0.0022496779   0.0014790405   21.075206      0.044000551    18.321132    
   1700000   1.8144502      0.0045179749   1000000        0.0045375508   0.0047190068   0.004297367    21.072217      0.04831706     18.302361    
   1701000   1.8088948      0.00091302698  1000000        0.0021988345   0.0018043506  -0.0012641042   21.070596      0.046140271    18.311249    
   1702000   1.8087957      0.00050401267  1000000        0.00065645103 -0.00040345959  0.0012590466   21.073903      0.046595713    18.31425     
   1703000   1.8017826      0.00031432372  1000000       -0.0026823051   0.00068148338  0.0029437929   21.07453       0.047366536    18.324625    
   1704000   1.8185414      0.00089716371  1000000       -0.00073050958  0.0018703821   0.0015516186   21.082605      0.046914829    18.308014    
   1705000   1.8018044     -0.0013125507   1000000        0.00069546611 -0.0027110141  -0.0019221041   21.075997      0.043173071    18.330252    
   1706000   1.804579       0.00045355687  1000000        0.0035080199  -0.0017330122  -0.00041433709  21.061115      0.042828927    18.311553    
   1707000   1.7998458      0.0021118496   1000000        0.0033603831   0.003054886   -7.9720436e-05  21.064866      0.045291547    18.319941    
   1708000   1.7964829      0.0019259847   1000000       -0.0002736709   0.0036152461   0.0024363787   21.066742      0.046260614    18.325892    
   1709000   1.8222266      0.0028248802   1000000        0.00061965145  0.0024549525   0.0054000365   21.085598      0.045823921    18.306571    
   1710000   1.816344       0.0030823886   1000000        0.0035856773   0.0020682668   0.0035932218   21.095022      0.044293167    18.326349    
   1711000   1.8137453      6.7313867e-06  1000000        0.0021523168  -0.0015393003  -0.00059282233  21.087959      0.047014321    18.320463    
   1712000   1.8126636     -0.0024293944   1000000       -0.0020121051  -0.0013976652  -0.003878413    21.098276      0.044221684    18.335195    
   1713000   1.8154895      0.0011959587   1000000        0.0022440342   0.0024567367  -0.0011128949   21.111842      0.047179249    18.341565    
   1714000   1.8255734     -0.00089122133  1000000       -0.0013457337   0.0013439866  -0.0026719169   21.120888      0.046894069    18.335771    
   1715000   1.8180396      0.00056851861  1000000        0.00039508591  0.00013895993  0.00117151     21.095977      0.044852319    18.324202    
   1716000   1.8187925      0.0015571565   1000000        0.0021410099   0.001698034    0.00083242551  21.094917      0.042552267    18.324313    
   1717000   1.8150228      0.00038237862  1000000        0.00087059167  0.0017685987  -0.0014920545   21.100441      0.04642856     18.331614    
   1718000   1.8136174     -0.0017027416   1000000       -0.0029326839  -0.0022343807   5.8839946e-05  21.101466      0.043852432    18.337323    
   1719000   1.819555       0.00093117826  1000000       -0.00074640228  0.00051218204  0.003027755    21.107584      0.043895829    18.334492    
   1720000   1.8196846      0.00094371244  1000000        0.00286936    -0.0012996243   0.0012614016   21.113258      0.044719026    18.339149    
   1721000   1.8237549      0.00037683811  1000000        0.00029028246 -0.00061756164  0.0014577935   21.114577      0.047765203    18.331316    
   1722000   1.8137786     -0.0010817554   1000000        0.00083456181 -0.0026828206  -0.0013970073   21.108012      0.047438516    18.340042    
   1723000   1.8276493      0.00037579247  1000000        0.0015726733  -0.00323324     0.0027879442   21.100885      0.046615655    18.312932    
   1724000   1.8111069      0.0042084367   1000000        0.003212617    0.0042257818   0.0051869113   21.087924      0.045816688    18.325583    
   1725000   1.805271       0.0020500535   1000000        0.0025742057   0.0039281628  -0.00035220814  21.070807      0.048800577    18.314236    
   1726000   1.7971086     -0.00076995814  1000000       -5.8609495e-05 -0.00080584334 -0.0014454216   21.068444      0.042997555    18.329918    
   1727000   1.7915972     -0.0043324489   1000000       -0.0030024442  -0.005386775   -0.0046081274   21.058964      0.043207555    18.328496    
   1728000   1.7908336     -0.0017664841   1000000       -0.0024952405  -0.0032493272   0.00044511538  21.05355       0.045135124    18.322299    
   1729000   1.7916245     -0.0020956949   1000000       -0.0033048304  -0.0019317204  -0.0010505339   21.049342      0.044754702    18.317285    
   1730000   1.7952694     -0.0019215445   1000000       -0.0015242616  -0.0027509324  -0.0014894396   21.052755      0.046535482    18.31345     
   1731000   1.8010556     -0.00061986727  1000000       -0.0014458666   0.00041491873 -0.00082865394  21.044441      0.043353833    18.299639    
   1732000   1.7794359     -0.0010429046   1000000       -0.00056582239 -0.00010215047 -0.002460741    21.033356      0.047267902    18.317068    
   1733000   1.7911847      0.0017241248   1000000        0.0036140864  -0.00063028661  0.0021885745   21.043246      0.046461538    18.310142    
   1734000   1.7961715      0.0010262851   1000000        0.0018785835  -0.0004439169   0.0016441887   21.04498       0.046816855    18.30404     
   1735000   1.7905231      0.0012408363   1000000        0.001346034   -0.0017915665   0.0041680412   21.048173      0.045642519    18.31688     
   1736000   1.7949711     -0.0040793921   1000000       -0.0035288636  -0.0039766479  -0.0047326649   21.065698      0.043706775    18.329669    
   1737000   1.8007917     -0.0010867364   1000000       -0.003643485   -0.00055181305  0.00093508874  21.055705      0.043120065    18.311533    
   1738000   1.7962933      0.00077939315  1000000        0.0022522735   0.0013131544  -0.0012272484   21.034118      0.044528482    18.295284    
   1739000   1.7995133      0.0027123599   1000000        0.0024856502   0.0027826214   0.002868808    21.044693      0.044711426    18.300847    
   1740000   1.7845895     -0.0013481631   1000000       -0.00083470424 -0.0036199056   0.00041012052  21.044429      0.048429133    18.319249    
   1741000   1.7949583     -0.00041758426  1000000       -0.0015073314   0.00044411456 -0.00018953594  21.05083       0.04618573     18.312342    
   1742000   1.7906419      0.00048012265  1000000       -0.0015547476   0.0014811654   0.0015139501   21.052316      0.043056143    18.323431    
   1743000   1.7920792      0.0011679404   1000000        0.002258161    0.0016564465  -0.00041078617  21.055874      0.044965355    18.322925    
   1744000   1.800699       0.0012641218   1000000        0.0049802768   0.00098090792 -0.0021688195   21.063762      0.043973474    18.318875    
   1745000   1.7909384      0.0015747639   1000000       -0.00075035057  0.0015624234   0.0039122189   21.044992      0.044886461    18.313832    
   1746000   1.7976271      0.0028053259   1000000        0.0026987297   0.0028478894   0.0028693587   21.046467      0.045385932    18.304775    
   1747000   1.8012369      0.00070689707  1000000        0.00092236854 -0.0021964279   0.0033947505   21.053821      0.044548623    18.307552    
   1748000   1.8044418     -0.0017361184   1000000        1.1906636e-05 -0.0045289525  -0.00069130928  21.0725        0.045323566    18.320649    
   1749000   1.8077889     -0.0033925265   1000000       -0.0042216562  -0.0017901453  -0.0041657778   21.080541      0.041201621    18.327792    
   1750000   1.8129427      0.00036566916  1000000        0.0001433216   0.0010323394  -7.8653485e-05  21.086174      0.046005769    18.320891    
   1751000   1.8142541      0.0014482201   1000000        0.00086575505  0.0028696871   0.00060921806  21.067419      0.042754491    18.30342     
   1752000   1.8055123     -0.00095430695  1000000       -0.0011710844   0.0016113213  -0.0033031578   21.073046      0.043530482    18.321382    
   1753000   1.7988559     -0.00054711636  1000000        0.0016278996  -0.00081986451 -0.0024493841   21.087666      0.046471474    18.343046    
   1754000   1.8090454     -0.00011810522  1000000        0.0023118646  -0.00047674218 -0.002189438    21.090411      0.048764735    18.328214    
   1755000   1.8201814      0.001567935    1000000        0.0031779201   0.0011631565   0.00036272841  21.095342      0.043292443    18.321914    
   1756000   1.8044375      0.0032695727   1000000        0.0015168022   0.0026094667   0.0056824492   21.0861        0.045986584    18.333592    
   1757000   1.8100805     -0.00059043052  1000000       -8.5587363e-05 -0.0017537757   6.8071523e-05  21.10089       0.045771559    18.340133    
   1758000   1.8107118     -0.002141907    1000000        0.00050663609 -0.0024639854  -0.0044683717   21.09114       0.041621671    18.333586    
   1759000   1.8274549     -0.0014196551   1000000       -0.00025866353  0.0012479935  -0.0052482952   21.093523      0.046837739    18.305639    
   1760000   1.8127518      0.0010061241   1000000        0.00038322746  0.0038609028  -0.001225758    21.083236      0.044560669    18.319684    
   1761000   1.8122181      0.00019337975  1000000       -0.0013413181   0.0012097744   0.00071168297  21.080435      0.047128666    18.315115    
   1762000   1.8101772      0.00018876744  1000000       -0.002496846    0.00038055197  0.0026825963   21.08031       0.042912792    18.322267    
   1763000   1.8094143     -0.002240564    1000000       -0.00025602535 -0.0036329738  -0.0028326927   21.088046      0.041845051    18.332215    
   1764000   1.8081606     -4.6902552e-05  1000000       -0.00055886886 -0.00026663225  0.00068479345  21.083548      0.047900812    18.323542    
   1765000   1.8098367     -0.0022201888   1000000       -0.0023602168  -0.0037950448  -0.00050530475  21.067217      0.044987246    18.30761     
   1766000   1.8031709      0.00032775645  1000000        0.001107456    0.001395014   -0.0015192006   21.078361      0.048888593    18.324851    
   1767000   1.8023985     -0.00081125203  1000000       -0.0049004724   0.0037824348  -0.0013157184   21.078381      0.041567987    18.33335     
   1768000   1.8039748     -0.0008677416   1000000       -0.0036149122   7.3364483e-05  0.00093832292  21.083042      0.045086142    18.332129    
   1769000   1.802263      -8.2431947e-05  1000000       -0.001021278   -0.0027338833   0.0035078655   21.086007      0.047233435    18.335515    
   1770000   1.8124113      0.002765079    1000000        0.0027097682   0.0021279663   0.0034575025   21.093178      0.047544652    18.327152    
   1771000   1.8116481      0.00086033201  1000000        0.00078813122 -5.5296532e-05  0.0018481613   21.082658      0.044306626    18.321015    
   1772000   1.8228677      0.0015057287   1000000        0.00016717776  0.0035635324   0.00078647598  21.088195      0.042091397    18.311939    
   1773000   1.8136137     -0.0008317544   1000000       -0.0034452473   0.0015370291  -0.00058704498  21.089782      0.044831449    18.324666    
   1774000   1.8104856     -0.0011454117   1000000       -0.0010862231  -0.0028938449   0.00054383283  21.082934      0.044123827    18.323217    
   1775000   1.8075555      0.00015096722  1000000        0.00019779099  0.0010067766  -0.00075166594  21.084129      0.043785405    18.329146    
   1776000   1.8130256     -0.00094183701  1000000       -0.00055129991 -0.0014927382  -0.00078147295  21.081936      0.043157023    18.319376    
   1777000   1.8143983     -0.0011446364   1000000       -0.0017226044  -0.0026141211   0.00090281631  21.083829      0.040190383    18.322178    
   1778000   1.7989079      0.00049714863  1000000        0.003410719   -0.0022032678   0.00028399472  21.082752      0.044521444    18.340004    
   1779000   1.8087806      0.001030515    1000000        0.0030369669  -0.00073362461  0.00078820271  21.088894      0.043546833    18.332312    
   1780000   1.8176301      0.0020963047   1000000        0.0036943958  -0.00071021963  0.0033047381   21.081396      0.044937659    18.310149    
   1781000   1.8103543     -0.00098629926  1000000       -0.0017478046   0.00071905329 -0.0019301465   21.088762      0.045760299    18.327606    
   1782000   1.8012871     -0.00061377613  1000000       -0.00019729413  0.00012779146 -0.0017718257   21.08297       0.043489163    18.337686    
   1783000   1.8200595     -0.00022619683  1000000       -0.0024303246   5.4012369e-05  0.0016977217   21.094503      0.042203125    18.322347    
   1784000   1.8065374      0.0013172975   1000000        0.0016202265  -0.00018008597  0.0025117519   21.095098      0.048350856    18.337076    
   1785000   1.8196029     -0.0013310438   1000000       -0.0012148338  -0.0010107214  -0.001767576    21.080553      0.040967137    18.310318    
   1786000   1.8122199      0.0022352399   1000000        0.0017942228   0.0017056633   0.0032058338   21.080394      0.044603726    18.317597    
   1787000   1.8136759      0.0018876795   1000000        0.0015615623  -0.00021114729  0.0043126235   21.089542      0.044470156    18.324694    
   1788000   1.8000708      8.0207677e-06  1000000        0.0025152     -0.0015235701  -0.00096756755  21.071128      0.04869464     18.322462    
   1789000   1.7953143     -0.00054915555  1000000       -0.00059030572 -0.0014237652   0.00036660424  21.068931      0.047133664    18.328961    
   1790000   1.7929135     -0.00055961981  1000000        0.0010847733  -0.0010158094  -0.0017478233   21.06605       0.044598832    18.332216    
   1791000   1.8090657      0.00068240392  1000000       -0.00012566171  0.0017842255   0.00038864796  21.064937      0.041220091    18.310254    
   1792000   1.8071549     -0.00027482432  1000000       -0.00047683304  0.0020005826  -0.0023482225   21.079281      0.043846215    18.324838    
   1793000   1.8118746      0.0014673042   1000000        0.00059010681  0.003278014    0.00053379187  21.094295      0.046915182    18.329704    
   1794000   1.8129477     -0.0017491811   1000000       -0.0051406299  -0.00068471468  0.00057780123  21.101399      0.043423652    18.33869     
   1795000   1.8117498     -0.0018250977   1000000       -0.0027014963  -0.00072577053 -0.0020480262   21.093879      0.045455903    18.330935    
   1796000   1.8063191      0.0013598592   1000000        0.0002030141   0.0020586852   0.0018178783   21.07156       0.043763226    18.318454    
   1797000   1.8070483      0.0015809469   1000000       -0.0014065094   0.0014311277   0.0047182223   21.071824      0.04108445     18.320302    
   1798000   1.8124757      0.00028860437  1000000        0.00046132584  0.00042169435 -1.7207069e-05  21.081181      0.045230887    18.317372    
   1799000   1.8036857      0.0008473073   1000000        0.001133541    0.0023698106  -0.0009614297   21.084298      0.04375031     18.335155    
   1800000   1.8130514      0.00070891399  1000000        0.001059382    0.0007377457   0.00032961426  21.0751        0.0452026      18.310456    
   1801000   1.8002787      8.2931035e-05  1000000        0.0014185695  -0.0010382659  -0.00013151052  21.079069      0.0460188      18.332767    
   1802000   1.791331       0.0018341893   1000000        0.0045078722   0.00017109552  0.00082360011  21.058937      0.046581127    18.325494    
   1803000   1.8033496      6.1193706e-06  1000000        0.0021683051  -0.00050268231 -0.0016472647   21.069618      0.046594671    18.318134    
   1804000   1.8055923      0.0010239782   1000000        0.0013595877  -0.00062290515  0.002335252    21.080898      0.045337171    18.327308    
   1805000   1.8120923     -0.0021188786   1000000       -0.0027117552  -0.0021274078  -0.0015174728   21.078866      0.043318953    18.317545    
   1806000   1.8200935      0.0027482877   1000000        0.0013310346   0.0041570534   0.002756775    21.083433      0.045297963    18.308132    
   1807000   1.8181946      0.0021545387   1000000        0.0010173606   0.0064936269  -0.0010473713   21.084707      0.044175171    18.313376    
   1808000   1.8068073      0.00048031688  1000000       -5.3510949e-05  0.0019648693  -0.00047040769  21.073986      0.043714064    18.320196    
   1809000   1.8016752     -0.00053156379  1000000       -0.0016550079   0.00041132539 -0.00035100892  21.074088      0.042107974    18.329602    
   1810000   1.7926892      0.0001122014   1000000        0.00059790933 -0.00047988559  0.00021858045  21.057309      0.045147828    18.323262    
   1811000   1.8059667     -0.0012384364   1000000        0.00026572689  0.0013805038  -0.0053615399   21.061536      0.039755303    18.312966    
   1812000   1.7954905      0.0013063718   1000000        0.00010128829  0.0028533545   0.00096447274  21.040704      0.047845841    18.299757    
   1813000   1.7894941      0.0010844657   1000000        0.0014748559  -0.00064704812  0.0024255892   21.037992      0.046444673    18.30744     
   1814000   1.7975131     -0.0019146231   1000000       -0.0023579598  -0.002056354   -0.0013295554   21.041534      0.044582676    18.300817    
   1815000   1.7853567     -0.0028058409   1000000       -0.0020871143  -0.0045755993  -0.0017548092   21.017067      0.038816978    18.300349    
   1816000   1.7907854     -0.0018358672   1000000       -0.00120125    -0.0019615755  -0.002344776    21.018744      0.044027036    18.288673    
   1817000   1.7951746     -0.0008554372   1000000       -0.00011273554 -7.4157995e-05 -0.0023794181   21.028606      0.0418818      18.294097    
   1818000   1.7897975      0.00043131087  1000000        0.0020004165   6.8466801e-05 -0.00077495072  21.032246      0.049369084    18.298315    
   1819000   1.8051993     -0.00090929752  1000000       -0.0010315677  -0.0012620324  -0.00043429244  21.054836      0.042798856    18.304374    
   1820000   1.8075554     -0.00074274308  1000000        0.00053111971 -0.001522654   -0.0012366949   21.068959      0.0440393      18.313723    
   1821000   1.8055824      0.0023896536   1000000        0.0015454636   0.0024133784   0.0032101188   21.070784      0.048116792    18.314429    
   1822000   1.8168477      9.970566e-05   1000000       -0.0020551296   9.002459e-05   0.0022642219   21.074836      0.046624444    18.303076    
   1823000   1.8019482      0.001434447    1000000        0.0032582479   0.0011118422  -6.674905e-05   21.052649      0.048959692    18.300902    
   1824000   1.8039704      0.00069441708  1000000        0.00056164103  0.0026119598  -0.0010903496   21.054092      0.0431326      18.305139    
   1825000   1.7956088      0.0013751617   1000000        0.0013835705   0.002250351    0.00049156352  21.047269      0.045984016    18.308006    
   1826000   1.7953172      0.0021954228   1000000        0.0026684902   0.0016026095   0.0023151688   21.056647      0.04630686     18.317499    
   1827000   1.810817       0.0010452077   1000000        0.0022158347   0.0028274991  -0.0019077107   21.060229      0.042547155    18.301592    
   1828000   1.7955366      0.0015409995   1000000        0.0015336542   0.0010363241   0.0020530203   21.070703      0.048203583    18.329329    
   1829000   1.8149682     -0.0016972962   1000000       -0.0027783458  -0.0022576201  -5.5922738e-05  21.07975       0.042882342    18.314551    
   1830000   1.8149639     -0.0003603513   1000000       -0.002788774    0.0027717032  -0.0010639831   21.080432      0.047062193    18.31106     
   1831000   1.8197074     -0.00035152691  1000000       -0.00043634439 -0.0024357939   0.0018175576   21.107279      0.045059776    18.332795    
   1832000   1.8182336     -0.0017957106   1000000       -0.0021603119  -0.0008390991  -0.0023877208   21.11359       0.044723324    18.341653    
   1833000   1.8154948      0.00065588247  1000000       -0.0028449449   0.0037110424   0.0011015499   21.093403      0.044002574    18.326294    
   1834000   1.8089473      0.00062375076  1000000        0.00096529017  0.0015329276  -0.00062696545  21.095683      0.046061988    18.336335    
   1835000   1.8106309     -0.0035706291   1000000       -0.0044703597  -0.0017401526  -0.0045013749   21.086684      0.04534023     18.325533    
   1836000   1.8051891     -0.0003713991   1000000       -0.0025372601  -0.00021903797  0.0016421007   21.075959      0.045280626    18.323031    
   1837000   1.8183496     -0.0012025969   1000000       -0.0042605667   0.0014439597  -0.00079118361  21.08472       0.041145947    18.316186    
   1838000   1.8042088     -8.0278666e-06  1000000       -0.00039161226  0.00048585128 -0.00011832262  21.08142       0.045411216    18.329831    
   1839000   1.8136554     -0.0016695171   1000000       -0.00052306224 -0.0006718683  -0.0038136207   21.089095      0.043101064    18.325647    
   1840000   1.8101074      0.0014995327   1000000        0.0020260924   0.0010542388   0.0014182669   21.086816      0.046739153    18.325051    
   1841000   1.8071728      0.0025828943   1000000        0.0037735124   0.0025150071   0.0014601635   21.082577      0.045679654    18.326274    
   1842000   1.8121368      0.0018142628   1000000       -0.0002705773   0.0037209505   0.0019924152   21.078504      0.043404789    18.31703     
   1843000   1.7979698     -0.0011079954   1000000       -0.002314082    0.003068127   -0.0040780314   21.074298      0.045802565    18.331676    
   1844000   1.8045866     -0.0021976427   1000000       -0.0018515992  -0.0011441806  -0.0035971483   21.073945      0.045334394    18.321866    
   1845000   1.8048819     -0.0025728478   1000000       -0.00060388051 -0.004204015   -0.002910648    21.072784      0.043679586    18.321917    
   1846000   1.8055433     -0.001566228    1000000       -0.0020015402  -0.0020477514  -0.00064939245  21.079991      0.046738296    18.325073    
   1847000   1.8116982     -5.620185e-05   1000000       -0.0024183306   0.0023592364  -0.00010951132  21.077943      0.047375241    18.313157    
   1848000   1.8031199     -0.0010805204   1000000       -0.00019088844 -0.00012305288 -0.0029276199   21.060235      0.045510944    18.310179    
   1849000   1.7989966     -9.3087406e-05  1000000        0.0033651999  -0.00071304172 -0.0029314204   21.047156      0.0478407      18.300956    
   1850000   1.8002894      0.00048492871  1000000        0.0016317613  -0.00052333412  0.00034635891  21.04527       0.044118851    18.300852    
   1851000   1.7981376      0.00099184033  1000000       -0.00092855322  0.0016977882   0.002206286    21.041874      0.045393881    18.299409    
   1852000   1.7966642     -0.001246757    1000000       -0.0021710231   0.00030510562 -0.0018743536   21.041056      0.041269567    18.304925    
   1853000   1.7910097      0.00096616041  1000000       -0.00071078503  0.0036828922  -7.3625966e-05  21.04509       0.047208122    18.311502    
   1854000   1.7905356     -0.00074427801  1000000        0.00069373143 -0.0019853172  -0.00094124831  21.044199      0.041947482    18.316583    
   1855000   1.8062095      0.00015002329  1000000        0.0032774868  -0.0009603228  -0.0018670941   21.057394      0.044360836    18.303854    
   1856000   1.8018825      0.0024531401   1000000        0.0031532856   0.0028302083   0.0013759263   21.061505      0.044471535    18.314344    
   1857000   1.806297      -0.00074346113  1000000       -0.0038939186   0.0017720728  -0.00010853752  21.054663      0.043618841    18.301734    
   1858000   1.7911689     -0.0016024442   1000000       -0.0033664509  -0.00080172295 -0.00063915873  21.050194      0.044475422    18.319099    
   1859000   1.8006043     -0.0014727698   1000000        0.00065209328 -0.0043148525  -0.00075555007  21.061904      0.04247028     18.318662    
   1860000   1.8004772      0.0012015393   1000000        0.0035552255  -0.0018775145   0.0019269068   21.061445      0.042142074    18.318722    
   1861000   1.794388      -0.0022017089   1000000       -0.0046564438  -0.00011936973 -0.0018293133   21.047734      0.04384614     18.31244     
   1862000   1.8008613     -0.00042153905  1000000       -0.001639461    0.0011631843  -0.00078834052  21.053409      0.043539338    18.308713    
   1863000   1.7933953      0.00081124091  1000000        0.00052474142 -0.00099632017  0.0029053015   21.049627      0.044088392    18.31558     
   1864000   1.8032609      0.0003534514   1000000       -0.0017218677   0.0017531988   0.0010290231   21.051767      0.046201954    18.300809    
   1865000   1.78862        0.00056916623  1000000        0.0013774747   0.0014928379  -0.0011628139   21.040104      0.041787063    18.315521    
   1866000   1.7879321     -9.4340321e-05  1000000        0.0023021435  -0.0019851015  -0.00060006299  21.044186      0.047444628    18.314977    
   1867000   1.8082407     -0.0027408547   1000000       -0.0040308873  -0.0040834458  -0.00010823095  21.061007      0.042354709    18.306427    
   1868000   1.7895527      4.7856451e-05  1000000       -1.9922326e-05  0.00053325495 -0.00036976327  21.043857      0.044397756    18.315264    
   1869000   1.7968164     -0.00051619363  1000000        0.00090694002 -0.0017382889  -0.00071723202  21.040159      0.042942472    18.302126    
   1870000   1.7895565     -0.0012241259   1000000       -0.00022706228  0.00028612766 -0.0037314432   21.029244      0.041834102    18.30321     
   1871000   1.7782414      4.5909847e-05  1000000        0.0044583411  -0.00082403675 -0.0034965748   21.029546      0.046080267    18.316237    
   1872000   1.771869       0.001378311    1000000        0.0018518943  -0.00017680477  0.0024598435   21.028997      0.046330857    18.324995    
   1873000   1.7691652      0.0012649738   1000000       -0.0013163202   0.0011024995   0.0040087422   21.013001      0.045804524    18.313581    
   1874000   1.7844971     -0.0010500505   1000000       -0.00052916661 -0.0020681055  -0.00055287929  21.037855      0.043391622    18.317852    
   1875000   1.7841683      0.0011738656   1000000        0.00095094538  0.0013300583   0.001240593    21.040247      0.04390311     18.320225    
   1876000   1.7997333     -0.0013038871   1000000       -0.0023948983  -0.0016551456   0.00013838248  21.054392      0.043577059    18.31135     
   1877000   1.7900443      0.00072507984  1000000        0.0003518528   0.00058990539  0.0012334813   21.043082      0.044158581    18.313991    
   1878000   1.8049741     -6.5125317e-05  1000000        0.0034253367  -0.0029889113  -0.00063180136  21.058635      0.041751218    18.309558    
   1879000   1.7976588     -0.00054309956  1000000        0.00049000092 -0.0020876974  -3.1602226e-05  21.051581      0.042346768    18.312881    
   1880000   1.8012749      0.0032477382   1000000        0.0020205742   0.0042878354   0.0034348051   21.055858      0.042687947    18.311393    
   1881000   1.8106959      0.0027019002   1000000        0.003810671    0.0020712546   0.0022237749   21.057599      0.042446292    18.299245    
   1882000   1.8082522      0.0021751291   1000000        0.0012244839   0.0043197129   0.00098119062  21.08439       0.047381988    18.324765    
   1883000   1.8129898     -0.0017318463   1000000       -0.00096986233 -0.0036370917  -0.00058858482  21.083878      0.04537405     18.319155    
   1884000   1.8074943      0.00057253389  1000000        0.0013764296  -0.0022958867   0.0026370588   21.081289      0.043784622    18.326398    
   1885000   1.8043213      0.0036564394   1000000        0.0061201614   0.00067340471  0.0041757522   21.066176      0.045382854    18.314446    
   1886000   1.8067876     -0.00053333105  1000000       -0.0011132326  -0.00040750065 -7.925987e-05   21.065414      0.043269466    18.312098    
   1887000   1.7995017     -0.0032469014   1000000       -0.0035052426  -0.0011768524  -0.0050586092   21.061207      0.044647205    18.317442    
   1888000   1.8009224     -0.00012597389  1000000       -0.0023263651   0.00049448578  0.0014539577   21.052452      0.043615273    18.307588    
   1889000   1.8014325      0.0021607905   1000000        0.0022809645   0.0008968678   0.0033045392   21.043899      0.0451963      18.296689    
   1890000   1.792288       0.0010150474   1000000        0.0015689577  -0.0012401138   0.0027162983   21.053291      0.042473431    18.32252     
   1891000   1.7964077      0.0022815226   1000000        0.00093258638  0.00095040088  0.0049615804   21.050764      0.048040777    18.308247    
   1892000   1.807281       0.0034023513   1000000        0.0035653986   0.0034246479   0.0032170073   21.064922      0.047479523    18.306657    
   1893000   1.8026587     -0.00063201031  1000000       -0.0022223602   0.0012966551  -0.00097032578  21.062076      0.044644778    18.313578    
   1894000   1.7968281     -0.00073131995  1000000       -0.00050330952  0.0013053082  -0.0029959586   21.055383      0.044974449    18.315301    
   1895000   1.7928854      0.0014755799   1000000        0.0043277749   0.00082757387 -0.00072860901  21.056885      0.045443464    18.322248    
   1896000   1.7981269     -0.001047382    1000000        0.0017938244  -0.0039182995  -0.001017671    21.048707      0.042812536    18.308839    
   1897000   1.7990434     -3.9958273e-06  1000000        0.002316388   -0.0040063661   0.0016779906   21.047498      0.044026817    18.305041    
   1898000   1.8047418      0.00081250111  1000000       -0.00097289378  0.0026274611   0.00078293601  21.060662      0.044186911    18.309497    
   1899000   1.8025076     -0.00019843394  1000000       -0.00036837985 -0.00066697545  0.00044005347  21.067953      0.044301619    18.320025    
   1900000   1.8075771      0.002403712    1000000       -0.00017276124  0.0055432896   0.0018406077   21.067472      0.042580343    18.313662    
   1901000   1.7995134      0.00075603171  1000000       -0.0001418393   0.0012869445   0.0011229899   21.060019      0.042620887    18.318263    
   1902000   1.798371      -0.0029496244   1000000       -0.0014644819  -0.0043466931  -0.0030376982   21.065917      0.04384845     18.324647    
   1903000   1.8081735     -0.00044646764  1000000        0.0014371221  -0.00128225    -0.0014942751   21.060891      0.04083287     18.307934    
   1904000   1.8035207     -0.0011095202   1000000       -0.0020401303  -0.0018274507   0.00053902041  21.056536      0.04465999     18.30673     
   1905000   1.8070396      0.00028615025  1000000       -0.002486557    0.0011300477   0.00221496     21.063403      0.043521672    18.309457    
   1906000   1.7841175      0.00023344845  1000000       -0.0010093691   0.002015947   -0.00030623255  21.047971      0.043691537    18.328237    
   1907000   1.7931259     -5.3345369e-05  1000000        0.00034607507  0.0012073671  -0.0017134782   21.053471      0.042374868    18.321542    
   1908000   1.8023836     -0.00017253533  1000000        0.00065334099  0.0015021673  -0.0026731142   21.052607      0.042796838    18.30637     
   1909000   1.8006679     -0.0020680645   1000000       -6.6220507e-05 -0.0042302663  -0.0019077067   21.060981      0.045127509    18.314987    
   1910000   1.7994084      0.00042133462  1000000       -0.0012517154   0.0018404154   0.00067530388  21.077025      0.046311669    18.331736    
   1911000   1.8016897     -0.00036274422  1000000       -0.0037034686   0.00030288166  0.0023123543   21.08339       0.045398861    18.335592    
   1912000   1.8150298      0.0014339669   1000000        0.00061659939  0.00025840518  0.0034268961   21.092747      0.045683807    18.324655    
   1913000   1.8229608     -0.00026450122  1000000       -0.00063299301  0.00052595616 -0.00068646681  21.0907        0.040513938    18.315882    
   1914000   1.8254789     -0.00062153438  1000000        0.00043090294 -4.0512568e-05 -0.0022549935   21.103509      0.045687496    18.31974     
   1915000   1.8271903      0.00063263531  1000000        0.00076852137 -0.0001727327   0.0013021172   21.10098       0.046262956    18.314069    
   1916000   1.8080184     -0.00018580303  1000000       -7.1194531e-05  0.0020704325  -0.002556647    21.086284      0.043842271    18.33055     
   1917000   1.8107197      0.0012545995   1000000        0.0013493784   0.0019703353   0.0004440849   21.081751      0.043621953    18.322185    
   1918000   1.8075307      0.0033826882   1000000        0.0037232994   0.0013479261   0.0050768391   21.070036      0.045748926    18.313127    
   1919000   1.7890811     -0.00010340161  1000000       -0.00040627607 -0.0026685191   0.0027645904   21.044589      0.045719072    18.315382    
   1920000   1.8006051     -0.0024627147   1000000        0.0010362796  -0.0039879189  -0.0044365047   21.062333      0.043127932    18.318433    
   1921000   1.8067859     -0.0017182095   1000000        0.00050387109 -0.0026942793  -0.0029642204   21.064534      0.043171353    18.311319    
   1922000   1.80464       -0.001814408    1000000       -0.0021780063  -0.0015931022  -0.0016721155   21.076972      0.044335526    18.325812    
   1923000   1.8145912      0.0023438904   1000000        0.0037281517   0.0020813084   0.001222211    21.067923      0.042316709    18.303855    
   1924000   1.8071085      0.0015206152   1000000        0.00070217677  0.0011001171   0.0027595517   21.046625      0.043108829    18.292989    
   1925000   1.7909349     -0.00099352569  1000000        0.00019378586 -0.0021836286  -0.00099073439  21.038996      0.043409204    18.309319    
   1926000   1.806573       0.0023029971   1000000        0.0044067239  -6.8111047e-05  0.0025703784   21.051453      0.04383101     18.297898    
   1927000   1.7969309     -0.00018973109  1000000       -0.00022180827 -0.0010054437   0.00065805871  21.06517       0.044305859    18.325603    
   1928000   1.7964372      0.00097859722  1000000        0.0014289987  -0.00050106087  0.0020078539   21.059419      0.042793646    18.322104    
   1929000   1.7893301      0.0022524681   1000000        0.0031040848   0.0021196091   0.0015337103   21.054989      0.046612372    18.324516    
   1930000   1.7907823      0.00046224     1000000        0.002680299    0.0011555666  -0.0024491456   21.047648      0.046656258    18.314953    
   1931000   1.7954464     -0.0014189885   1000000       -0.00017239762 -0.0013505393  -0.0027340287   21.046909      0.041697744    18.312176    
   1932000   1.7812897     -0.0024147743   1000000       -0.0020814338  -0.0032433124  -0.0019195768   21.042409      0.043057052    18.327551    
   1933000   1.7944232     -0.00059704579  1000000       -0.0014272915  -0.00089197625  0.0005281304   21.056159      0.044050353    18.320609    
   1934000   1.7964654     -0.00066984951  1000000        0.00084163168 -0.00019193911 -0.0026592411   21.04298       0.048856991    18.29956     
   1935000   1.7920268     -0.0020204215   1000000       -0.0022734836   6.4629092e-05 -0.0038524099   21.046381      0.044562891    18.313913    
   1936000   1.7925132      0.00064657101  1000000        0.0013505591   0.00061893318 -2.9779256e-05  21.047292      0.044152549    18.314504    
   1937000   1.7885148      0.0024642744   1000000        0.0020372413   0.003959312    0.0013962699   21.035749      0.043570028    18.309541    
   1938000   1.7856595      8.4025175e-05  1000000        0.00046467174  0.00029537949 -0.0005079757   21.049784      0.045882967    18.325546    
   1939000   1.7852803      0.0021690046   1000000        0.0018633479   0.0033434116   0.0013002544   21.054376      0.043841259    18.332749    
   1940000   1.7978312      0.001718529    1000000        0.0015312475   0.0010967514   0.0025275881   21.052406      0.046137437    18.309656    
   1941000   1.7970635     -0.0010025194   1000000       -0.0011536594  -0.001948878    9.4979263e-05  21.057047      0.044093564    18.317493    
   1942000   1.7962879     -0.0013626792   1000000       -0.001011526    0.00014916837 -0.00322568     21.060423      0.042082266    18.324044    
   1943000   1.8037808      8.0281387e-05  1000000        0.0019733171   0.00043001284 -0.0021624858   21.065875      0.043602509    18.316736    
   1944000   1.8178291      0.0012457058   1000000        0.0021886015   0.0028906992  -0.0013421834   21.064489      0.043328211    18.294554    
   1945000   1.7991819     -1.0411406e-05  1000000       -0.00051785105  0.00068564916 -0.00019903232  21.063968      0.047423209    18.317907    
   1946000   1.8129704     -0.00023862123  1000000       -0.00066316192  0.00094531112 -0.00099801289  21.065311      0.044366318    18.301625    
   1947000   1.8083944      0.00074651069  1000000       -0.00054635139  0.0022557038   0.00053017968  21.060051      0.044163067    18.303432    
   1948000   1.8124267     -0.00030556753  1000000        0.0012552199  -0.00052592484 -0.0016459977   21.072714      0.044326863    18.309883    
   1949000   1.8167118      0.00028489087  1000000        0.0036873565  -0.00071209458 -0.0021205893   21.07337       0.045171749    18.303267    
   1950000   1.8068166     -0.00034678955  1000000        0.0020673978  -0.00037265656 -0.0027351099   21.061788      0.043931343    18.307767    
   1951000   1.7950551      9.4391179e-05  1000000        0.0027115906  -0.00017499703 -0.00225342     21.053675      0.048215377    18.313011    
   1952000   1.8025023      0.00148455     1000000        0.0041180837   0.00029293471  4.2631566e-05  21.072347      0.045755248    18.322973    
   1953000   1.8139374     -0.0025318386   1000000       -0.0030531035  -0.0026641124  -0.0018783      21.084968      0.045339468    18.318858    
   1954000   1.8040834     -0.00016612629  1000000       -0.0014908655   0.0011241633  -0.00013167667  21.060455      0.04405405     18.310411    
   1955000   1.8108783      0.00061047047  1000000       -0.00075584256  0.00067898091  0.0019082731   21.052966      0.042343854    18.29444     
   1956000   1.794837       0.00099540072  1000000        0.0015014309  -9.4721124e-05  0.0015794924   21.057582      0.044334498    18.321127    
   1957000   1.7992233      0.0018023109   1000000        0.0040752684   0.0022104697  -0.00087880544  21.051834      0.044307307    18.308827    
   1958000   1.7909747      0.00034180596  1000000       -0.00031288884  0.0011162944   0.00022201228  21.042168      0.041920735    18.31392     
   1959000   1.8007758      0.0020288723   1000000        0.0036780555   0.0011109254   0.001297636    21.048545      0.044740625    18.302776    
   1960000   1.794318       0.0022996854   1000000        0.0020786484   0.0022275296   0.0025928781   21.041174      0.045243866    18.304588    
   1961000   1.7941636      0.00055490253  1000000       -0.0003566104   0.0033328614  -0.0013115434   21.044757      0.046521376    18.307125    
   1962000   1.787676       0.00079864368  1000000        0.002540382    0.0017380337  -0.0018824846   21.03761       0.042839081    18.313391    
   1963000   1.8016813      0.0023965481   1000000        0.0056069864   0.0012357751   0.00034688272  21.047995      0.045638768    18.299969    
   1964000   1.8068941      0.00088452033  1000000        0.0014733287   0.0019723662  -0.00079213394  21.055843      0.0405961      18.305041    
   1965000   1.8023834     -0.00039191055  1000000        0.00050942628 -0.0022455689   0.00056041101  21.057008      0.046084626    18.307483    
   1966000   1.8153124     -0.00033026274  1000000        0.0014495423  -0.0012853546  -0.0011549758   21.048262      0.041918377    18.283512    
   1967000   1.7906752     -0.0021733941   1000000       -0.0032327639  -0.00056354998 -0.0027238685   21.049593      0.047461153    18.316253    
   1968000   1.8020648      0.00052485874  1000000        0.00058186134 -0.00091587906  0.0019085939   21.049215      0.046138418    18.300115    
   1969000   1.7853685      0.0021239223   1000000        0.0012850617   0.0011794015   0.0039073039   21.061236      0.047578222    18.335739    
   1970000   1.7998357     -0.0024030719   1000000       -0.00090196693 -0.0038626238  -0.0024446251   21.054685      0.04140899     18.313658    
   1971000   1.7940713     -0.00048342013  1000000        0.0020656366  -0.0020377762  -0.0014781209   21.058193      0.044178349    18.323042    
   1972000   1.8015614      0.0028652244   1000000        0.0045376322   0.0011545946   0.0029034465   21.06625       0.042954242    18.321089    
   1973000   1.7984575     -0.00012850932  1000000        0.0016803556  -0.0015677467  -0.00049813682  21.063448      0.041443047    18.324454    
   1974000   1.7959799      0.00027800882  1000000       -0.0030614702   0.0026659685   0.0012295282   21.046882      0.043736033    18.309311    
   1975000   1.8081242     -0.00080748565  1000000       -0.00012051753 -0.00084012374 -0.0014618157   21.058891      0.046092408    18.300748    
   1976000   1.787981      -0.0010729262   1000000        0.00037489233 -0.0025004046  -0.0010932665   21.054169      0.042514       18.329818    
   1977000   1.7950889      0.0028659963   1000000        0.0025189552   0.0038753737   0.0022036599   21.062811      0.048184866    18.322127    
   1978000   1.8029453     -0.0015784178   1000000       -0.0028058455  -0.0011872174  -0.0007421905   21.077455      0.042186859    18.330985    
   1979000   1.799132      -0.0025881937   1000000       -0.0038119769  -0.006014023    0.0020614189   21.062732      0.043734802    18.320434    
   1980000   1.7989264      0.0001343257   1000000        0.00039826126 -0.00081492283  0.00081963867  21.054777      0.046199293    18.310323    
   1981000   1.7903871      0.00035067915  1000000       -0.00030929655  0.00041225132  0.0009490827   21.037776      0.04826184     18.304068    
   1982000   1.7938839      0.00050481336  1000000       -0.0012707419   0.00048886255  0.0022963194   21.026196      0.043078844    18.292426    
   1983000   1.7937732      0.0023135184   1000000        0.0044754173   0.0013605211   0.0011046167   21.027086      0.043703794    18.292857    
   1984000   1.7930443      0.0015013427   1000000        0.002451062   -0.00013476309  0.0021877292   21.008105      0.044444318    18.274228    
   1985000   1.7904617      0.0019908966   1000000        0.0023006447  -0.00022204155  0.0038940866   21.023567      0.041900848    18.296108    
   1986000   1.7845372     -0.00018829544  1000000       -0.00079121539  0.0010800192  -0.00085369016  21.012497      0.044433353    18.291391    
   1987000   1.7866561      0.00094128104  1000000        0.0019447953   0.0011109834  -0.00023193555  21.012112      0.043769854    18.288492    
   1988000   1.7923899      0.00026648256  1000000        0.00021559767 -0.00058745112  0.0011713011   21.013081      0.044963663    18.279667    
   1989000   1.7941975     -0.0034119416   1000000       -0.0020894936  -0.0037256505  -0.0044206807   21.023172      0.042882794    18.289127    
   1990000   1.7941955      9.4196077e-05  1000000        0.00093217994 -8.412424e-05  -0.00056546746  21.034107      0.046839835    18.296108    
   1991000   1.7855082      0.00091105743  1000000        0.0016661622   0.0015453427  -0.0004783327   21.040799      0.049867306    18.312804    
   1992000   1.7773087      0.0031967565   1000000        0.0050077709   0.0032511419   0.0013313569   21.032655      0.049844139    18.316981    
   1993000   1.8041814      0.001476337    1000000        0.0017693266   0.0022506787   0.00040900555  21.048766      0.043839653    18.29879     
   1994000   1.8023423      0.0012543274   1000000       -0.0015078885   0.0032188364   0.0020520343   21.060615      0.045915557    18.311321    
   1995000   1.8056607     -0.0026824723   1000000       -0.0028225434  -0.0017626259  -0.0034622476   21.069602      0.042109171    18.319137    
   1996000   1.8005056      0.00059585765  1000000       -8.3604453e-05  0.00012630107  0.0017448763   21.068731      0.046871793    18.321236    
   1997000   1.8018571     -0.0027840667   1000000       -0.0043163338  -0.0020991724  -0.001936694    21.06521       0.042700605    18.319859    
   1998000   1.8078407      0.0017820295   1000000        0.0019656731   0.0015697437   0.0018106718   21.066542      0.043621487    18.311295    
   1999000   1.8149345      0.0027864877   1000000        0.0057976161  -0.00019172278  0.0027535698   21.072028      0.043539176    18.306224    
   2000000   1.8157961      0.0013443609   1000000        0.0042923002  -0.0013468367   0.0010876192   21.085646      0.0466134      18.315474    
Loop time of 2542.61 on 1 procs for 2000000 steps with 20000 atoms

Performance: 6796.155 tau/day, 786.592 timesteps/s, 15.732 Matom-step/s
99.6% CPU use with 1 MPI tasks x no OpenMP threads

MPI task timing breakdown:
Section |  min time  |  avg time  |  max time  |%varavg| %total
---------------------------------------------------------------
Pair    | 237.97     | 237.97     | 237.97     |   0.0 |  9.36
Bond    | 215.73     | 215.73     | 215.73     |   0.0 |  8.48
Neigh   | 22.121     | 22.121     | 22.121     |   0.0 |  0.87
Comm    | 47.178     | 47.178     | 47.178     |   0.0 |  1.86
Output  | 23.68      | 23.68      | 23.68      |   0.0 |  0.93
Modify  | 1959.1     | 1959.1     | 1959.1     |   0.0 | 77.05
Other   |            | 36.87      |            |       |  1.45

Nlocal:          20000 ave       20000 max       20000 min
Histogram: 1 0 0 0 0 0 0 0 0 0
Nghost:           9922 ave        9922 max        9922 min
Histogram: 1 0 0 0 0 0 0 0 0 0
Neighs:          65223 ave       65223 max       65223 min
Histogram: 1 0 0 0 0 0 0 0 0 0

Total # of neighbors = 65223
Ave neighs/atom = 3.26115
Ave special neighs/atom = 1.998
Neighbor list builds = 3370
Dangerous builds = 0

Total wall time: 0:43:24
