Test system of 10 polymers of length 1000 and 1000 tetrahedral crosslinkers, bond length = 1.0, crosslinker radius = 3.0

15000 atoms
13990 bonds
0 angles
0 dihedrals
0 impropers

3 atom types
3 bond types
0 angle types
0 dihedral types
0 improper types

-50.0 50.0 xlo xhi
-50.0 50.0 ylo yhi
-50.0 50.0 zlo zhi

Masses

1 1.000
2 1.000
3 1.000

Atoms

1 1 1 -25.903078 -17.407958 28.249718
2 1 1 -26.231763 -17.503508 27.310125
3 1 1 -27.110599 -17.086581 27.542112
4 1 1 -27.720214 -16.353802 27.844443
5 1 1 -28.318942 -15.642477 27.476281
6 1 1 -28.359810 -15.111263 26.630030
7 1 1 -28.073212 -14.415006 27.288124
8 1 1 -28.232621 -13.934744 26.425606
9 1 1 -28.343585 -13.619449 25.483122
10 1 1 -28.369631 -13.069514 26.317924
11 1 1 -27.846790 -12.512189 25.672923
12 1 1 -28.471277 -13.241448 25.952560
13 1 1 -27.996565 -13.657335 25.176875
14 1 1 -27.391769 -12.922578 24.869704
15 1 1 -26.395780 -12.995484 24.817825
16 1 1 -27.029176 -12.917779 25.587742
17 1 1 -26.891355 -12.757935 26.565216
18 1 1 -26.546177 -12.098324 27.232873
19 1 1 -25.957787 -12.854822 27.518367
20 1 1 -26.736906 -12.725124 26.905056
21 1 1 -26.849328 -11.977365 26.250672
22 1 1 -26.796607 -12.862409 25.788160
23 1 1 -26.335675 -13.635581 26.223759
24 1 1 -27.034160 -14.092086 25.672649
25 1 1 -27.028167 -13.643904 24.778727
26 1 1 -27.137314 -12.668381 24.587832
27 1 1 -28.014477 -12.252731 24.347375
28 1 1 -28.349505 -13.110109 24.738092
29 1 1 -28.822514 -13.109458 23.857034
30 1 1 -28.096634 -12.692419 24.404004
31 1 1 -28.205734 -12.230089 25.283975
32 1 1 -27.250927 -11.938532 25.226197
33 1 1 -27.533201 -12.526388 24.468076
34 1 1 -27.356952 -12.646104 23.491038
35 1 1 -27.496845 -11.687487 23.243081
36 1 1 -28.415905 -11.749147 23.632346
37 1 1 -28.310032 -11.973513 24.601083
38 1 1 -27.391784 -12.021081 24.994221
39 1 1 -27.160372 -11.560348 25.851060
40 1 1 -26.380996 -11.477007 25.230071
41 1 1 -26.954914 -11.495059 26.048785
42 1 1 -26.202002 -11.362134 26.693342
43 1 1 -26.173401 -10.924244 25.794768
44 1 1 -27.023198 -11.107154 25.300410
45 1 1 -26.039843 -11.203640 25.146452
46 1 1 -26.953473 -11.036087 24.776039
47 1 1 -26.253448 -10.511159 24.291875
48 1 1 -26.108542 -11.471665 24.054324
49 1 1 -25.269909 -10.939902 24.172318
50 1 1 -25.284809 -11.661912 23.480595
51 1 1 -25.205154 -11.033768 22.706587
52 1 1 -24.717408 -10.567201 23.444435
53 1 1 -25.570790 -11.086554 23.489285
54 1 1 -26.132425 -11.758453 23.006463
55 1 1 -26.318250 -10.777987 22.941998
56 1 1 -26.240730 -11.464199 22.218738
57 1 1 -25.244608 -11.512923 22.145480
58 1 1 -24.778363 -10.895968 22.779501
59 1 1 -23.968174 -10.996420 23.356998
60 1 1 -23.843560 -10.025197 23.559966
61 1 1 -23.421516 -10.043633 24.466354
62 1 1 -24.346109 -9.872250 24.806585
63 1 1 -24.819715 -8.993656 24.745186
64 1 1 -24.934774 -9.764295 25.371986
65 1 1 -24.600738 -10.644662 25.708694
66 1 1 -24.114775 -9.784182 25.861710
67 1 1 -24.492534 -10.002111 24.961818
68 1 1 -25.135795 -9.354995 25.371031
69 1 1 -25.202202 -9.565176 26.346436
70 1 1 -24.928454 -8.683001 26.729619
71 1 1 -25.247559 -7.941527 26.139374
72 1 1 -26.063835 -8.234381 25.641450
73 1 1 -26.498543 -8.702218 26.410967
74 1 1 -26.465242 -8.485979 25.435195
75 1 1 -26.928478 -7.892779 24.776768
76 1 1 -26.189109 -8.539382 24.964487
77 1 1 -26.865748 -8.382167 24.245152
78 1 1 -27.013799 -7.417179 24.028637
79 1 1 -26.163765 -7.608651 23.537943
80 1 1 -26.122186 -7.835229 24.511048
81 1 1 -25.581527 -7.093389 24.907737
82 1 1 -24.648848 -6.793580 25.108296
83 1 1 -25.315321 -7.524262 25.256341
84 1 1 -24.751746 -6.893344 24.723119
85 1 1 -24.327676 -6.739051 23.830730
86 1 1 -24.109160 -7.708395 23.943079
87 1 1 -23.184806 -8.089867 23.950093
88 1 1 -24.055781 -8.437013 24.297790
89 1 1 -25.001893 -8.468105 23.975448
90 1 1 -25.589899 -8.171873 24.728107
91 1 1 -24.815910 -7.647833 24.372689
92 1 1 -24.237875 -7.137794 23.735715
93 1 1 -23.774151 -6.562283 24.409322
94 1 1 -23.392333 -7.467456 24.222567
95 1 1 -24.105464 -7.521846 24.921484
96 1 1 -23.534996 -6.821952 24.491700
97 1 1 -24.220967 -7.544752 24.575384
98 1 1 -24.743544 -7.959705 25.320184
99 1 1 -25.502082 -8.567128 25.084264
100 1 1 -25.573094 -8.659221 24.091049
101 1 1 -25.116197 -8.964023 24.926717
102 1 1 -26.072819 -8.747641 25.121793
103 1 1 -26.814427 -8.993037 24.497455
104 1 1 -26.447535 -9.836869 24.105870
105 1 1 -27.357623 -10.038607 23.743873
106 1 1 -27.582270 -9.645840 22.852095
107 1 1 -28.151106 -9.795903 22.043450
108 1 1 -27.724030 -9.414988 21.223383
109 1 1 -28.451863 -8.757128 21.416980
110 1 1 -27.466237 -8.589053 21.399891
111 1 1 -26.669836 -8.604008 20.795308
112 1 1 -25.994480 -8.547185 20.060008
113 1 1 -26.558917 -7.821285 20.453046
114 1 1 -25.650850 -8.063367 20.111270
115 1 1 -25.391326 -7.177018 20.494719
116 1 1 -25.182465 -6.267134 20.136264
117 1 1 -26.021503 -6.767766 19.923231
118 1 1 -25.699973 -5.887653 20.272542
119 1 1 -25.108641 -6.208881 21.012231
120 1 1 -25.584694 -5.522530 20.462416
121 1 1 -25.033818 -5.440849 21.292997
122 1 1 -24.075292 -5.712808 21.207755
123 1 1 -23.917452 -6.574255 20.725060
124 1 1 -24.507592 -6.572348 21.532359
125 1 1 -23.954949 -7.217522 21.004783
126 1 1 -23.451979 -7.462028 20.175785
127 1 1 -24.023711 -8.051277 19.604901
128 1 1 -23.610650 -8.008072 18.695223
129 1 1 -23.919867 -8.660147 18.002992
130 1 1 -24.567213 -7.909476 17.870948
131 1 1 -24.048575 -7.127560 17.525083
132 1 1 -23.373509 -6.445305 17.805822
133 1 1 -22.387327 -6.316243 17.701959
134 1 1 -22.084975 -5.484304 18.167213
135 1 1 -22.438281 -6.118648 17.479621
136 1 1 -23.018095 -5.780079 18.220693
137 1 1 -23.917193 -5.787474 17.783009
138 1 1 -23.422874 -5.125496 17.219596
139 1 1 -23.823172 -5.973097 17.567927
140 1 1 -24.597084 -6.514163 17.238827
141 1 1 -24.142400 -5.623541 17.246225
142 1 1 -24.958473 -5.574383 16.670370
143 1 1 -24.593616 -6.458083 16.377190
144 1 1 -24.620443 -5.469197 16.230955
145 1 1 -24.049030 -5.413119 15.412211
146 1 1 -23.264466 -5.660286 14.843556
147 1 1 -22.430159 -6.210117 14.883768
148 1 1 -22.883823 -5.349571 14.652145
149 1 1 -22.766739 -6.041192 15.364852
150 1 1 -23.363394 -5.533272 15.986157
151 1 1 -22.867693 -4.803543 15.515226
152 1 1 -22.194871 -4.572614 16.218065
153 1 1 -21.395034 -4.492973 15.623154
154 1 1 -21.445131 -3.700091 15.015842
155 1 1 -21.391392 -4.361881 15.763603
156 1 1 -22.367994 -4.563953 15.690025
157 1 1 -22.326678 -3.729531 16.239600
158 1 1 -22.711937 -2.921721 15.793486
159 1 1 -23.489650 -3.544626 15.878059
160 1 1 -23.258734 -4.499220 16.066282
161 1 1 -23.573846 -3.665704 15.612459
162 1 1 -23.005009 -3.309047 14.871366
163 1 1 -22.119962 -3.178991 15.318330
164 1 1 -21.329717 -3.789480 15.265259
165 1 1 -21.972532 -4.526699 15.473335
166 1 1 -21.798402 -3.844405 16.183373
167 1 1 -21.804858 -4.097417 17.150814
168 1 1 -20.888161 -4.142940 16.753833
169 1 1 -21.229695 -3.916451 17.666004
170 1 1 -20.341198 -3.517367 17.439499
171 1 1 -19.874387 -4.379530 17.636380
172 1 1 -19.927200 -4.111140 16.674519
173 1 1 -20.211087 -4.350377 15.745986
174 1 1 -20.348438 -5.188155 15.217532
175 1 1 -20.767765 -5.554633 14.386955
176 1 1 -19.822251 -5.382264 14.663163
177 1 1 -19.616282 -5.972590 13.882719
178 1 1 -19.194697 -6.149871 12.993428
179 1 1 -20.138537 -6.054679 12.677035
180 1 1 -20.237114 -6.852896 12.082785
181 1 1 -20.374267 -7.843334 12.067888
182 1 1 -19.908508 -7.514758 11.246240
183 1 1 -20.611914 -8.213545 11.116180
184 1 1 -20.179623 -8.050212 10.229361
185 1 1 -20.120319 -7.177800 9.744200
186 1 1 -19.302783 -7.457500 10.247591
187 1 1 -18.430299 -7.931151 10.127479
188 1 1 -18.275831 -7.067981 9.646772
189 1 1 -17.532522 -6.694001 9.092129
190 1 1 -18.341342 -7.203518 8.798525
191 1 1 -18.891722 -6.520674 8.318103
192 1 1 -19.372382 -7.264376 7.853482
193 1 1 -19.256010 -8.212592 7.557939
194 1 1 -18.411769 -7.695510 7.416929
195 1 1 -17.662163 -8.330520 7.603618
196 1 1 -18.367613 -8.895515 7.175690
197 1 1 -17.466187 -8.727478 7.574683
198 1 1 -17.203612 -8.092221 8.300977
199 1 1 -16.568232 -7.958343 7.540471
200 1 1 -16.959175 -7.358190 8.238311
201 1 1 -16.720655 -8.059594 8.909982
202 1 1 -15.747972 -8.284054 8.969182
203 1 1 -15.899341 -7.569889 9.652596
204 1 1 -16.847236 -7.738844 9.922685
205 1 1 -16.406975 -8.577312 10.243843
206 1 1 -15.426903 -8.773633 10.213574
207 1 1 -14.761652 -8.577237 9.493247
208 1 1 -15.316303 -9.067652 8.821045
209 1 1 -15.353836 -10.065685 8.871259
210 1 1 -14.992227 -9.139345 8.976778
211 1 1 -15.797414 -8.549090 8.919564
212 1 1 -14.894565 -8.914730 9.145775
213 1 1 -15.013414 -8.947833 10.138135
214 1 1 -15.950039 -8.742399 10.421915
215 1 1 -16.127968 -9.715650 10.567252
216 1 1 -17.001154 -10.180685 10.421351
217 1 1 -16.669291 -9.500006 11.074453
218 1 1 -16.250789 -9.774686 11.940136
219 1 1 -16.362993 -9.336934 11.048069
220 1 1 -17.216560 -9.857675 11.032173
221 1 1 -18.102729 -9.564130 11.390693
222 1 1 -17.653369 -9.874062 12.228558
223 1 1 -18.185836 -9.030519 12.158456
224 1 1 -18.380172 -9.989739 11.953199
225 1 1 -17.900543 -9.366741 12.571123
226 1 1 -17.149526 -8.817885 12.938179
227 1 1 -16.239211 -9.056153 12.599718
228 1 1 -16.219869 -10.044918 12.451496
229 1 1 -16.281406 -10.912918 11.958759
230 1 1 -15.344289 -11.251812 12.042200
231 1 1 -14.733060 -11.629468 11.346661
232 1 1 -14.763381 -11.411278 10.371226
233 1 1 -13.998880 -11.803874 9.859946
234 1 1 -14.669098 -11.956437 10.586260
235 1 1 -14.166060 -11.175452 10.216103
236 1 1 -13.385245 -10.550863 10.201434
237 1 1 -14.077974 -10.537442 10.922507
238 1 1 -14.110233 -11.055646 11.777156
239 1 1 -14.678940 -10.611142 12.469245
240 1 1 -15.456966 -10.547416 13.094238
241 1 1 -15.913595 -9.658518 13.057492
242 1 1 -15.483620 -8.883247 12.594808
243 1 1 -15.846294 -8.394209 11.801517
244 1 1 -16.728191 -8.765825 11.511418
245 1 1 -17.331292 -8.466200 12.250670
246 1 1 -16.854084 -8.031200 13.014246
247 1 1 -17.841139 -8.115410 13.150747
248 1 1 -17.633720 -8.752971 13.892699
249 1 1 -18.384672 -8.530315 14.514387
250 1 1 -17.605562 -9.022385 14.125986
251 1 1 -17.281862 -8.510098 14.921460
252 1 1 -17.318948 -8.971033 14.034801
253 1 1 -16.569334 -9.560518 14.335778
254 1 1 -16.346359 -8.951949 15.097307
255 1 1 -15.388185 -8.991455 15.380755
256 1 1 -16.295238 -8.968788 14.960348
257 1 1 -16.414936 -7.979902 15.048538
258 1 1 -15.489899 -8.146042 15.390159
259 1 1 -15.643086 -9.097887 15.124594
260 1 1 -16.492047 -8.570072 15.150589
261 1 1 -16.596949 -7.740782 15.699473
262 1 1 -16.774837 -7.341599 14.800023
263 1 1 -16.979609 -7.445760 15.773275
264 1 1 -17.316802 -8.379714 15.891726
265 1 1 -16.324932 -8.495966 15.839960
266 1 1 -16.471241 -8.448805 16.828074
267 1 1 -15.500875 -8.211410 16.782970
268 1 1 -14.503589 -8.151333 16.825513
269 1 1 -15.160193 -8.726583 17.313324
270 1 1 -15.681628 -7.898268 17.518260
271 1 1 -14.868872 -8.418685 17.256357
272 1 1 -13.993913 -8.134011 17.648030
273 1 1 -13.518633 -8.557085 16.876592
274 1 1 -13.046614 -8.700793 17.746389
275 1 1 -13.074355 -9.163220 18.632613
276 1 1 -12.636705 -9.621777 17.859187
277 1 1 -12.039478 -10.305941 18.277804
278 1 1 -11.399793 -11.051805 18.092088
279 1 1 -11.151197 -10.207914 18.567533
280 1 1 -11.431044 -9.273211 18.348405
281 1 1 -11.560293 -8.937342 17.415406
282 1 1 -10.631440 -8.573432 17.484701
283 1 1 -11.049985 -9.435218 17.771312
284 1 1 -10.196937 -9.906210 17.546647
285 1 1 -9.903779 -9.932833 16.590954
286 1 1 -9.249556 -9.688423 17.306675
287 1 1 -9.540921 -10.513781 16.823051
288 1 1 -9.444455 -9.854598 17.568821
289 1 1 -9.240858 -10.809274 17.351701
290 1 1 -8.534354 -10.119138 17.508429
291 1 1 -8.035861 -10.450442 16.707341
292 1 1 -8.362988 -10.884291 17.546842
293 1 1 -8.478788 -11.794496 17.944481
294 1 1 -7.498861 -11.738220 18.135732
295 1 1 -6.734547 -11.352237 17.619165
296 1 1 -6.222315 -10.547080 17.918065
297 1 1 -5.411402 -10.002709 17.703404
298 1 1 -5.581565 -9.266741 17.048121
299 1 1 -5.143178 -8.802992 16.278216
300 1 1 -5.211263 -9.565354 15.634657
301 1 1 -4.969017 -9.838917 16.565506
302 1 1 -4.618398 -9.435468 15.720346
303 1 1 -4.737948 -8.931253 14.865084
304 1 1 -3.941769 -9.190219 15.411924
305 1 1 -4.881135 -9.341346 15.719741
306 1 1 -4.769046 -8.587596 15.072210
307 1 1 -5.328349 -9.241483 15.581732
308 1 1 -4.480262 -9.463730 15.100738
309 1 1 -4.772585 -9.375100 14.148535
310 1 1 -4.872193 -9.629726 13.186639
311 1 1 -5.207065 -8.759374 12.825599
312 1 1 -4.950554 -7.909476 13.285897
313 1 1 -4.938421 -7.329315 12.471486
314 1 1 -5.876995 -7.631118 12.304176
315 1 1 -5.914395 -6.887621 12.971869
316 1 1 -5.953777 -6.615939 12.010288
317 1 1 -5.791056 -7.298496 12.722775
318 1 1 -6.133916 -6.929089 11.859070
319 1 1 -5.572834 -6.682370 12.649207
320 1 1 -5.534612 -7.581842 12.213903
321 1 1 -6.129042 -6.833987 11.918325
322 1 1 -6.884071 -6.235552 12.186293
323 1 1 -6.651150 -6.472329 11.243062
324 1 1 -7.122553 -7.234048 11.687543
325 1 1 -6.341341 -7.554581 12.223236
326 1 1 -5.711206 -6.959038 12.721493
327 1 1 -5.341091 -6.924243 11.793159
328 1 1 -6.233329 -6.515992 11.986142
329 1 1 -7.175338 -6.450170 11.657074
330 1 1 -7.372803 -7.389931 11.936103
331 1 1 -7.433824 -6.790932 12.734525
332 1 1 -6.823784 -6.010818 12.873351
333 1 1 -6.568517 -6.753959 13.491881
334 1 1 -6.707986 -7.445760 14.200373
335 1 1 -6.493580 -8.248057 13.643283
336 1 1 -6.611867 -8.978545 14.315888
337 1 1 -6.444151 -8.465140 15.157486
338 1 1 -5.553913 -8.639069 15.578467
339 1 1 -5.294575 -7.848462 16.133160
340 1 1 -4.400650 -7.504648 15.845602
341 1 1 -4.284343 -8.455685 16.131960
342 1 1 -3.623861 -8.709642 15.425369
343 1 1 -3.750663 -9.701017 15.458515
344 1 1 -4.246666 -9.617980 14.594174
345 1 1 -3.306960 -9.742799 14.912564
346 1 1 -2.460707 -9.888801 15.424950
347 1 1 -2.894271 -10.701819 15.036331
348 1 1 -2.579609 -11.475518 14.486441
349 1 1 -3.096722 -11.836128 15.262685
350 1 1 -3.131774 -12.702609 15.760664
351 1 1 -2.484618 -13.138438 16.386157
352 1 1 -3.284695 -13.437941 16.905938
353 1 1 -2.323362 -13.303384 16.665663
354 1 1 -1.857319 -13.508533 17.526312
355 1 1 -1.126812 -13.025458 17.043614
356 1 1 -0.163604 -13.223396 16.861812
357 1 1 -0.729692 -13.333486 17.678773
358 1 1 -0.486157 -13.089212 18.617400
359 1 1 -0.693848 -12.213467 18.181586
360 1 1 -0.773772 -12.866024 18.935098
361 1 1 0.074385 -12.353083 18.802728
362 1 1 0.915703 -12.717262 19.202176
363 1 1 1.893514 -12.743478 18.994335
364 1 1 1.172813 -12.059256 19.105827
365 1 1 0.509888 -12.800235 19.212968
366 1 1 0.120460 -11.880402 19.165507
367 1 1 0.063819 -11.887057 18.167134
368 1 1 -0.914909 -12.088261 18.207251
369 1 1 -1.443850 -11.276013 18.453167
370 1 1 -0.707167 -10.604084 18.376937
371 1 1 0.104179 -10.537773 17.796144
372 1 1 -0.816033 -10.502723 18.185991
373 1 1 -0.732215 -9.513202 18.068428
374 1 1 -0.272150 -8.932215 17.397015
375 1 1 0.023992 -8.592333 18.289641
376 1 1 0.739042 -8.002175 17.914918
377 1 1 1.314710 -7.188640 17.997178
378 1 1 1.794128 -6.698673 18.725252
379 1 1 2.038080 -5.829592 19.155584
380 1 1 2.271754 -6.706024 18.734557
381 1 1 1.466754 -6.800487 19.320263
382 1 1 2.111041 -6.036622 19.282788
383 1 1 2.956924 -6.260109 19.767078
384 1 1 3.422390 -6.905338 19.161255
385 1 1 4.338091 -6.784315 19.544457
386 1 1 5.316395 -6.585998 19.604388
387 1 1 6.149421 -7.129202 19.499516
388 1 1 6.721339 -7.948094 19.547741
389 1 1 6.656741 -7.840246 18.555675
390 1 1 7.603934 -7.845909 18.876288
391 1 1 6.990136 -8.632614 18.942217
392 1 1 6.775149 -7.995973 18.201630
393 1 1 6.056884 -7.670755 18.816714
394 1 1 7.002635 -7.626145 19.138530
395 1 1 6.641120 -6.923841 19.751780
396 1 1 7.190678 -7.632071 20.194947
397 1 1 6.537082 -7.066177 20.697516
398 1 1 7.512161 -7.154572 20.494028
399 1 1 6.924689 -7.853539 20.901855
400 1 1 6.202125 -7.217355 20.631354
401 1 1 5.860448 -6.519296 21.260615
402 1 1 4.868612 -6.633780 21.316785
403 1 1 5.557453 -7.274171 20.977083
404 1 1 5.511740 -6.655285 21.761233
405 1 1 5.261828 -5.719416 22.009612
406 1 1 4.833046 -6.585577 21.752880
407 1 1 3.870528 -6.487621 22.005790
408 1 1 4.474263 -6.236451 21.249207
409 1 1 4.371885 -5.905117 20.311264
410 1 1 3.622901 -5.250363 20.412860
411 1 1 2.649482 -5.476735 20.447657
412 1 1 3.563820 -5.644368 20.079031
413 1 1 3.938995 -5.155432 20.866550
414 1 1 4.687528 -5.163019 20.203495
415 1 1 4.777913 -5.095791 21.197131
416 1 1 5.419210 -5.585530 21.787802
417 1 1 6.141120 -5.677318 22.473675
418 1 1 6.802510 -4.980438 22.196329
419 1 1 7.082536 -4.024876 22.288452
420 1 1 6.188404 -4.166688 21.863697
421 1 1 6.333041 -4.198646 22.852665
422 1 1 6.701424 -3.318377 22.553634
423 1 1 6.643281 -2.526206 21.946111
424 1 1 6.733375 -3.207504 22.672552
425 1 1 5.753704 -3.387066 22.583097
426 1 1 5.210593 -2.548283 22.544720
427 1 1 5.948661 -2.827352 21.930411
428 1 1 6.037843 -2.747307 22.923205
429 1 1 5.517302 -3.530381 22.582864
430 1 1 5.870222 -2.915035 21.878026
431 1 1 5.639921 -2.465012 22.740836
432 1 1 5.441717 -2.402733 21.762656
433 1 1 4.549500 -1.951901 21.789108
434 1 1 4.462803 -0.966877 21.640073
435 1 1 3.513627 -0.743043 21.861347
436 1 1 3.035240 -0.292925 22.615362
437 1 1 2.484589 -1.126477 22.570915
438 1 1 3.313055 -1.465220 22.124937
439 1 1 2.487147 -1.047393 22.503481
440 1 1 2.436827 -0.571132 23.381344
441 1 1 2.005033 0.295496 23.631363
442 1 1 2.964574 0.030700 23.535628
443 1 1 3.068991 -0.956476 23.414874
444 1 1 3.539080 -1.832793 23.520158
445 1 1 4.411559 -2.099129 23.110468
446 1 1 3.568357 -2.122529 22.573381
447 1 1 3.885186 -1.228593 22.890396
448 1 1 3.207178 -0.604862 22.501469
449 1 1 2.310490 -0.984362 22.729352
450 1 1 2.166856 -0.736473 23.687433
451 1 1 2.707463 -0.077859 23.164010
452 1 1 3.482297 0.142511 23.756520
453 1 1 3.178867 0.251878 22.809964
454 1 1 2.930731 -0.368199 22.065697
455 1 1 3.690495 -1.016312 22.013655
456 1 1 3.594184 -0.544026 22.889823
457 1 1 2.714463 -0.831742 22.511259
458 1 1 3.286146 -0.070930 22.204107
459 1 1 2.846766 -0.908031 22.529999
460 1 1 3.752138 -0.695094 22.162631
461 1 1 3.334541 -1.051454 21.326796
462 1 1 4.317357 -1.001956 21.148968
463 1 1 5.146714 -0.915134 21.700899
464 1 1 5.393706 0.051075 21.774618
465 1 1 5.005552 0.513574 22.571757
466 1 1 5.966027 0.699099 22.364227
467 1 1 5.434754 1.171864 21.661204
468 1 1 5.072550 1.804722 22.345527
469 1 1 5.377520 1.369196 21.498586
470 1 1 5.968633 1.628699 20.734882
471 1 1 6.208351 2.576289 20.523673
472 1 1 6.590220 1.673106 20.327620
473 1 1 6.111124 0.834406 20.586558
474 1 1 5.147738 0.815845 20.854035
475 1 1 5.399768 -0.139630 21.007491
476 1 1 4.665213 -0.493857 21.586241
477 1 1 4.766634 0.236654 20.910914
478 1 1 3.953669 -0.055700 21.414517
479 1 1 4.603403 0.697804 21.314129
480 1 1 4.574103 0.630170 22.311409
481 1 1 4.626712 1.624254 22.216384
482 1 1 5.387725 1.034673 21.945732
483 1 1 5.857963 0.314622 21.435434
484 1 1 5.768870 -0.003364 22.379333
485 1 1 6.228617 -0.558267 23.072671
486 1 1 6.083991 -0.645664 22.087051
487 1 1 6.792930 -0.065011 21.686741
488 1 1 6.824423 -0.630500 22.510895
489 1 1 6.225164 -1.255099 22.010133
490 1 1 6.415391 -0.351751 21.625717
491 1 1 6.453854 -0.583017 22.597847
492 1 1 6.567391 -1.320666 23.263417
493 1 1 6.743607 -0.377090 22.983037
494 1 1 6.424854 -0.475482 22.040319
495 1 1 6.203194 0.371778 22.523037
496 1 1 5.338685 0.853419 22.666727
497 1 1 6.301763 0.939968 22.921656
498 1 1 6.393982 1.026894 21.929718
499 1 1 7.303743 1.240646 22.285590
500 1 1 8.121357 0.666965 22.236627
501 1 1 7.172640 0.884779 22.465740
502 1 1 7.078804 0.113577 23.095377
503 1 1 6.635064 0.167820 22.200864
504 1 1 6.193569 -0.123067 21.352060
505 1 1 5.973436 0.720593 21.841733
506 1 1 6.697274 0.513504 21.183575
507 1 1 6.273021 -0.317941 21.542335
508 1 1 7.217599 -0.209486 21.852192
509 1 1 7.683263 -0.298967 22.732618
510 1 1 6.764125 -0.679082 22.629184
511 1 1 5.925158 -1.168149 22.867821
512 1 1 6.070397 -2.089389 23.228685
513 1 1 6.504089 -1.188886 23.196989
514 1 1 6.945306 -2.077396 23.070990
515 1 1 6.325325 -2.367789 23.799891
516 1 1 7.295994 -2.326475 23.563048
517 1 1 7.671434 -2.098724 24.461477
518 1 1 7.949148 -3.058553 24.501528
519 1 1 7.606906 -3.975397 24.707116
520 1 1 7.666509 -4.176393 25.684893
521 1 1 8.313716 -3.478970 25.992667
522 1 1 8.920054 -3.999008 26.594261
523 1 1 8.825346 -3.279954 27.282732
524 1 1 9.539271 -3.836342 27.707871
525 1 1 9.799715 -4.782702 27.516635
526 1 1 9.516104 -4.178656 28.261412
527 1 1 9.067341 -4.497607 27.426618
528 1 1 9.213746 -4.081740 28.324181
529 1 1 8.424951 -3.471203 28.253143
530 1 1 7.771762 -3.769466 27.557166
531 1 1 8.138390 -3.743762 28.487179
532 1 1 7.905731 -4.605937 28.037151
533 1 1 8.130643 -5.477805 27.602110
534 1 1 8.463547 -6.268598 28.115744
535 1 1 9.014660 -7.102679 28.091566
536 1 1 8.310912 -7.653858 27.643303
537 1 1 8.372137 -7.742795 26.649149
538 1 1 7.996263 -6.918569 26.225627
539 1 1 7.915879 -6.151361 26.861968
540 1 1 7.664488 -5.425446 27.502163
541 1 1 7.458131 -6.286393 27.967121
542 1 1 7.270490 -6.604739 27.037903
543 1 1 6.749868 -6.435102 27.874668
544 1 1 6.124166 -7.154325 28.176688
545 1 1 5.374711 -6.503207 28.296537
546 1 1 6.170590 -5.918962 28.137679
547 1 1 6.009138 -5.515845 29.038473
548 1 1 5.635746 -6.440233 29.116484
549 1 1 5.614992 -6.575181 28.125849
550 1 1 5.950932 -7.484468 27.880204
551 1 1 6.698047 -8.100366 28.130179
552 1 1 6.966524 -7.845356 27.201260
553 1 1 7.850728 -7.700215 27.645239
554 1 1 8.108190 -7.632056 28.609120
555 1 1 8.703714 -8.375545 28.304857
556 1 1 8.650991 -9.194296 28.876580
557 1 1 7.894889 -8.590766 29.129684
558 1 1 7.717748 -9.523284 28.814991
559 1 1 7.864019 -8.554909 28.612866
560 1 1 7.605740 -8.707533 29.566804
561 1 1 7.834490 -9.157687 28.703651
562 1 1 7.469475 -10.010158 28.329409
563 1 1 8.343914 -9.554011 28.494595
564 1 1 8.550963 -8.725113 27.974922
565 1 1 9.442335 -9.040066 28.300899
566 1 1 9.607225 -9.473665 29.186790
567 1 1 8.668871 -9.330886 29.501599
568 1 1 8.277018 -9.732128 30.329522
569 1 1 7.549572 -10.021383 29.707305
570 1 1 7.292936 -10.304463 28.783182
571 1 1 8.241518 -10.576114 28.945662
572 1 1 8.211912 -9.691220 29.410512
573 1 1 8.829001 -9.054674 29.873126
574 1 1 8.865076 -8.538244 29.017557
575 1 1 9.617770 -7.939600 29.291557
576 1 1 8.965033 -7.254122 28.968983
577 1 1 9.304146 -8.191758 28.892557
578 1 1 8.772096 -8.837113 28.344433
579 1 1 9.751796 -8.839815 28.544887
580 1 1 10.469960 -9.305401 29.062061
581 1 1 10.036813 -10.065586 28.577806
582 1 1 9.346652 -10.648620 28.149146
583 1 1 8.975153 -10.133903 28.921839
584 1 1 8.484452 -9.564862 29.581691
585 1 1 8.171711 -9.177188 28.714569
586 1 1 9.111573 -9.503186 28.816475
587 1 1 9.474840 -9.282610 27.911277
588 1 1 8.550348 -9.314068 27.531376
589 1 1 7.959153 -9.411142 26.730711
590 1 1 8.392755 -9.022906 25.917531
591 1 1 8.701695 -9.769689 26.506490
592 1 1 9.276425 -9.763360 27.324808
593 1 1 9.761789 -9.548230 26.477376
594 1 1 9.933837 -9.297088 27.429913
595 1 1 9.165427 -8.726993 27.720667
596 1 1 9.436468 -9.517609 27.171610
597 1 1 10.241749 -8.926852 27.121308
598 1 1 11.154796 -8.698104 26.783641
599 1 1 10.319258 -8.153149 26.713641
600 1 1 10.448256 -9.103179 26.429386
601 1 1 10.814321 -9.394637 25.545616
602 1 1 9.879849 -9.215769 25.237770
603 1 1 9.450838 -9.584973 24.413368
604 1 1 8.978288 -10.465363 24.453498
605 1 1 8.197333 -11.089788 24.467735
606 1 1 8.113865 -11.014181 25.461373
607 1 1 8.640824 -10.216297 25.754112
608 1 1 8.580490 -10.610262 24.836969
609 1 1 8.101078 -11.401246 24.456826
610 1 1 7.247456 -11.921963 24.443279
611 1 1 6.934301 -11.256786 25.121124
612 1 1 7.685695 -10.625960 25.314684
613 1 1 6.976182 -10.012223 24.968393
614 1 1 6.803205 -9.670998 24.044464
615 1 1 6.131969 -9.539053 24.773870
616 1 1 6.400221 -8.636751 24.436389
617 1 1 6.145234 -9.542159 24.096952
618 1 1 6.849356 -8.941904 23.717603
619 1 1 6.648242 -9.453459 22.882220
620 1 1 6.065962 -10.236453 23.101015
621 1 1 6.232811 -9.790300 23.980281
622 1 1 5.877116 -10.724380 24.011501
623 1 1 6.282920 -10.845462 23.105597
624 1 1 5.902530 -10.306371 22.354142
625 1 1 6.373238 -11.114903 22.707286
626 1 1 7.313308 -11.453634 22.668190
627 1 1 7.180531 -10.494721 22.417480
628 1 1 6.651050 -10.221830 23.220711
629 1 1 6.959088 -10.357696 24.162333
630 1 1 6.498319 -10.830893 23.411483
631 1 1 6.925388 -11.612091 22.956135
632 1 1 7.062191 -11.385822 23.920545
633 1 1 7.340052 -11.709642 24.824942
634 1 1 7.900575 -11.100418 25.385888
635 1 1 8.173455 -11.878973 24.820742
636 1 1 8.903995 -11.863295 24.138053
637 1 1 8.955164 -10.938818 24.515840
638 1 1 8.960178 -11.938498 24.540610
639 1 1 8.877004 -10.941963 24.540950
640 1 1 8.756940 -11.896455 24.267947
641 1 1 9.008890 -12.382869 23.431333
642 1 1 8.052111 -12.297070 23.153463
643 1 1 7.867176 -13.163348 22.689392
644 1 1 7.082794 -12.773564 23.171900
645 1 1 7.728158 -12.974888 23.908767
646 1 1 7.083078 -13.551261 24.410430
647 1 1 6.246291 -13.602887 23.865341
648 1 1 5.328538 -13.860230 24.167837
649 1 1 5.726181 -14.638497 23.681853
650 1 1 5.369521 -14.049973 24.407409
651 1 1 6.043046 -13.334952 24.220034
652 1 1 5.316865 -12.675490 24.025685
653 1 1 5.348441 -13.350458 23.288514
654 1 1 5.752941 -13.809829 22.497718
655 1 1 4.846959 -13.701028 22.088624
656 1 1 4.775042 -14.611667 21.681730
657 1 1 5.597124 -14.762783 21.132781
658 1 1 6.359621 -15.171802 21.634081
659 1 1 6.528927 -14.827946 22.557714
660 1 1 7.353274 -14.366771 22.229431
661 1 1 6.414439 -14.664127 22.055741
662 1 1 7.386353 -14.677107 22.290718
663 1 1 6.424562 -14.727646 22.559798
664 1 1 7.336737 -14.318794 22.587649
665 1 1 6.338138 -14.360600 22.555207
666 1 1 5.971185 -14.143591 23.459780
667 1 1 6.134499 -13.250692 23.040184
668 1 1 5.360590 -13.087004 22.428407
669 1 1 5.076096 -13.232531 21.480839
670 1 1 5.854732 -12.611549 21.570877
671 1 1 6.380801 -11.835287 21.223501
672 1 1 7.363501 -11.685586 21.114466
673 1 1 7.070698 -10.741308 21.264820
674 1 1 6.582982 -10.598095 20.403645
675 1 1 6.718107 -10.141021 21.282749
676 1 1 6.789787 -10.517419 22.206430
677 1 1 7.397829 -9.748440 22.009058
678 1 1 7.689215 -10.681585 22.219617
679 1 1 6.934066 -11.062048 21.685764
680 1 1 7.641322 -10.500428 21.256378
681 1 1 8.136685 -10.495560 20.387706
682 1 1 7.890269 -11.464722 20.389745
683 1 1 8.147402 -12.177374 21.042440
684 1 1 8.818744 -12.835151 21.383951
685 1 1 8.718341 -13.045496 22.356409
686 1 1 7.851366 -13.521095 22.207551
687 1 1 8.231276 -12.988520 21.451223
688 1 1 8.675512 -12.386730 22.114928
689 1 1 8.758672 -12.834553 21.224681
690 1 1 9.609038 -13.229519 20.877005
691 1 1 9.325128 -14.177382 20.732258
692 1 1 9.176433 -14.451294 19.782067
693 1 1 8.910489 -14.616299 18.832306
694 1 1 9.889955 -14.766518 18.966771
695 1 1 10.607239 -15.407348 18.693199
696 1 1 11.006574 -14.816842 19.394508
697 1 1 10.829348 -14.275992 20.216744
698 1 1 9.876294 -14.575041 20.169241
699 1 1 9.855060 -13.737261 20.714836
700 1 1 9.732342 -13.845078 19.728268
701 1 1 9.308330 -13.307041 18.999756
702 1 1 9.891699 -14.043485 18.657219
703 1 1 9.816162 -13.060406 18.824103
704 1 1 10.005915 -12.666927 17.924566
705 1 1 10.709302 -13.317882 17.639074
706 1 1 11.001304 -13.870896 16.858747
707 1 1 11.760720 -14.094363 17.469771
708 1 1 12.027208 -14.214783 18.426057
709 1 1 11.904112 -13.310498 18.017258
710 1 1 11.094367 -13.868978 18.197297
711 1 1 10.512168 -14.229296 18.926142
712 1 1 10.658133 -13.286546 19.226005
713 1 1 10.061424 -14.066313 19.415482
714 1 1 10.156094 -14.745779 18.687908
715 1 1 10.956060 -14.169840 18.856283
716 1 1 10.795383 -14.368960 19.822996
717 1 1 10.556772 -13.434256 19.559572
718 1 1 9.966663 -12.628071 19.516706
719 1 1 10.916599 -12.351956 19.370482
720 1 1 11.791194 -12.617991 19.775833
721 1 1 11.715286 -13.590527 19.995859
722 1 1 10.943354 -13.798443 20.596602
723 1 1 10.070155 -13.466073 20.953049
724 1 1 10.978065 -13.078679 21.113130
725 1 1 10.560251 -13.095781 20.204758
726 1 1 11.243961 -13.449038 19.566205
727 1 1 11.254212 -12.577389 20.056228
728 1 1 10.580584 -11.838373 20.065183
729 1 1 10.895125 -11.850104 19.116011
730 1 1 11.141353 -12.265031 18.240108
731 1 1 11.249553 -11.488684 18.861058
732 1 1 11.475615 -12.341959 18.391146
733 1 1 11.379713 -13.218042 18.863673
734 1 1 11.413012 -13.880563 19.611976
735 1 1 12.232704 -14.446735 19.525062
736 1 1 11.754801 -14.035457 18.748879
737 1 1 12.132722 -13.745364 19.628096
738 1 1 11.214561 -14.125248 19.515540
739 1 1 12.003984 -14.074681 20.127305
740 1 1 12.415496 -14.974809 19.984383
741 1 1 12.024606 -15.290650 19.119831
742 1 1 12.370549 -15.161707 18.190478
743 1 1 12.765120 -15.499727 17.336045
744 1 1 13.729788 -15.548179 17.595019
745 1 1 13.635342 -15.589296 16.600338
746 1 1 14.313235 -16.324078 16.576739
747 1 1 14.237616 -16.936927 15.790166
748 1 1 14.102555 -16.074514 15.302312
749 1 1 13.384162 -16.014081 14.609305
750 1 1 13.836956 -15.863628 15.488135
751 1 1 13.917008 -14.904486 15.216772
752 1 1 14.086600 -15.826374 14.868403
753 1 1 13.863869 -15.433526 15.760625
754 1 1 13.678780 -16.416213 15.752472
755 1 1 13.499307 -16.910190 16.603223
756 1 1 14.251405 -17.373016 16.134030
757 1 1 13.324790 -17.595613 16.437074
758 1 1 12.705007 -16.967493 16.907535
759 1 1 13.400032 -16.251116 16.846349
760 1 1 14.072586 -15.552714 17.091105
761 1 1 14.071058 -14.896650 17.845809
762 1 1 13.512921 -14.072194 17.939379
763 1 1 14.478624 -14.185233 17.705625
764 1 1 13.947902 -13.601525 17.091118
765 1 1 14.373765 -13.889625 17.948812
766 1 1 14.958896 -13.459651 17.261248
767 1 1 14.608973 -14.118134 17.927547
768 1 1 13.784792 -14.666938 18.067333
769 1 1 14.689293 -15.064159 18.222553
770 1 1 14.705758 -15.624186 19.050864
771 1 1 15.703751 -15.580859 19.004676
772 1 1 16.315264 -14.790337 19.038263
773 1 1 17.095240 -15.212548 19.500189
774 1 1 16.351841 -15.863965 19.651895
775 1 1 16.089893 -14.941340 19.935000
776 1 1 16.981888 -14.512024 19.793466
777 1 1 17.274255 -14.867759 20.681145
778 1 1 16.615791 -15.104812 21.395449
779 1 1 16.461231 -14.552627 22.214719
780 1 1 16.855303 -14.714647 23.119405
781 1 1 17.087797 -15.088598 24.017240
782 1 1 17.307530 -14.521156 24.810793
783 1 1 17.040762 -13.889411 24.082966
784 1 1 16.681409 -14.009406 25.008421
785 1 1 17.153521 -13.156739 24.784661
786 1 1 17.455439 -14.107445 24.713927
787 1 1 17.726061 -14.336762 23.778953
788 1 1 17.042557 -14.004072 24.428675
789 1 1 16.914589 -13.192879 23.858070
790 1 1 17.424811 -12.909754 24.670175
791 1 1 16.641398 -12.299018 24.785351
792 1 1 15.749197 -12.723848 24.632065
793 1 1 16.064956 -13.388380 23.954796
794 1 1 16.339573 -13.330100 24.914582
795 1 1 16.816150 -14.209076 24.897958
796 1 1 17.085879 -14.117099 23.939424
797 1 1 17.480802 -13.201067 23.869272
798 1 1 16.798552 -12.471366 23.914787
799 1 1 17.082769 -11.984799 23.088667
800 1 1 17.088215 -12.323265 22.147704
801 1 1 18.047459 -12.044519 22.101322
802 1 1 18.813056 -12.121081 22.740070
803 1 1 19.365908 -12.300870 21.926417
804 1 1 19.787909 -12.093797 22.809048
805 1 1 18.803106 -12.164393 22.967730
806 1 1 19.519062 -11.900498 23.614079
807 1 1 18.564709 -12.024805 23.342496
808 1 1 17.597228 -11.946433 23.102000
809 1 1 16.969680 -12.703744 23.282734
810 1 1 16.054676 -12.734647 22.880475
811 1 1 16.119588 -11.854612 23.350925
812 1 1 16.098687 -11.229954 24.131545
813 1 1 16.569880 -10.354682 24.240522
814 1 1 17.442136 -10.440699 23.759096
815 1 1 17.501737 -11.433978 23.659881
816 1 1 18.448957 -11.121411 23.588642
817 1 1 19.144992 -10.535802 23.173192
818 1 1 18.788282 -9.603864 23.238384
819 1 1 18.961844 -10.017922 22.344833
820 1 1 19.734192 -10.532092 22.717806
821 1 1 20.688048 -10.246732 22.624381
822 1 1 21.359168 -9.648768 22.186162
823 1 1 21.497401 -10.208732 21.369258
824 1 1 21.222508 -11.115474 21.049487
825 1 1 21.167902 -11.009438 22.042349
826 1 1 20.347400 -11.410363 21.634874
827 1 1 19.930187 -10.560489 21.312931
828 1 1 19.835843 -10.631078 22.305965
829 1 1 19.629696 -11.146817 23.137540
830 1 1 19.363237 -11.996458 23.592634
831 1 1 19.802410 -12.674570 23.003320
832 1 1 19.777531 -13.212566 22.160740
833 1 1 19.270066 -12.472935 22.602809
834 1 1 18.285812 -12.635079 22.673197
835 1 1 18.076156 -12.673912 23.650201
836 1 1 17.439031 -13.440298 23.568195
837 1 1 16.718151 -13.930575 23.078339
838 1 1 16.110521 -13.254057 22.662274
839 1 1 16.803316 -13.745681 22.134694
840 1 1 17.026436 -14.109308 23.039123
841 1 1 17.188976 -13.515937 22.250776
842 1 1 16.221760 -13.604277 22.012681
843 1 1 16.189458 -12.867315 21.337518
844 1 1 17.095146 -13.285108 21.265557
845 1 1 17.905251 -13.377262 21.844554
846 1 1 18.389069 -12.931871 21.091198
847 1 1 17.984075 -13.708614 20.608860
848 1 1 17.865257 -12.771799 20.279830
849 1 1 17.621075 -12.930751 21.236444
850 1 1 17.023235 -12.566950 21.950752
851 1 1 17.218351 -13.385980 21.411197
852 1 1 17.519210 -14.325700 21.248686
853 1 1 16.540013 -14.145328 21.155736
854 1 1 15.736661 -14.320712 20.586644
855 1 1 15.229009 -13.467786 20.708330
856 1 1 15.381181 -12.479483 20.698313
857 1 1 16.348182 -12.255388 20.819516
858 1 1 16.040335 -12.861669 20.086268
859 1 1 15.135910 -12.515381 20.335465
860 1 1 14.555184 -11.842247 19.877590
861 1 1 14.279253 -12.652044 19.359815
862 1 1 14.959720 -12.359981 18.687755
863 1 1 15.946754 -12.517434 18.656560
864 1 1 16.805004 -12.200292 18.253040
865 1 1 16.411935 -11.804464 17.423090
866 1 1 16.066087 -12.682803 17.093075
867 1 1 16.790757 -13.122761 16.562707
868 1 1 16.718662 -12.298969 17.124996
869 1 1 16.847107 -13.121359 16.570761
870 1 1 17.335076 -13.849603 16.089567
871 1 1 16.816879 -14.510992 15.547315
872 1 1 16.867023 -14.898949 16.467628
873 1 1 17.263166 -14.416083 17.248596
874 1 1 16.604970 -15.147544 17.070428
875 1 1 16.905002 -14.867459 17.982313
876 1 1 17.575204 -14.366379 18.529805
877 1 1 17.840090 -13.452989 18.220686
878 1 1 17.624216 -12.963605 17.375759
879 1 1 18.215172 -12.179001 17.188230
880 1 1 18.856482 -12.002219 16.441591
881 1 1 19.184840 -11.546688 17.269040
882 1 1 18.775823 -11.206407 16.422333
883 1 1 19.530827 -11.221587 17.077877
884 1 1 18.953590 -11.028298 16.284507
885 1 1 18.468218 -10.157349 16.207950
886 1 1 18.462214 -9.414485 15.538535
887 1 1 19.397753 -9.736489 15.393344
888 1 1 20.072865 -10.226739 15.944597
889 1 1 20.451951 -9.746001 15.153910
890 1 1 20.604487 -10.480855 15.814759
891 1 1 20.366717 -11.268645 15.246557
892 1 1 20.284975 -10.346664 15.625067
893 1 1 19.799129 -10.907261 14.954482
894 1 1 20.379012 -10.543816 14.225343
895 1 1 19.432115 -10.553689 13.903956
896 1 1 20.237086 -10.674579 14.484823
897 1 1 20.846829 -9.893692 14.349070
898 1 1 21.342248 -10.258124 13.560560
899 1 1 21.472410 -9.616434 14.316398
900 1 1 21.446137 -10.597084 14.510397
901 1 1 21.288194 -10.098169 15.362535
902 1 1 20.817458 -10.872599 14.939846
903 1 1 20.261960 -11.685164 15.116369
904 1 1 19.404404 -12.017804 14.724005
905 1 1 18.774388 -11.408818 14.242118
906 1 1 18.656908 -10.435575 14.044644
907 1 1 17.752696 -10.737051 13.742131
908 1 1 18.099917 -9.804717 13.843077
909 1 1 18.003863 -8.914410 13.397961
910 1 1 18.518978 -8.069300 13.254975
911 1 1 18.378650 -7.969152 14.240002
912 1 1 19.006940 -8.686457 14.541210
913 1 1 19.445249 -7.864923 14.905857
914 1 1 19.548644 -7.024847 15.438381
915 1 1 19.716225 -8.007296 15.520310
916 1 1 20.141151 -8.513675 14.769965
917 1 1 20.369916 -9.254943 14.138943
918 1 1 19.712909 -10.007181 14.188743
919 1 1 19.952866 -9.076970 13.911024
920 1 1 19.682995 -9.966298 14.280165
921 1 1 20.470199 -9.355450 14.195466
922 1 1 19.564582 -8.951070 14.067656
923 1 1 18.938644 -8.527647 13.412741
924 1 1 18.685434 -7.668913 12.967253
925 1 1 18.794568 -6.677248 12.898766
926 1 1 17.863980 -7.034422 12.818565
927 1 1 17.108869 -6.388604 12.931378
928 1 1 17.985584 -6.135159 13.340201
929 1 1 17.726524 -7.040527 13.676648
930 1 1 17.696812 -6.279611 13.028479
931 1 1 17.723364 -5.457152 12.460275
932 1 1 17.097049 -5.395283 13.237386
933 1 1 16.121501 -5.427354 13.019954
934 1 1 15.628346 -5.694423 13.847886
935 1 1 15.646035 -6.584686 13.392783
936 1 1 15.635355 -7.466992 12.922227
937 1 1 15.452993 -8.242163 13.527084
938 1 1 14.467892 -8.276390 13.358551
939 1 1 13.912353 -7.446265 13.310911
940 1 1 13.264947 -6.740512 13.598624
941 1 1 12.726513 -7.506184 13.950527
942 1 1 12.568649 -8.460129 14.205610
943 1 1 11.787554 -8.868353 13.733122
944 1 1 11.264187 -8.728508 14.573676
945 1 1 12.003059 -8.322171 14.036128
946 1 1 11.668132 -8.040590 14.935314
947 1 1 10.786097 -8.142653 14.475318
948 1 1 11.113314 -7.536122 15.199920
949 1 1 10.570773 -8.111989 15.811497
950 1 1 9.998712 -8.599212 16.471315
951 1 1 10.170418 -7.905577 15.771753
952 1 1 10.965703 -8.293328 16.237769
953 1 1 10.075560 -8.410005 15.797277
954 1 1 10.835083 -8.844528 16.281338
955 1 1 10.255693 -9.637570 16.469465
956 1 1 11.127423 -9.714895 16.953311
957 1 1 11.278232 -9.776444 17.939956
958 1 1 11.264876 -9.192158 17.128519
959 1 1 11.068925 -8.319980 16.680289
960 1 1 10.151002 -8.005566 16.922284
961 1 1 9.511628 -7.783001 16.186305
962 1 1 9.828386 -6.870031 16.443503
963 1 1 9.656396 -7.806877 16.138973
964 1 1 9.326817 -7.166076 15.445610
965 1 1 8.567140 -6.697179 15.896195
966 1 1 9.057108 -7.472138 16.295405
967 1 1 8.474250 -8.094165 15.772568
968 1 1 8.737467 -7.169812 15.496364
969 1 1 8.458023 -7.310389 16.446179
970 1 1 8.862505 -7.092683 15.557923
971 1 1 9.227388 -6.175100 15.715724
972 1 1 8.734116 -5.305314 15.728193
973 1 1 9.607422 -5.789897 15.678043
974 1 1 9.784733 -6.770878 15.757023
975 1 1 10.586485 -6.875975 16.345368
976 1 1 10.778830 -7.590859 17.017636
977 1 1 10.091135 -7.849816 16.339390
978 1 1 10.819695 -8.331327 15.852208
979 1 1 9.923960 -8.438876 16.283591
980 1 1 8.941338 -8.253533 16.273517
981 1 1 8.087311 -8.452027 16.754390
982 1 1 8.094301 -8.141530 17.704939
983 1 1 7.896385 -7.568898 16.909375
984 1 1 7.509471 -6.895932 17.539783
985 1 1 8.050162 -7.729459 17.426263
986 1 1 7.705455 -6.952463 16.899523
987 1 1 6.825009 -7.351925 17.154954
988 1 1 6.035760 -7.735336 17.634622
989 1 1 6.066194 -8.569142 17.083404
990 1 1 6.734496 -8.533714 17.826450
991 1 1 7.526070 -7.925678 17.887314
992 1 1 8.089760 -8.067335 18.701062
993 1 1 8.754208 -7.392625 18.379696
994 1 1 8.024747 -7.638033 17.741211
995 1 1 7.420398 -8.401513 17.968939
996 1 1 7.920019 -7.603733 18.306469
997 1 1 7.923206 -7.231814 19.234729
998 1 1 8.125628 -6.340594 19.640625
999 1 1 8.392553 -6.779227 20.498735
1000 1 1 7.818879 -7.496457 20.894307
1001 2 1 -14.445305 21.837675 32.556137
1002 2 1 -14.579763 21.839946 33.547054
1003 2 1 -13.974330 21.135494 33.917458
1004 2 1 -13.476451 21.242366 33.056821
1005 2 1 -13.880303 20.381755 33.367066
1006 2 1 -14.403949 20.340191 32.516144
1007 2 1 -13.701007 20.766077 31.946500
1008 2 1 -13.131440 20.476698 31.177180
1009 2 1 -13.038749 20.980173 32.036204
1010 2 1 -12.798143 21.807493 32.543796
1011 2 1 -12.374072 22.396482 31.855860
1012 2 1 -12.520598 23.176167 31.247074
1013 2 1 -12.843945 24.032119 30.843597
1014 2 1 -12.386658 24.797720 30.391110
1015 2 1 -11.719291 25.419807 29.981686
1016 2 1 -10.811041 25.046602 29.792474
1017 2 1 -10.884318 25.287547 28.824705
1018 2 1 -10.752769 24.318028 28.617998
1019 2 1 -11.538193 23.702278 28.555052
1020 2 1 -11.222190 22.753921 28.582661
1021 2 1 -12.057869 22.538777 29.087987
1022 2 1 -12.960950 22.113661 29.026998
1023 2 1 -12.067760 22.503076 28.802128
1024 2 1 -12.401125 22.569800 27.861694
1025 2 1 -12.040557 21.828939 28.428365
1026 2 1 -12.110959 22.712871 27.966080
1027 2 1 -13.077601 22.702846 27.710144
1028 2 1 -13.174169 23.466802 27.072143
1029 2 1 -12.746311 24.039932 27.771042
1030 2 1 -13.685469 24.085773 27.430629
1031 2 1 -13.972547 23.207603 27.048001
1032 2 1 -13.526829 24.041814 27.372698
1033 2 1 -14.115113 24.593985 26.781911
1034 2 1 -14.435322 25.411028 26.302426
1035 2 1 -13.960076 25.189116 25.451018
1036 2 1 -13.868542 24.868784 26.393890
1037 2 1 -13.173989 25.459203 25.982793
1038 2 1 -12.213807 25.599382 26.224455
1039 2 1 -11.958179 24.644348 26.374673
1040 2 1 -11.492424 25.478849 26.669091
1041 2 1 -11.525293 24.654257 26.104318
1042 2 1 -10.606370 25.031997 26.217857
1043 2 1 -11.266137 24.324046 26.469872
1044 2 1 -10.787960 25.192437 26.601187
1045 2 1 -11.115228 24.363347 26.147861
1046 2 1 -12.092635 24.471667 26.329362
1047 2 1 -11.599574 23.785479 25.794538
1048 2 1 -11.331803 23.919788 24.840462
1049 2 1 -12.196607 23.980487 24.342036
1050 2 1 -11.721863 23.960500 23.462139
1051 2 1 -11.435975 23.851955 24.414235
1052 2 1 -12.322104 23.684569 23.982078
1053 2 1 -12.715251 24.154490 24.772401
1054 2 1 -13.590682 24.596818 24.967248
1055 2 1 -13.124602 24.615202 25.851799
1056 2 1 -12.945288 23.698071 25.495825
1057 2 1 -13.369659 23.119921 24.798937
1058 2 1 -13.004863 22.352078 24.272306
1059 2 1 -13.940414 22.277507 24.617536
1060 2 1 -14.753248 22.561020 24.108694
1061 2 1 -14.245319 21.700032 24.082124
1062 2 1 -13.583460 21.443869 23.377622
1063 2 1 -14.347327 21.857688 22.882384
1064 2 1 -13.489509 21.858426 22.368431
1065 2 1 -13.904773 22.225662 23.200713
1066 2 1 -14.346805 21.587812 22.570035
1067 2 1 -14.119959 22.517556 22.280008
1068 2 1 -13.578569 22.154503 23.038354
1069 2 1 -14.300640 22.424952 22.401588
1070 2 1 -15.208513 22.740900 22.126010
1071 2 1 -15.385701 23.671243 22.447050
1072 2 1 -14.597015 24.064838 21.974760
1073 2 1 -14.728555 23.270416 21.381810
1074 2 1 -13.964925 22.922348 21.925609
1075 2 1 -13.484612 23.799442 21.923094
1076 2 1 -13.028176 24.333534 21.211468
1077 2 1 -12.524564 24.890677 20.551190
1078 2 1 -12.731057 25.622100 19.901282
1079 2 1 -13.729856 25.642622 19.856781
1080 2 1 -13.841661 25.554447 20.846592
1081 2 1 -14.718659 25.355433 20.409249
1082 2 1 -14.408653 24.673937 21.072166
1083 2 1 -14.414370 25.536044 20.565472
1084 2 1 -14.888290 26.330850 20.186417
1085 2 1 -14.814357 25.418142 20.588285
1086 2 1 -14.955175 25.904128 19.725737
1087 2 1 -15.254357 25.443604 20.561446
1088 2 1 -16.224600 25.654828 20.679822
1089 2 1 -15.478558 25.800376 20.030025
1090 2 1 -15.253879 24.954437 20.513664
1091 2 1 -15.411073 24.141799 19.952496
1092 2 1 -15.191442 23.439957 20.630124
1093 2 1 -15.645645 24.327786 20.704018
1094 2 1 -14.867790 23.802869 21.049566
1095 2 1 -14.970575 23.154512 21.803933
1096 2 1 -15.295036 22.259080 21.499095
1097 2 1 -16.238957 21.947153 21.390862
1098 2 1 -15.463586 21.837538 20.768942
1099 2 1 -14.927817 21.517284 19.987668
1100 2 1 -15.521780 22.317953 19.909327
1101 2 1 -14.808351 21.841137 19.395844
1102 2 1 -13.836729 21.656126 19.248458
1103 2 1 -14.031062 20.918713 19.895340
1104 2 1 -14.721733 21.297531 19.279329
1105 2 1 -13.821618 21.529602 19.648022
1106 2 1 -14.740697 21.680033 19.283793
1107 2 1 -15.360001 21.079563 19.789657
1108 2 1 -15.386280 20.435889 19.024808
1109 2 1 -16.099481 19.826827 18.677839
1110 2 1 -16.537965 19.474654 17.850973
1111 2 1 -16.670243 20.140109 17.116349
1112 2 1 -15.824092 19.607556 17.095948
1113 2 1 -15.043429 19.736672 16.484480
1114 2 1 -14.794230 19.348021 17.371526
1115 2 1 -14.001961 19.032535 17.893809
1116 2 1 -13.221089 19.532080 18.268900
1117 2 1 -13.446916 18.925940 17.506275
1118 2 1 -12.812430 18.187838 17.735695
1119 2 1 -12.133135 17.465969 17.867845
1120 2 1 -13.034856 17.310579 18.271271
1121 2 1 -13.618862 16.540338 18.015015
1122 2 1 -13.476571 16.140032 17.109748
1123 2 1 -13.160765 15.553185 16.364177
1124 2 1 -13.136966 16.519472 16.107812
1125 2 1 -13.248152 15.673097 15.586959
1126 2 1 -14.088147 15.831303 15.067941
1127 2 1 -14.522876 16.284951 14.289985
1128 2 1 -13.862592 16.107362 13.560268
1129 2 1 -14.048066 15.344421 14.179557
1130 2 1 -14.175003 16.214244 14.656312
1131 2 1 -13.542940 15.474835 14.424427
1132 2 1 -12.643048 15.910590 14.406777
1133 2 1 -12.700755 16.368635 13.519723
1134 2 1 -13.148378 15.664667 14.071142
1135 2 1 -13.872023 15.508419 14.743395
1136 2 1 -14.671250 16.109441 14.740183
1137 2 1 -14.417895 16.955696 14.271499
1138 2 1 -14.446199 17.525193 15.093005
1139 2 1 -14.605903 18.416829 15.516656
1140 2 1 -14.339526 17.782423 14.791003
1141 2 1 -13.827976 17.121542 14.241865
1142 2 1 -14.470492 17.879867 14.131797
1143 2 1 -13.483227 17.786753 14.260785
1144 2 1 -12.923255 17.507803 13.480645
1145 2 1 -13.669888 17.503927 12.815420
1146 2 1 -12.765149 17.258496 13.163575
1147 2 1 -12.176394 17.387491 12.365623
1148 2 1 -11.709833 18.258792 12.517792
1149 2 1 -11.703438 17.366642 12.066098
1150 2 1 -11.947400 17.597334 13.008044
1151 2 1 -12.232512 17.751084 12.061962
1152 2 1 -11.582711 18.500694 11.936091
1153 2 1 -10.728225 18.228249 11.493792
1154 2 1 -10.844189 18.997301 10.865212
1155 2 1 -10.388056 18.143472 11.116049
1156 2 1 -11.221705 18.554429 11.485025
1157 2 1 -11.744379 17.710855 11.608292
1158 2 1 -11.326126 17.042266 12.223151
1159 2 1 -11.580371 17.734187 11.547426
1160 2 1 -10.844073 17.838898 12.215933
1161 2 1 -11.256170 17.406967 13.018187
1162 2 1 -10.770204 17.653995 13.856528
1163 2 1 -10.531628 17.498129 12.897994
1164 2 1 -11.457543 17.780762 13.148593
1165 2 1 -12.275547 18.334783 12.993901
1166 2 1 -12.230546 18.886318 12.160963
1167 2 1 -11.666363 19.688001 11.963479
1168 2 1 -11.476211 18.722790 12.142949
1169 2 1 -10.930733 19.385063 11.629288
1170 2 1 -10.200771 19.688119 12.241915
1171 2 1 -10.183706 20.627425 12.584572
1172 2 1 -9.284971 20.535435 13.013308
1173 2 1 -9.268863 19.594091 13.350371
1174 2 1 -8.528200 20.061216 13.833292
1175 2 1 -9.013914 20.280556 12.987141
1176 2 1 -8.317988 20.889160 12.605974
1177 2 1 -8.562323 20.055491 12.110698
1178 2 1 -8.877619 19.166388 11.778909
1179 2 1 -8.230123 18.929876 12.503347
1180 2 1 -8.335544 19.041051 11.515153
1181 2 1 -7.693002 18.306474 11.297122
1182 2 1 -8.429584 18.623317 10.699579
1183 2 1 -8.140495 19.563410 10.880280
1184 2 1 -9.044235 19.982561 10.967272
1185 2 1 -8.591992 20.297383 11.801756
1186 2 1 -7.928358 20.289635 11.053739
1187 2 1 -7.946559 20.700515 10.142232
1188 2 1 -7.851480 19.873098 10.695713
1189 2 1 -6.966216 20.306170 10.526136
1190 2 1 -6.610525 20.891534 11.254719
1191 2 1 -5.902465 21.443706 10.814540
1192 2 1 -5.969530 22.421018 11.015444
1193 2 1 -6.914155 22.367166 10.691742
1194 2 1 -6.729322 22.644589 9.748941
1195 2 1 -7.296788 22.820809 8.944622
1196 2 1 -7.276693 22.052585 8.304756
1197 2 1 -6.401038 21.974266 7.828212
1198 2 1 -5.415426 21.805457 7.836669
1199 2 1 -5.395752 22.781842 8.051805
1200 2 1 -4.704465 22.534697 8.730806
1201 2 1 -4.012797 21.870558 9.014558
1202 2 1 -3.345978 22.606569 9.131349
1203 2 1 -2.465484 22.372357 9.543508
1204 2 1 -2.087545 21.743498 10.222992
1205 2 1 -2.986533 21.306074 10.201064
1206 2 1 -3.645987 22.023945 9.977946
1207 2 1 -4.608718 22.290283 10.024995
1208 2 1 -5.298057 21.967817 10.673707
1209 2 1 -4.860863 21.227098 11.183802
1210 2 1 -4.229455 21.963960 10.942224
1211 2 1 -4.999674 21.943645 10.304768
1212 2 1 -5.298363 21.055727 9.954929
1213 2 1 -6.135620 21.290997 10.448536
1214 2 1 -6.236959 21.025367 11.407270
1215 2 1 -5.518479 21.429392 10.841098
1216 2 1 -4.796955 21.346797 11.528543
1217 2 1 -4.678446 22.339077 11.565089
1218 2 1 -5.162723 22.939864 12.201116
1219 2 1 -4.696779 22.102711 11.914635
1220 2 1 -5.124155 21.204768 12.019745
1221 2 1 -4.691648 21.891555 12.603921
1222 2 1 -4.647893 22.874187 12.784253
1223 2 1 -5.610310 22.774553 12.531612
1224 2 1 -5.033029 22.126522 12.034819
1225 2 1 -4.369540 21.766527 11.378934
1226 2 1 -4.020035 22.687024 11.204204
1227 2 1 -4.031051 22.276788 10.292291
1228 2 1 -4.463128 21.673621 10.962738
1229 2 1 -4.659723 22.647404 10.848293
1230 2 1 -5.629994 22.811847 11.025868
1231 2 1 -5.105091 21.980677 10.842473
1232 2 1 -4.676730 21.082750 10.943631
1233 2 1 -4.847096 21.823103 11.593902
1234 2 1 -5.609272 21.249639 11.293526
1235 2 1 -5.777414 20.930299 10.360922
1236 2 1 -5.214552 21.753589 10.434269
1237 2 1 -5.565237 21.771997 9.497956
1238 2 1 -5.023271 22.320456 8.861195
1239 2 1 -4.152117 22.280246 9.350557
1240 2 1 -4.177516 22.008932 10.312713
1241 2 1 -4.803448 21.844196 9.550432
1242 2 1 -4.046648 21.458863 9.022443
1243 2 1 -4.669865 22.184891 9.313102
1244 2 1 -4.795930 21.927363 10.271114
1245 2 1 -4.125741 21.416943 10.809927
1246 2 1 -3.416444 21.826684 11.383521
1247 2 1 -3.810797 22.533234 11.971121
1248 2 1 -3.565141 22.586733 12.939000
1249 2 1 -4.345605 23.209989 12.889731
1250 2 1 -5.138109 22.841496 12.403778
1251 2 1 -5.803255 22.458239 13.044634
1252 2 1 -6.004681 21.713240 13.680560
1253 2 1 -6.402180 22.620688 13.816692
1254 2 1 -5.896516 21.760189 13.878695
1255 2 1 -6.574750 21.609854 14.597998
1256 2 1 -6.821971 22.077292 13.749244
1257 2 1 -7.689857 22.390732 14.134640
1258 2 1 -7.155067 23.207325 14.351838
1259 2 1 -6.216363 23.505849 14.524228
1260 2 1 -6.407822 23.677035 13.557771
1261 2 1 -6.582389 24.513518 14.077215
1262 2 1 -5.698863 24.141324 13.792870
1263 2 1 -5.380555 23.486938 13.106969
1264 2 1 -4.822235 23.194316 13.883276
1265 2 1 -4.764051 22.800557 12.965906
1266 2 1 -3.981999 22.725509 12.347227
1267 2 1 -4.730052 22.099185 12.127828
1268 2 1 -3.964394 21.474067 12.279472
1269 2 1 -3.920102 20.545505 11.910947
1270 2 1 -3.623550 19.687924 12.331199
1271 2 1 -3.653318 18.981747 13.038608
1272 2 1 -3.799229 19.968189 13.113727
1273 2 1 -4.193081 20.443581 13.900418
1274 2 1 -3.546267 19.737245 14.188029
1275 2 1 -4.211838 19.372674 14.839261
1276 2 1 -4.677593 20.101318 14.337117
1277 2 1 -5.567830 20.511517 14.139090
1278 2 1 -5.771667 19.672674 14.643859
1279 2 1 -5.650179 19.468844 13.672420
1280 2 1 -6.223926 19.425460 12.854537
1281 2 1 -6.927587 19.899768 13.383586
1282 2 1 -7.115596 18.930445 13.541906
1283 2 1 -6.565123 18.892148 14.375879
1284 2 1 -6.112359 18.015726 14.211899
1285 2 1 -6.433509 18.804825 14.735526
1286 2 1 -6.423561 19.317291 15.594175
1287 2 1 -7.343180 18.995759 15.368524
1288 2 1 -8.102335 18.372745 15.557038
1289 2 1 -8.802485 17.744615 15.896510
1290 2 1 -8.318410 18.346318 15.261195
1291 2 1 -8.090524 17.543352 14.710456
1292 2 1 -8.618683 17.999953 15.426392
1293 2 1 -9.521767 17.744997 15.771989
1294 2 1 -9.516014 16.900990 15.235689
1295 2 1 -9.959518 17.329421 16.022931
1296 2 1 -10.866797 17.617842 15.716896
1297 2 1 -10.540831 17.356977 14.808218
1298 2 1 -10.992210 16.901322 15.575445
1299 2 1 -11.632409 17.206349 14.870389
1300 2 1 -12.380514 17.289510 14.212040
1301 2 1 -11.655319 17.757858 13.707320
1302 2 1 -11.463247 18.457675 13.019306
1303 2 1 -11.776454 19.228563 12.464659
1304 2 1 -10.864403 18.824897 12.536891
1305 2 1 -11.751536 18.666480 12.103416
1306 2 1 -10.796351 18.961987 12.086198
1307 2 1 -10.883284 19.260025 11.135611
1308 2 1 -11.511015 18.678377 10.618273
1309 2 1 -12.438653 18.869844 10.297607
1310 2 1 -11.554376 18.655857 9.882562
1311 2 1 -11.065800 19.133874 9.152635
1312 2 1 -10.743730 19.966297 8.701699
1313 2 1 -9.922475 19.719108 9.215933
1314 2 1 -10.252893 18.810294 9.470652
1315 2 1 -10.837883 18.004033 9.382736
1316 2 1 -11.003918 17.468884 10.211016
1317 2 1 -10.740314 16.578644 10.582480
1318 2 1 -10.233464 15.880333 10.077044
1319 2 1 -10.989946 15.908720 10.730442
1320 2 1 -10.336930 16.493420 10.249094
1321 2 1 -11.190649 17.003835 10.352246
1322 2 1 -11.544937 16.530879 11.158963
1323 2 1 -10.964539 15.782070 10.838926
1324 2 1 -11.758682 15.202409 11.021492
1325 2 1 -12.270754 14.349558 11.123607
1326 2 1 -11.559236 13.715671 10.820408
1327 2 1 -11.723202 14.637847 11.170704
1328 2 1 -11.654372 13.707607 11.531145
1329 2 1 -11.254225 13.379676 10.675374
1330 2 1 -11.558305 12.466908 10.402629
1331 2 1 -12.024069 11.659235 10.041067
1332 2 1 -12.884189 12.144948 9.885260
1333 2 1 -13.760877 12.547623 10.148455
1334 2 1 -14.163155 11.642366 10.011773
1335 2 1 -13.840522 12.148349 10.811704
1336 2 1 -13.449891 11.228084 10.788904
1337 2 1 -14.373439 11.595082 10.900136
1338 2 1 -13.406311 11.443349 10.696075
1339 2 1 -13.638465 10.478011 10.576800
1340 2 1 -12.740932 10.895361 10.434487
1341 2 1 -12.534606 11.251412 9.523083
1342 2 1 -12.762323 11.518605 8.586733
1343 2 1 -12.530139 12.341286 9.105660
1344 2 1 -12.344488 11.867439 9.966476
1345 2 1 -12.788395 11.358379 10.703906
1346 2 1 -13.083914 10.495357 11.113615
1347 2 1 -12.587313 11.339437 10.911339
1348 2 1 -11.933988 11.168854 10.173729
1349 2 1 -12.179867 11.266462 9.209356
1350 2 1 -12.662285 11.460544 8.355186
1351 2 1 -12.706614 11.301229 7.368954
1352 2 1 -12.606686 11.512114 6.396564
1353 2 1 -13.315647 12.147135 6.703356
1354 2 1 -14.153215 12.202061 7.246922
1355 2 1 -13.411372 12.844627 7.055147
1356 2 1 -13.418570 11.846137 7.000674
1357 2 1 -12.507334 11.804009 6.590949
1358 2 1 -12.362102 11.119016 7.304877
1359 2 1 -11.655567 10.686821 6.744505
1360 2 1 -12.653836 10.739216 6.717784
1361 2 1 -13.498340 11.228208 6.499381
1362 2 1 -14.214708 11.776948 6.930312
1363 2 1 -14.660371 11.274949 7.671515
1364 2 1 -14.979717 11.384252 8.612828
1365 2 1 -15.555411 10.675285 8.205468
1366 2 1 -16.105561 10.665609 9.040477
1367 2 1 -16.372607 11.623300 9.147782
1368 2 1 -17.318116 11.593328 9.471994
1369 2 1 -16.496191 11.031676 9.377197
1370 2 1 -15.577109 11.086307 8.986936
1371 2 1 -16.513571 10.810092 9.203143
1372 2 1 -17.099494 11.515231 8.803803
1373 2 1 -18.047890 11.832002 8.818029
1374 2 1 -18.214328 12.722752 8.395107
1375 2 1 -17.836810 12.435710 9.275497
1376 2 1 -17.827100 12.481650 10.274394
1377 2 1 -17.975076 13.365597 9.830839
1378 2 1 -17.215386 13.451015 9.186189
1379 2 1 -16.768663 13.823067 8.372545
1380 2 1 -16.939484 12.840193 8.441663
1381 2 1 -16.612922 13.778309 8.556969
1382 2 1 -16.075041 14.532572 8.933494
1383 2 1 -17.030156 14.300119 9.117129
1384 2 1 -16.700359 14.444788 8.184228
1385 2 1 -17.532399 14.619395 8.710746
1386 2 1 -18.047947 15.254430 8.135471
1387 2 1 -18.172209 14.704089 8.961112
1388 2 1 -18.865547 14.828010 9.670989
1389 2 1 -18.867687 13.879783 9.988576
1390 2 1 -18.995244 12.896329 9.859944
1391 2 1 -19.330241 13.651172 9.296039
1392 2 1 -19.273904 13.962166 8.347299
1393 2 1 -18.563834 13.982875 7.643473
1394 2 1 -18.448098 14.816988 7.104157
1395 2 1 -18.698538 15.453726 7.833433
1396 2 1 -17.793093 15.478038 7.409667
1397 2 1 -18.468430 15.253898 6.707043
1398 2 1 -18.207520 15.998635 6.092801
1399 2 1 -17.408680 15.520966 5.727168
1400 2 1 -18.286458 15.997808 5.681047
1401 2 1 -18.273376 15.017652 5.483250
1402 2 1 -18.180521 14.209104 6.064307
1403 2 1 -17.901542 15.138511 5.822704
1404 2 1 -17.595759 15.566591 6.673142
1405 2 1 -17.988854 16.392742 6.269470
1406 2 1 -17.490688 15.573210 5.986278
1407 2 1 -18.341375 15.469268 5.470983
1408 2 1 -18.697168 16.336389 5.819570
1409 2 1 -18.717264 17.299266 6.088764
1410 2 1 -18.286828 18.201813 6.100315
1411 2 1 -18.050557 19.146040 5.870941
1412 2 1 -17.128618 18.768832 5.782958
1413 2 1 -17.353017 17.832397 6.052652
1414 2 1 -17.503180 16.960288 6.518353
1415 2 1 -17.771163 17.563810 5.767390
1416 2 1 -17.454188 16.967968 6.505291
1417 2 1 -17.479898 16.831832 5.514935
1418 2 1 -18.426827 16.636210 5.259869
1419 2 1 -18.902928 16.244082 6.046993
1420 2 1 -19.323016 15.822466 5.243397
1421 2 1 -20.206020 16.138097 4.896006
1422 2 1 -20.974822 16.762616 5.033554
1423 2 1 -20.503113 17.208288 4.272720
1424 2 1 -21.102242 17.956306 3.987213
1425 2 1 -20.860445 17.628372 3.073980
1426 2 1 -21.799718 17.335572 2.895003
1427 2 1 -20.886630 17.632629 3.174336
1428 2 1 -20.372162 16.776543 3.223714
1429 2 1 -20.406086 17.725703 2.910752
1430 2 1 -21.397644 17.807475 2.810122
1431 2 1 -21.019077 18.551451 3.360747
1432 2 1 -21.253378 18.396371 4.320462
1433 2 1 -21.708574 18.860864 3.560829
1434 2 1 -22.560239 19.364676 3.705191
1435 2 1 -21.800735 19.985595 3.899133
1436 2 1 -22.092355 20.937364 3.994486
1437 2 1 -21.237200 21.260297 4.399979
1438 2 1 -20.462767 21.892948 4.397424
1439 2 1 -19.595320 21.663325 3.956054
1440 2 1 -19.219100 21.350043 4.828013
1441 2 1 -19.187965 22.324332 5.051155
1442 2 1 -19.702205 22.229759 5.903571
1443 2 1 -20.242914 21.389767 5.948817
1444 2 1 -19.926135 22.257328 6.332208
1445 2 1 -19.464203 22.265855 7.219082
1446 2 1 -18.497312 22.086071 7.400186
1447 2 1 -18.346491 23.055864 7.208474
1448 2 1 -18.747053 22.173431 6.961774
1449 2 1 -18.600640 23.014521 7.482475
1450 2 1 -18.756007 22.685115 6.551157
1451 2 1 -18.035264 22.918209 7.203995
1452 2 1 -17.247537 23.530338 7.273157
1453 2 1 -17.363198 22.664678 6.786069
1454 2 1 -17.125203 23.631261 6.690812
1455 2 1 -17.007780 24.621466 6.766360
1456 2 1 -17.700256 25.240984 6.396666
1457 2 1 -18.383517 25.610174 5.766703
1458 2 1 -18.958544 25.195542 6.471987
1459 2 1 -19.099718 24.753999 5.585922
1460 2 1 -18.718602 24.394229 4.734267
1461 2 1 -19.555034 23.856995 4.842716
1462 2 1 -20.548867 23.950371 4.902527
1463 2 1 -19.857815 23.536122 4.310205
1464 2 1 -19.901495 23.382847 3.322987
1465 2 1 -18.920473 23.556182 3.409876
1466 2 1 -19.799508 23.892897 3.072355
1467 2 1 -19.088858 24.194631 3.707912
1468 2 1 -19.866634 23.632034 3.427648
1469 2 1 -20.245650 24.537992 3.616293
1470 2 1 -20.766332 24.395097 4.458000
1471 2 1 -20.948453 24.702635 3.524056
1472 2 1 -21.810476 24.423465 3.100996
1473 2 1 -21.842893 24.694722 4.062957
1474 2 1 -22.779269 24.706362 4.413764
1475 2 1 -22.608099 25.680600 4.266927
1476 2 1 -22.965441 25.023733 4.930879
1477 2 1 -23.905832 24.688899 4.871302
1478 2 1 -23.424536 24.406222 4.041575
1479 2 1 -23.073754 23.623094 3.528095
1480 2 1 -24.071643 23.677828 3.563038
1481 2 1 -25.026046 23.518369 3.815401
1482 2 1 -25.417745 22.603338 3.719015
1483 2 1 -25.176710 21.698998 4.071251
1484 2 1 -25.290327 22.284493 3.268576
1485 2 1 -24.533202 22.486367 3.889873
1486 2 1 -24.555280 23.445959 3.609343
1487 2 1 -24.809942 22.902248 2.809640
1488 2 1 -24.852159 21.992415 2.396818
1489 2 1 -25.675875 22.550839 2.298558
1490 2 1 -25.981230 22.848006 3.203241
1491 2 1 -26.789660 22.409581 3.595954
1492 2 1 -27.344529 23.058655 3.075547
1493 2 1 -28.013044 22.525758 3.594303
1494 2 1 -28.700450 22.547338 2.868350
1495 2 1 -28.009639 22.904220 3.497171
1496 2 1 -27.133268 22.870058 3.977593
1497 2 1 -26.708035 23.620780 3.472029
1498 2 1 -26.112097 23.485963 4.263662
1499 2 1 -25.290758 23.609073 4.820659
1500 2 1 -25.068398 23.727515 5.788403
1501 2 1 -25.448548 23.062111 5.145967
1502 2 1 -25.577773 23.175584 6.131069
1503 2 1 -24.664417 23.498948 6.378490
1504 2 1 -25.034800 24.059151 7.119428
1505 2 1 -24.980395 24.948206 6.664872
1506 2 1 -24.837140 25.205821 7.620441
1507 2 1 -25.594087 25.350279 8.257750
1508 2 1 -25.388204 25.682551 7.337312
1509 2 1 -26.111462 25.405703 6.704657
1510 2 1 -26.979724 25.878952 6.853507
1511 2 1 -27.956464 25.679350 6.931853
1512 2 1 -27.292009 26.159285 6.358999
1513 2 1 -27.740946 26.411928 7.216103
1514 2 1 -28.129147 25.819924 7.922383
1515 2 1 -27.991439 26.744349 8.278016
1516 2 1 -27.569864 25.995220 7.767056
1517 2 1 -28.461169 25.611430 8.008470
1518 2 1 -28.709572 26.196083 7.236151
1519 2 1 -28.244085 26.602460 6.449907
1520 2 1 -28.957368 26.192681 7.018509
1521 2 1 -28.637744 26.921091 6.412489
1522 2 1 -28.023636 26.874378 5.624651
1523 2 1 -28.092363 25.885590 5.757224
1524 2 1 -28.318064 25.227645 6.475671
1525 2 1 -29.009298 25.430049 5.781965
1526 2 1 -29.950491 25.138811 5.953243
1527 2 1 -30.460019 25.373371 6.781110
1528 2 1 -29.659028 25.147281 6.226767
1529 2 1 -29.199486 24.435225 5.695920
1530 2 1 -28.261501 24.646503 5.970778
1531 2 1 -28.324244 25.315719 6.711192
1532 2 1 -28.436391 26.278721 6.466138
1533 2 1 -28.176644 26.973395 7.136928
1534 2 1 -28.229576 27.138258 8.121823
1535 2 1 -27.695840 27.911690 8.463772
1536 2 1 -27.691477 27.161612 7.802436
1537 2 1 -28.470815 26.669367 7.414715
1538 2 1 -28.019644 25.822431 7.696038
1539 2 1 -28.581699 26.636882 7.551944
1540 2 1 -28.448165 27.626614 7.500958
1541 2 1 -28.175855 27.961603 8.402972
1542 2 1 -28.353109 28.778457 8.951909
1543 2 1 -28.172711 29.762050 8.951394
1544 2 1 -28.772283 29.757055 9.751699
1545 2 1 -29.697228 29.613020 10.103451
1546 2 1 -30.372339 29.899148 9.423483
1547 2 1 -29.814694 29.930878 10.252956
1548 2 1 -30.015578 29.342590 9.469653
1549 2 1 -29.094137 29.005598 9.276305
1550 2 1 -29.786214 29.640417 9.619867
1551 2 1 -29.269183 29.038775 10.228723
1552 2 1 -29.740075 29.920829 10.213194
1553 2 1 -30.678745 29.900244 9.868992
1554 2 1 -29.793343 29.444122 9.779463
1555 2 1 -30.011492 28.706111 9.140909
1556 2 1 -30.041523 29.405305 8.426608
1557 2 1 -30.290634 29.437501 7.458668
1558 2 1 -30.487331 29.491905 8.437622
1559 2 1 -29.939017 29.896857 9.169309
1560 2 1 -30.471364 30.706202 8.921182
1561 2 1 -30.633704 30.205766 9.771600
1562 2 1 -31.310839 30.843445 9.404376
1563 2 1 -31.777745 31.216781 8.602741
1564 2 1 -30.969387 30.728746 8.273532
1565 2 1 -30.404010 30.019863 8.695235
1566 2 1 -30.146507 30.389896 9.587854
1567 2 1 -30.625469 31.226559 9.853540
1568 2 1 -30.168667 31.796161 10.536829
1569 2 1 -29.997703 31.212428 9.743087
1570 2 1 -30.788602 30.934232 10.288143
1571 2 1 -31.682092 30.673412 10.653723
1572 2 1 -31.998283 30.417109 9.740305
1573 2 1 -31.890259 29.775466 8.980946
1574 2 1 -32.331338 30.060697 9.831883
1575 2 1 -33.031145 30.301919 9.159512
1576 2 1 -33.965381 29.945342 9.152087
1577 2 1 -34.025655 30.087751 8.164116
1578 2 1 -33.216798 30.548849 8.528997
1579 2 1 -34.140688 30.764813 8.213105
1580 2 1 -34.455707 30.736352 7.264446
1581 2 1 -33.812456 31.341529 7.733477
1582 2 1 -33.209081 30.559432 7.577709
1583 2 1 -33.460369 29.727111 8.071769
1584 2 1 -32.560684 29.335258 8.264167
1585 2 1 -32.278802 30.157752 8.758177
1586 2 1 -31.637117 29.516129 8.337987
1587 2 1 -30.637367 29.507274 8.317460
1588 2 1 -31.561672 29.737520 8.621841
1589 2 1 -31.465788 30.343095 7.831850
1590 2 1 -31.069639 29.575174 7.328497
1591 2 1 -32.001272 29.928822 7.244866
1592 2 1 -32.225510 29.915369 6.270424
1593 2 1 -32.933181 30.036985 5.574428
1594 2 1 -33.023139 29.042051 5.619303
1595 2 1 -33.286284 29.120334 6.580878
1596 2 1 -33.320956 28.191248 6.949112
1597 2 1 -33.945402 28.970317 6.893273
1598 2 1 -34.016556 29.233132 5.931054
1599 2 1 -34.086871 29.059701 6.913387
1600 2 1 -33.476592 29.850764 6.871218
1601 2 1 -33.464203 30.597126 6.205794
1602 2 1 -34.050785 31.385122 6.392833
1603 2 1 -33.880811 30.443359 6.102678
1604 2 1 -34.455607 29.643055 6.273337
1605 2 1 -34.885152 29.110337 7.002516
1606 2 1 -34.739796 28.610178 7.856163
1607 2 1 -34.587633 28.691553 6.871163
1608 2 1 -33.817585 28.732471 7.507834
1609 2 1 -33.230445 28.244284 8.153544
1610 2 1 -32.915818 28.268562 7.204639
1611 2 1 -31.968356 28.409437 7.491816
1612 2 1 -32.806545 28.807171 7.864975
1613 2 1 -32.284942 28.468184 7.082020
1614 2 1 -32.808101 27.636711 7.268986
1615 2 1 -32.965429 27.770429 8.247438
1616 2 1 -32.253456 27.778428 7.545277
1617 2 1 -32.446757 26.915333 7.078692
1618 2 1 -32.538505 26.875105 6.083723
1619 2 1 -31.847205 27.496381 6.452668
1620 2 1 -31.952848 27.903985 5.545641
1621 2 1 -32.227032 28.523887 4.810423
1622 2 1 -32.421443 29.456820 4.507372
1623 2 1 -33.260664 28.952003 4.709531
1624 2 1 -34.167998 28.864189 4.298392
1625 2 1 -34.246199 29.581943 4.990284
1626 2 1 -34.330712 29.732273 5.975301
1627 2 1 -34.909841 29.754966 5.160381
1628 2 1 -34.284466 29.746093 4.380107
1629 2 1 -34.952859 30.464450 4.573016
1630 2 1 -35.682692 31.146163 4.624130
1631 2 1 -35.414438 30.752070 3.745079
1632 2 1 -36.411256 30.790417 3.675194
1633 2 1 -36.851442 31.638222 3.970938
1634 2 1 -37.546985 31.328489 4.619231
1635 2 1 -38.110037 32.118870 4.377840
1636 2 1 -37.284914 32.241796 3.826423
1637 2 1 -36.665505 32.280316 3.042300
1638 2 1 -36.667821 32.278929 2.042303
1639 2 1 -35.778776 31.823553 1.995059
1640 2 1 -35.323687 31.780102 1.105674
1641 2 1 -34.445749 31.349562 1.315100
1642 2 1 -35.032671 31.190986 0.521138
1643 2 1 -34.304893 30.662716 0.958482
1644 2 1 -35.284900 30.767864 0.789571
1645 2 1 -34.897991 30.845352 1.708428
1646 2 1 -33.941186 30.651321 1.924936
1647 2 1 -34.639322 29.938559 1.857283
1648 2 1 -33.846986 30.516199 1.660976
1649 2 1 -33.262696 29.873637 1.165275
1650 2 1 -33.305833 29.063271 1.749608
1651 2 1 -33.573097 28.451694 2.494286
1652 2 1 -34.192973 28.394828 1.711649
1653 2 1 -34.299477 28.468152 2.703254
1654 2 1 -34.294041 29.468104 2.695167
1655 2 1 -35.199011 29.891576 2.736428
1656 2 1 -35.579002 30.503346 2.042638
1657 2 1 -35.909473 31.108410 2.766990
1658 2 1 -36.814978 31.519486 2.872246
1659 2 1 -36.536884 31.414103 1.917490
1660 2 1 -36.748702 32.266718 1.439807
1661 2 1 -36.985692 33.201008 1.173468
1662 2 1 -37.968378 33.170280 0.990756
1663 2 1 -38.497762 33.071466 0.148148
1664 2 1 -39.304646 32.489071 0.049387
1665 2 1 -39.305848 32.000333 0.921817
1666 2 1 -38.841919 32.038304 1.806875
1667 2 1 -37.986883 32.446747 1.487361
1668 2 1 -37.427532 33.226518 1.768579
1669 2 1 -37.633412 33.847663 2.524749
1670 2 1 -38.383172 34.508769 2.552995
1671 2 1 -37.452442 34.550626 2.189691
1672 2 1 -36.773404 34.639052 2.918449
1673 2 1 -37.236039 34.153080 2.176964
1674 2 1 -37.684962 34.450793 1.334447
1675 2 1 -37.551230 35.203635 0.689974
1676 2 1 -37.793362 34.333842 0.260053
1677 2 1 -37.664194 34.946261 1.039963
1678 2 1 -38.253620 35.537544 0.489544
1679 2 1 -38.722183 35.143175 -0.300976
1680 2 1 -38.710010 34.147705 -0.206689
1681 2 1 -37.961047 33.876612 -0.811306
1682 2 1 -37.651763 32.927314 -0.867672
1683 2 1 -37.663582 33.018081 0.128130
1684 2 1 -36.923866 33.640277 -0.128177
1685 2 1 -37.437158 33.201386 -0.865676
1686 2 1 -36.656379 33.067694 -0.255341
1687 2 1 -36.506335 34.055878 -0.286613
1688 2 1 -36.068776 33.662796 0.522107
1689 2 1 -36.187260 33.723493 -0.468992
1690 2 1 -35.923984 34.468916 0.143405
1691 2 1 -36.590073 35.087549 -0.273270
1692 2 1 -37.255311 34.590735 0.284077
1693 2 1 -37.450570 33.671026 0.624678
1694 2 1 -36.902433 33.345651 1.395182
1695 2 1 -37.093430 34.170484 1.927321
1696 2 1 -37.087705 34.573108 2.842668
1697 2 1 -37.156653 35.565165 2.737465
1698 2 1 -37.277367 34.731802 2.198082
1699 2 1 -37.622444 34.761483 3.136187
1700 2 1 -38.188142 34.499288 2.354369
1701 2 1 -38.655695 34.223614 3.194249
1702 2 1 -39.585351 34.555134 3.354978
1703 2 1 -39.768784 33.807223 2.717027
1704 2 1 -40.121717 34.722958 2.525018
1705 2 1 -40.699296 34.924293 1.733901
1706 2 1 -40.447318 35.873236 1.544127
1707 2 1 -39.721577 35.187942 1.604733
1708 2 1 -39.317846 36.102394 1.632644
1709 2 1 -38.588337 35.427158 1.523686
1710 2 1 -38.564132 36.070836 0.758773
1711 2 1 -37.701665 35.899218 1.234901
1712 2 1 -37.493040 36.873011 1.144336
1713 2 1 -37.268144 37.055462 0.187188
1714 2 1 -37.041692 37.606589 0.990293
1715 2 1 -37.659340 37.517078 1.771638
1716 2 1 -38.391335 37.004448 2.220407
1717 2 1 -38.014543 37.710558 2.819937
1718 2 1 -37.773782 36.874553 2.326855
1719 2 1 -37.621421 37.824263 2.600418
1720 2 1 -36.862345 37.245064 2.303209
1721 2 1 -37.361849 38.110893 2.274306
1722 2 1 -36.764015 38.871107 2.528607
1723 2 1 -36.954312 37.957805 2.168515
1724 2 1 -37.813167 37.729596 2.627087
1725 2 1 -37.522738 38.417580 3.292165
1726 2 1 -36.612579 38.664223 3.624998
1727 2 1 -35.983638 38.506986 2.863611
1728 2 1 -35.363227 38.598165 3.642569
1729 2 1 -35.697414 37.656780 3.596615
1730 2 1 -35.980632 37.204651 4.442409
1731 2 1 -35.784696 36.632070 3.646319
1732 2 1 -35.803980 37.509107 4.126355
1733 2 1 -34.930981 37.797176 4.519914
1734 2 1 -35.712110 38.389753 4.323215
1735 2 1 -35.188787 37.644713 3.909635
1736 2 1 -34.452395 36.985769 4.062998
1737 2 1 -34.604739 37.941512 4.314687
1738 2 1 -33.946964 37.974156 3.562181
1739 2 1 -32.972639 37.760201 3.632278
1740 2 1 -32.934188 36.885345 4.115133
1741 2 1 -33.064251 36.125163 3.478575
1742 2 1 -34.015078 35.819944 3.425952
1743 2 1 -34.963910 35.849171 3.111525
1744 2 1 -33.989095 35.935084 2.905724
1745 2 1 -34.459809 35.231604 2.373236
1746 2 1 -34.203397 34.957178 3.300028
1747 2 1 -33.685517 34.152981 3.591690
1748 2 1 -33.013059 33.829494 4.257390
1749 2 1 -33.388379 34.702772 4.568068
1750 2 1 -33.505721 33.710836 4.520158
1751 2 1 -34.115549 34.045196 3.801608
1752 2 1 -33.562624 33.554402 4.474954
1753 2 1 -32.731408 33.757798 4.992362
1754 2 1 -32.019363 33.180610 5.392169
1755 2 1 -31.850213 34.162552 5.307442
1756 2 1 -31.413713 33.452031 5.859373
1757 2 1 -31.003034 33.829325 6.689429
1758 2 1 -31.986931 33.679731 6.787243
1759 2 1 -32.224783 33.259010 7.662697
1760 2 1 -31.914928 32.374936 8.012559
1761 2 1 -31.391429 33.107861 8.447035
1762 2 1 -31.034294 32.242682 8.095014
1763 2 1 -31.539514 31.729526 8.788862
1764 2 1 -31.911600 32.652647 8.885814
1765 2 1 -31.980949 32.533194 7.895399
1766 2 1 -32.290588 33.269353 8.497224
1767 2 1 -32.040022 34.204184 8.748837
1768 2 1 -31.863783 35.185851 8.821429
1769 2 1 -32.475806 34.435804 8.570712
1770 2 1 -32.237883 35.406999 8.583908
1771 2 1 -32.085882 35.967602 7.769893
1772 2 1 -32.098174 36.694442 7.083196
1773 2 1 -32.624371 37.074751 7.843776
1774 2 1 -32.577469 36.124949 7.534459
1775 2 1 -33.091828 36.747428 6.944582
1776 2 1 -33.332502 37.344859 7.709535
1777 2 1 -33.270819 36.678570 6.966398
1778 2 1 -32.625163 35.915224 6.945604
1779 2 1 -33.077874 36.278436 7.759932
1780 2 1 -33.915886 35.751693 7.902329
1781 2 1 -33.907675 35.169207 8.715129
1782 2 1 -34.494535 35.599531 8.029260
1783 2 1 -34.065521 34.791803 8.433639
1784 2 1 -33.928785 35.493195 7.734102
1785 2 1 -33.253729 36.117505 8.127214
1786 2 1 -33.502578 36.685539 7.342732
1787 2 1 -34.110424 36.105171 7.884669
1788 2 1 -34.758347 35.565263 7.347366
1789 2 1 -35.262626 35.145353 6.592794
1790 2 1 -36.232755 35.387219 6.574080
1791 2 1 -35.267645 35.640018 6.505850
1792 2 1 -36.197528 35.678382 6.871700
1793 2 1 -35.312708 35.880662 7.291434
1794 2 1 -35.029128 36.666770 7.840631
1795 2 1 -35.011837 35.997223 8.583200
1796 2 1 -34.966070 35.509438 7.711437
1797 2 1 -35.951657 35.645305 7.610642
1798 2 1 -35.740838 36.511100 7.156820
1799 2 1 -35.484736 36.001986 6.335105
1800 2 1 -36.344530 35.695929 6.743866
1801 2 1 -37.212541 36.161685 6.915993
1802 2 1 -36.428365 36.727758 6.661771
1803 2 1 -36.780231 37.644322 6.851770
1804 2 1 -36.696934 38.539805 7.289002
1805 2 1 -36.642593 39.528601 7.428033
1806 2 1 -37.586999 39.782768 7.636593
1807 2 1 -36.661222 39.975230 7.311178
1808 2 1 -36.358009 39.058724 7.050257
1809 2 1 -36.186067 38.679202 6.141193
1810 2 1 -36.907396 38.114687 6.542449
1811 2 1 -37.351984 38.041202 5.649733
1812 2 1 -37.291514 37.275839 6.290486
1813 2 1 -37.154877 38.198909 6.650030
1814 2 1 -37.516554 37.282303 6.820391
1815 2 1 -37.125810 38.137351 6.479492
1816 2 1 -37.661119 37.401157 6.065411
1817 2 1 -38.107514 36.804316 5.398693
1818 2 1 -38.175106 36.944669 4.410901
1819 2 1 -38.285935 36.261348 3.689244
1820 2 1 -38.542966 35.311137 3.865408
1821 2 1 -39.430955 34.966222 4.169561
1822 2 1 -39.580654 35.647252 4.886350
1823 2 1 -40.164422 34.940347 5.285726
1824 2 1 -40.511770 35.748306 4.809753
1825 2 1 -40.300497 34.999922 5.438470
1826 2 1 -40.786344 35.097496 6.307050
1827 2 1 -41.055817 34.157739 6.517382
1828 2 1 -40.793237 34.646612 5.685484
1829 2 1 -40.508632 35.396819 5.088667
1830 2 1 -40.607589 35.926636 5.930986
1831 2 1 -40.794553 35.965608 6.912579
1832 2 1 -40.168263 35.580051 7.590153
1833 2 1 -40.457678 36.125471 6.803543
1834 2 1 -40.752533 35.411073 7.438125
1835 2 1 -40.565247 36.154540 8.080138
1836 2 1 -40.479530 37.150688 8.061663
1837 2 1 -40.648190 36.562826 7.270479
1838 2 1 -41.245971 36.761098 8.047233
1839 2 1 -41.368922 37.613713 8.555103
1840 2 1 -41.733966 38.342296 7.975527
1841 2 1 -42.680088 38.664284 8.009859
1842 2 1 -43.552572 39.016064 7.670710
1843 2 1 -43.753281 38.041328 7.572708
1844 2 1 -43.335738 37.167070 7.325055
1845 2 1 -44.314951 37.343229 7.224505
1846 2 1 -44.514200 37.837869 8.070455
1847 2 1 -44.645914 38.239471 8.976749
1848 2 1 -45.218591 38.204019 8.157734
1849 2 1 -45.078307 39.162561 7.909706
1850 2 1 -45.947314 38.692598 8.064499
1851 2 1 -46.667825 38.010047 8.186931
1852 2 1 -47.444100 37.956810 7.558789
1853 2 1 -47.160759 37.976063 6.599963
1854 2 1 -46.237956 37.977797 6.985230
1855 2 1 -46.230896 37.748492 7.958559
1856 2 1 -45.792346 37.261767 8.714054
1857 2 1 -46.247981 37.346314 9.600197
1858 2 1 -46.753656 37.587235 8.771795
1859 2 1 -46.809031 38.248327 8.023537
1860 2 1 -46.457948 38.515387 7.126085
1861 2 1 -47.124483 37.782918 7.264723
1862 2 1 -47.262610 37.853572 6.276831
1863 2 1 -46.517546 37.186663 6.287430
1864 2 1 -46.667906 36.225815 6.520159
1865 2 1 -46.564116 36.711023 7.388376
1866 2 1 -45.669869 37.080801 7.640538
1867 2 1 -45.944279 36.137254 7.826060
1868 2 1 -46.646592 35.754752 7.225686
1869 2 1 -46.511542 35.539833 8.192936
1870 2 1 -45.752319 34.947635 8.462902
1871 2 1 -45.039565 34.249504 8.530681
1872 2 1 -45.769876 34.218646 7.848264
1873 2 1 -45.626755 34.780001 8.663370
1874 2 1 -46.555024 35.150696 8.633348
1875 2 1 -46.975572 35.070470 9.537065
1876 2 1 -47.175378 34.258129 10.084950
1877 2 1 -46.319692 33.825645 9.800769
1878 2 1 -45.789222 34.669132 9.885209
1879 2 1 -44.851751 35.016253 9.859613
1880 2 1 -45.437722 35.727374 10.248128
1881 2 1 -46.358018 36.025615 9.994935
1882 2 1 -47.112786 35.587624 10.483289
1883 2 1 -47.410156 34.856295 9.869505
1884 2 1 -47.227966 34.076587 10.468556
1885 2 1 -46.878983 33.876031 9.553140
1886 2 1 -46.916010 33.869048 8.553850
1887 2 1 -46.396106 34.139619 9.364091
1888 2 1 -46.893127 33.624947 10.062722
1889 2 1 -46.022023 33.234406 10.360473
1890 2 1 -46.028915 32.953206 11.320097
1891 2 1 -45.342351 33.516019 10.859801
1892 2 1 -45.320609 32.573478 11.193185
1893 2 1 -46.126081 32.427643 11.767595
1894 2 1 -46.412062 32.720958 10.855355
1895 2 1 -45.510231 32.326966 10.677952
1896 2 1 -45.538659 33.310304 10.498400
1897 2 1 -45.475631 33.711937 9.584771
1898 2 1 -44.970257 33.951143 10.413853
1899 2 1 -44.207385 34.244431 10.990055
1900 2 1 -44.657277 33.353971 10.921652
1901 2 1 -44.156279 33.144473 11.761361
1902 2 1 -43.769432 34.066573 11.770333
1903 2 1 -44.117533 34.860462 12.268896
1904 2 1 -43.755741 35.746136 11.977882
1905 2 1 -43.355512 36.407936 12.611788
1906 2 1 -44.005828 36.354288 13.369555
1907 2 1 -43.703328 37.297753 13.505082
1908 2 1 -42.746483 37.582560 13.447352
1909 2 1 -42.573447 38.505065 13.792377
1910 2 1 -43.140732 37.753684 14.129444
1911 2 1 -44.060153 37.922905 13.774437
1912 2 1 -43.920686 37.661340 12.819380
1913 2 1 -42.923769 37.681773 12.743626
1914 2 1 -42.159299 38.032064 13.284812
1915 2 1 -42.459875 38.338024 14.188163
1916 2 1 -42.960340 39.098370 14.602180
1917 2 1 -43.229239 38.733257 15.493463
1918 2 1 -43.469369 39.515260 16.068621
1919 2 1 -43.520819 38.523649 16.187200
1920 2 1 -42.828212 38.025623 15.665409
1921 2 1 -42.359641 37.430277 16.318099
1922 2 1 -41.968823 38.350737 16.321941
1923 2 1 -41.867517 38.566347 15.350731
1924 2 1 -42.400859 39.309730 14.947086
1925 2 1 -42.924417 39.528957 15.770388
1926 2 1 -42.937698 38.535871 15.887019
1927 2 1 -42.645869 37.613179 16.138965
1928 2 1 -42.366098 38.281351 16.828366
1929 2 1 -42.041924 39.226573 16.866667
1930 2 1 -42.063085 40.219629 16.982395
1931 2 1 -42.792790 39.543079 17.081439
1932 2 1 -43.538311 40.169798 17.308202
1933 2 1 -42.728073 39.606058 17.147858
1934 2 1 -43.321588 40.244598 17.637762
1935 2 1 -42.774640 40.759393 16.977584
1936 2 1 -41.877289 41.175873 17.123548
1937 2 1 -41.585577 40.270221 16.815818
1938 2 1 -41.737632 39.699397 16.008947
1939 2 1 -41.293547 40.118431 16.800906
1940 2 1 -41.643314 39.221583 17.071696
1941 2 1 -41.904565 38.354422 17.495700
1942 2 1 -41.955626 37.356558 17.536453
1943 2 1 -42.725782 37.589698 16.942731
1944 2 1 -43.538003 37.941123 17.408347
1945 2 1 -43.762506 37.055206 17.814240
1946 2 1 -43.607244 37.431818 16.900973
1947 2 1 -44.333792 37.181783 17.540981
1948 2 1 -45.295538 36.954501 17.388049
1949 2 1 -44.437919 37.171629 16.921847
1950 2 1 -43.449261 37.234784 17.058109
1951 2 1 -43.854480 36.347907 17.280028
1952 2 1 -44.026053 36.461342 16.301409
1953 2 1 -43.118853 36.454279 16.722050
1954 2 1 -44.113456 36.498409 16.815952
1955 2 1 -43.680464 36.798036 15.965810
1956 2 1 -43.269626 37.007770 15.078553
1957 2 1 -43.107041 37.506791 15.929755
1958 2 1 -43.906118 36.905565 15.931587
1959 2 1 -43.380196 36.055540 15.902201
1960 2 1 -44.366727 36.053510 15.738637
1961 2 1 -44.079849 36.872847 15.242263
1962 2 1 -43.846707 35.914610 15.407870
1963 2 1 -43.124522 35.260998 15.181506
1964 2 1 -43.949494 35.363081 15.737384
1965 2 1 -44.514046 35.544721 16.542547
1966 2 1 -45.213959 35.708984 15.847465
1967 2 1 -45.709793 35.719894 16.715814
1968 2 1 -44.946368 35.550958 16.092401
1969 2 1 -44.089493 35.950186 16.418562
1970 2 1 -44.950808 35.849975 15.920472
1971 2 1 -44.213849 36.132507 16.534530
1972 2 1 -44.645733 35.332928 16.117219
1973 2 1 -44.101533 34.764356 16.734124
1974 2 1 -43.309260 34.582246 17.316481
1975 2 1 -44.158524 34.106901 17.086703
1976 2 1 -44.372682 33.159110 16.850422
1977 2 1 -43.636515 33.759843 17.162155
1978 2 1 -44.124714 34.548977 17.534888
1979 2 1 -44.805211 35.248245 17.315918
1980 2 1 -44.193819 35.685524 17.975453
1981 2 1 -43.684495 36.533326 18.123173
1982 2 1 -43.361000 36.574966 19.068486
1983 2 1 -42.886522 35.703718 19.194169
1984 2 1 -42.033393 36.011799 19.615189
1985 2 1 -42.014931 36.968232 19.906556
1986 2 1 -42.257096 36.241832 20.549750
1987 2 1 -41.384518 35.981289 20.136562
1988 2 1 -42.251785 36.294021 19.749205
1989 2 1 -42.708053 35.606665 19.184084
1990 2 1 -41.955537 34.979556 19.385217
1991 2 1 -42.609886 34.673253 20.076597
1992 2 1 -42.079245 33.827305 20.129442
1993 2 1 -42.766885 34.401901 19.685605
1994 2 1 -43.427684 35.040517 19.291253
1995 2 1 -43.252063 35.853871 18.736626
1996 2 1 -43.374246 36.114636 19.694265
1997 2 1 -42.746661 36.891169 19.750250
1998 2 1 -42.755333 37.795611 19.323743
1999 2 1 -43.128240 38.625388 18.908519
2000 2 1 -43.859445 38.927084 19.520336
2001 3 1 -5.487181 10.114077 -23.954268
2002 3 1 -5.808292 9.560547 -23.185833
2003 3 1 -6.739620 9.640605 -22.830559
2004 3 1 -6.482710 8.723386 -22.526082
2005 3 1 -7.186564 8.038917 -22.716062
2006 3 1 -6.799805 7.116847 -22.730398
2007 3 1 -5.865563 7.238555 -23.065630
2008 3 1 -5.693316 8.219889 -23.151154
2009 3 1 -6.327561 8.959633 -23.375904
2010 3 1 -6.825628 9.581433 -23.980300
2011 3 1 -7.030294 10.552622 -23.858220
2012 3 1 -6.544406 9.884732 -24.421989
2013 3 1 -6.919014 9.825101 -25.347253
2014 3 1 -6.632120 9.132083 -26.008629
2015 3 1 -6.607143 8.925009 -26.986636
2016 3 1 -6.738389 8.255832 -26.255215
2017 3 1 -7.283423 7.941003 -27.032274
2018 3 1 -7.206692 8.788002 -27.558302
2019 3 1 -7.895966 9.512183 -27.579817
2020 3 1 -8.494139 8.796925 -27.941196
2021 3 1 -9.013980 8.060134 -28.373521
2022 3 1 -8.775188 9.018140 -28.214764
2023 3 1 -8.646407 9.475301 -27.334753
2024 3 1 -7.764932 9.931992 -27.454904
2025 3 1 -8.400682 10.184200 -26.725375
2026 3 1 -8.055645 9.524489 -26.057744
2027 3 1 -8.105951 9.229858 -27.012030
2028 3 1 -7.740142 8.752060 -26.213348
2029 3 1 -8.485233 8.826328 -26.876163
2030 3 1 -7.692736 9.436089 -26.887982
2031 3 1 -6.984945 8.806177 -26.568227
2032 3 1 -7.739571 8.608516 -27.193902
2033 3 1 -7.439252 7.685918 -27.436018
2034 3 1 -6.926832 6.831084 -27.517779
2035 3 1 -7.371400 5.944830 -27.387730
2036 3 1 -7.582304 6.493570 -28.196683
2037 3 1 -7.431063 7.136842 -28.947234
2038 3 1 -6.768199 7.852788 -28.728070
2039 3 1 -5.947569 8.252218 -29.136754
2040 3 1 -6.358865 8.186402 -28.227631
2041 3 1 -6.479809 9.170689 -28.356285
2042 3 1 -6.051867 9.540234 -27.531481
2043 3 1 -5.212784 9.330523 -28.033439
2044 3 1 -5.350073 9.336747 -27.042927
2045 3 1 -4.409756 8.999715 -26.995884
2046 3 1 -4.358609 9.950051 -27.302880
2047 3 1 -3.827844 10.794904 -27.370046
2048 3 1 -2.904211 11.178154 -27.365325
2049 3 1 -2.062481 11.710371 -27.456077
2050 3 1 -1.644952 11.336024 -28.284047
2051 3 1 -1.097086 11.384973 -27.448914
2052 3 1 -0.525386 12.205394 -27.457130
2053 3 1 -0.157930 11.290637 -27.625043
2054 3 1 -0.768069 10.653686 -28.096237
2055 3 1 -1.754411 10.663043 -28.260684
2056 3 1 -1.411199 11.357073 -28.893556
2057 3 1 -0.606742 11.891302 -29.153267
2058 3 1 -0.483807 10.902227 -29.234622
2059 3 1 0.315255 10.358604 -29.491474
2060 3 1 0.534197 11.324051 -29.350137
2061 3 1 0.067477 12.037123 -29.873302
2062 3 1 0.949265 12.504931 -29.813252
2063 3 1 0.287418 12.054991 -30.412845
2064 3 1 0.082154 12.406842 -31.326118
2065 3 1 0.312289 12.468241 -32.297338
2066 3 1 1.213418 12.824149 -32.049758
2067 3 1 0.610416 12.031475 -31.960004
2068 3 1 -0.162991 12.246466 -32.556343
2069 3 1 -0.147645 13.193258 -32.877823
2070 3 1 -0.787882 12.443970 -32.708516
2071 3 1 -1.531177 12.421802 -32.039919
2072 3 1 -2.445381 12.040171 -31.903576
2073 3 1 -3.011816 11.507552 -32.532439
2074 3 1 -2.645036 10.579233 -32.593241
2075 3 1 -2.912983 10.566109 -33.556585
2076 3 1 -2.874220 10.040640 -34.406514
2077 3 1 -2.011150 10.369136 -34.790182
2078 3 1 -2.474632 10.607366 -33.936701
2079 3 1 -2.810234 11.524764 -33.722804
2080 3 1 -2.062412 11.137056 -34.261734
2081 3 1 -1.351581 11.840266 -34.247112
2082 3 1 -0.477662 12.323167 -34.191684
2083 3 1 -1.229651 12.731353 -33.674097
2084 3 1 -1.738361 12.644666 -34.530659
2085 3 1 -1.686732 12.508583 -35.520010
2086 3 1 -1.730384 11.811791 -36.235955
2087 3 1 -1.007497 12.140614 -35.628246
2088 3 1 -1.222612 12.982234 -36.123625
2089 3 1 -0.794028 12.087108 -36.000882
2090 3 1 -1.334741 11.319344 -35.657128
2091 3 1 -0.992909 12.257610 -35.604150
2092 3 1 -0.167239 12.112515 -36.149325
2093 3 1 -0.122769 13.026294 -36.553095
2094 3 1 -0.920399 12.537941 -36.907069
2095 3 1 -0.600383 13.193577 -36.223160
2096 3 1 -0.696727 13.559589 -35.297550
2097 3 1 -0.313774 14.321973 -35.819199
2098 3 1 0.228421 14.816915 -36.498211
2099 3 1 0.311558 15.441355 -37.274847
2100 3 1 0.973001 16.150516 -37.030749
2101 3 1 0.842133 15.830289 -36.092491
2102 3 1 1.501756 15.090281 -35.961020
2103 3 1 1.691293 14.547458 -36.779201
2104 3 1 1.579640 13.564675 -36.631988
2105 3 1 1.346499 12.592533 -36.607803
2106 3 1 0.827753 12.151384 -35.875485
2107 3 1 0.541681 11.199785 -35.763136
2108 3 1 0.036123 10.764220 -35.018358
2109 3 1 -0.013011 11.265412 -35.882298
2110 3 1 -0.702629 10.707023 -35.421181
2111 3 1 -1.017690 9.817489 -35.090325
2112 3 1 -1.617717 9.882442 -34.292986
2113 3 1 -0.809283 9.857527 -33.704927
2114 3 1 -1.786566 9.952665 -33.515540
2115 3 1 -2.657547 9.558776 -33.809213
2116 3 1 -2.098219 8.931525 -34.351161
2117 3 1 -2.948835 9.446086 -34.459226
2118 3 1 -3.096035 9.081299 -33.539845
2119 3 1 -4.094385 9.024090 -33.534862
2120 3 1 -3.764644 9.917343 -33.229296
2121 3 1 -4.406177 10.403378 -32.635828
2122 3 1 -3.814766 10.812854 -33.330495
2123 3 1 -3.882435 11.507121 -32.613965
2124 3 1 -3.917861 11.687575 -33.596911
2125 3 1 -3.693362 10.715816 -33.669603
2126 3 1 -3.185896 10.163254 -33.008427
2127 3 1 -2.246509 10.440571 -33.210034
2128 3 1 -2.523372 9.663349 -32.644992
2129 3 1 -3.223678 9.851848 -33.333497
2130 3 1 -2.786252 8.952883 -33.356336
2131 3 1 -3.268292 9.795928 -33.594902
2132 3 1 -3.315314 10.558888 -34.239635
2133 3 1 -4.088443 10.568483 -34.873812
2134 3 1 -3.111562 10.684995 -34.694568
2135 3 1 -3.190692 9.769873 -34.299233
2136 3 1 -3.218437 8.883069 -34.760545
2137 3 1 -3.199385 9.840233 -34.471625
2138 3 1 -2.791811 10.211184 -35.306059
2139 3 1 -3.221671 10.255230 -36.207880
2140 3 1 -3.188270 10.548282 -37.163393
2141 3 1 -3.750677 9.836979 -36.741792
2142 3 1 -3.151029 9.387284 -36.079828
2143 3 1 -2.878275 10.341023 -36.206271
2144 3 1 -2.287118 10.220272 -35.408804
2145 3 1 -3.034705 9.566510 -35.525889
2146 3 1 -2.574784 8.702507 -35.730757
2147 3 1 -3.119112 8.998178 -34.945718
2148 3 1 -3.935741 8.450488 -35.127798
2149 3 1 -4.340916 9.038890 -34.428072
2150 3 1 -3.804125 9.409434 -35.186064
2151 3 1 -4.324120 9.647907 -34.365859
2152 3 1 -4.527622 9.823850 -33.402723
2153 3 1 -3.667577 9.332835 -33.264062
2154 3 1 -3.264184 8.453840 -33.518311
2155 3 1 -3.016577 7.760230 -32.841853
2156 3 1 -3.196919 6.967954 -33.424755
2157 3 1 -4.024563 6.447217 -33.215379
2158 3 1 -3.843476 6.787020 -32.292481
2159 3 1 -4.752450 6.374913 -32.229762
2160 3 1 -3.768877 6.519143 -32.338306
2161 3 1 -3.655375 6.094917 -33.236721
2162 3 1 -3.088835 5.461538 -32.709594
2163 3 1 -3.810965 4.905477 -32.298101
2164 3 1 -3.680059 5.674602 -32.923650
2165 3 1 -3.661551 6.276052 -32.124954
2166 3 1 -3.992142 7.094272 -32.595301
2167 3 1 -4.421397 6.856345 -31.724020
2168 3 1 -5.209077 6.800608 -32.337577
2169 3 1 -5.364015 5.852434 -32.060158
2170 3 1 -5.583943 5.694705 -33.022838
2171 3 1 -5.122740 5.169349 -33.737886
2172 3 1 -4.709866 6.001094 -34.109013
2173 3 1 -4.915816 5.423892 -33.318809
2174 3 1 -5.465579 6.083599 -33.831202
2175 3 1 -6.324618 5.805459 -34.260958
2176 3 1 -6.011194 4.950746 -34.674758
2177 3 1 -6.843478 5.464920 -34.881950
2178 3 1 -7.583149 5.383962 -34.213869
2179 3 1 -7.282508 4.432400 -34.149480
2180 3 1 -6.846026 5.020521 -34.830360
2181 3 1 -6.390677 4.131235 -34.787608
2182 3 1 -7.199024 4.132624 -35.376313
2183 3 1 -6.745830 3.805057 -34.547268
2184 3 1 -7.339368 4.400986 -35.088177
2185 3 1 -8.224131 4.036982 -34.797153
2186 3 1 -7.973498 4.732057 -35.470988
2187 3 1 -7.824348 4.215813 -34.627634
2188 3 1 -6.920428 4.461843 -34.977490
2189 3 1 -7.614898 5.086037 -34.619586
2190 3 1 -8.238933 5.590609 -34.022940
2191 3 1 -7.479185 6.142307 -33.678829
2192 3 1 -7.438033 5.716526 -34.582719
2193 3 1 -6.797912 4.952132 -34.505609
2194 3 1 -6.441794 5.878909 -34.625044
2195 3 1 -5.793424 6.485571 -34.165069
2196 3 1 -5.085839 5.898956 -33.771107
2197 3 1 -5.104347 6.896304 -33.841498
2198 3 1 -5.476777 6.005979 -33.579548
2199 3 1 -5.589760 5.012758 -33.606862
2200 3 1 -6.364449 4.411728 -33.410340
2201 3 1 -5.949495 3.501956 -33.421651
2202 3 1 -5.482113 2.638338 -33.610640
2203 3 1 -5.242937 3.278619 -34.340595
2204 3 1 -6.144034 2.942426 -34.614452
2205 3 1 -6.152374 2.973977 -35.613919
2206 3 1 -5.756756 2.075674 -35.422769
2207 3 1 -5.061360 2.657681 -35.001233
2208 3 1 -4.759812 2.001948 -35.693392
2209 3 1 -4.046322 2.534462 -35.238023
2210 3 1 -3.725696 1.924696 -34.513188
2211 3 1 -3.989425 1.897753 -33.548968
2212 3 1 -4.225017 2.362099 -34.402712
2213 3 1 -3.449309 2.688392 -34.942906
2214 3 1 -2.934713 3.396080 -34.458789
2215 3 1 -2.278970 3.218589 -33.724964
2216 3 1 -1.689138 3.937233 -33.356660
2217 3 1 -2.451712 4.171903 -33.959496
2218 3 1 -3.419776 3.977720 -33.800928
2219 3 1 -3.958011 4.414462 -33.080124
2220 3 1 -3.560731 4.447481 -32.163021
2221 3 1 -3.247943 3.938790 -32.965141
2222 3 1 -2.876870 3.951698 -33.893655
2223 3 1 -2.459793 4.378847 -34.695896
2224 3 1 -3.119021 4.056730 -35.375351
2225 3 1 -3.764526 3.899177 -34.628022
2226 3 1 -4.700592 3.889244 -34.276339
2227 3 1 -5.694905 3.970656 -34.345005
2228 3 1 -6.130235 4.397131 -33.552157
2229 3 1 -5.700346 5.232220 -33.895408
2230 3 1 -6.660953 4.956868 -33.857807
2231 3 1 -5.861343 5.295453 -34.353773
2232 3 1 -4.909236 5.575693 -34.231466
2233 3 1 -5.306289 6.086223 -33.468768
2234 3 1 -5.318989 5.152373 -33.826205
2235 3 1 -5.122446 5.939272 -33.241260
2236 3 1 -4.617953 6.747004 -32.936209
2237 3 1 -3.831281 7.349990 -32.803717
2238 3 1 -4.302475 6.495831 -32.583743
2239 3 1 -5.165039 6.414875 -32.084313
2240 3 1 -5.785453 7.197022 -32.026588
2241 3 1 -6.475148 7.651337 -31.462745
2242 3 1 -6.838496 8.039741 -32.309575
2243 3 1 -6.713254 8.336074 -33.256412
2244 3 1 -6.636641 9.255601 -33.641901
2245 3 1 -7.208796 8.531937 -34.027840
2246 3 1 -7.760216 7.700482 -33.959876
2247 3 1 -7.402124 6.772144 -33.860079
2248 3 1 -6.499605 7.145044 -33.644656
2249 3 1 -5.953626 6.694362 -32.938403
2250 3 1 -5.245125 6.475317 -33.609258
2251 3 1 -5.805976 5.683294 -33.368124
2252 3 1 -5.249034 5.962288 -32.585834
2253 3 1 -4.973949 6.045860 -33.543614
2254 3 1 -4.418934 5.400813 -34.068851
2255 3 1 -4.512756 6.268983 -33.581533
2256 3 1 -4.432143 5.302507 -33.825306
2257 3 1 -4.584056 6.127226 -33.280549
2258 3 1 -4.168154 5.548103 -32.579377
2259 3 1 -3.304712 5.139817 -32.875636
2260 3 1 -3.177029 6.086383 -32.579478
2261 3 1 -3.084736 6.919859 -33.124270
2262 3 1 -3.845083 6.357845 -32.798674
2263 3 1 -3.278596 6.161026 -33.598896
2264 3 1 -3.899278 6.457335 -32.872979
2265 3 1 -4.342932 5.860219 -33.541277
2266 3 1 -5.015821 6.576156 -33.355118
2267 3 1 -4.146519 6.793399 -32.911135
2268 3 1 -4.907321 6.171321 -32.726202
2269 3 1 -4.573264 7.110155 -32.809843
2270 3 1 -5.507990 6.879790 -33.080434
2271 3 1 -4.815541 6.644892 -32.398279
2272 3 1 -4.257133 7.202432 -31.784007
2273 3 1 -4.680933 7.716741 -31.038434
2274 3 1 -4.227985 8.568244 -30.774273
2275 3 1 -4.775291 9.397891 -30.664090
2276 3 1 -4.775017 10.316394 -31.059506
2277 3 1 -4.162072 10.115669 -31.823710
2278 3 1 -3.278847 10.384908 -31.439752
2279 3 1 -2.981944 11.259049 -31.055401
2280 3 1 -3.049136 11.441978 -30.074574
2281 3 1 -3.215964 11.765611 -31.005933
2282 3 1 -3.096304 11.990297 -30.038876
2283 3 1 -3.872520 12.017281 -29.408987
2284 3 1 -2.917172 12.148496 -29.144240
2285 3 1 -3.041443 13.140730 -29.138912
2286 3 1 -3.042388 13.476098 -30.080999
2287 3 1 -3.829236 13.339959 -30.682943
2288 3 1 -3.392280 13.230235 -29.790177
2289 3 1 -2.808887 12.544075 -29.355625
2290 3 1 -2.000455 12.710306 -28.790996
2291 3 1 -2.098209 11.719152 -28.701228
2292 3 1 -1.108004 11.584974 -28.662642
2293 3 1 -2.003312 11.246971 -28.372509
2294 3 1 -2.137044 12.001723 -27.730274
2295 3 1 -2.544416 12.000986 -26.817012
2296 3 1 -2.289007 11.888233 -27.777248
2297 3 1 -1.308054 11.969634 -27.600884
2298 3 1 -1.669272 12.902081 -27.608833
2299 3 1 -1.531942 11.929664 -27.797368
2300 3 1 -1.503739 12.453505 -26.946019
2301 3 1 -1.615761 13.445946 -26.996147
2302 3 1 -1.679127 13.480975 -27.993522
2303 3 1 -2.328556 14.046127 -28.502289
2304 3 1 -2.868091 14.632892 -29.106118
2305 3 1 -2.359907 13.774450 -29.036652
2306 3 1 -2.126381 14.579597 -28.491488
2307 3 1 -2.730035 15.335049 -28.236745
2308 3 1 -3.444038 15.036748 -27.603330
2309 3 1 -3.687943 14.226202 -28.135801
2310 3 1 -4.302560 13.457010 -27.960905
2311 3 1 -4.068984 13.992021 -28.772820
2312 3 1 -5.008963 14.318834 -28.674674
2313 3 1 -5.168399 13.369143 -28.944244
2314 3 1 -5.832297 14.053181 -28.642033
2315 3 1 -6.370806 14.679285 -29.205949
2316 3 1 -5.618912 14.837795 -29.845894
2317 3 1 -5.024766 14.053548 -30.024630
2318 3 1 -5.182171 13.301616 -30.664805
2319 3 1 -5.127899 13.478632 -31.647515
2320 3 1 -4.611048 13.900741 -30.902740
2321 3 1 -5.084435 13.658881 -30.055741
2322 3 1 -5.455263 13.123209 -30.814386
2323 3 1 -5.256361 13.654062 -31.638178
2324 3 1 -5.444384 14.076343 -30.751428
2325 3 1 -5.205124 13.358600 -30.097517
2326 3 1 -4.268103 13.530078 -29.793237
2327 3 1 -3.533729 12.958057 -29.427878
2328 3 1 -2.723747 13.523749 -29.273209
2329 3 1 -2.909079 13.187619 -30.196609
2330 3 1 -3.243730 12.245582 -30.172633
2331 3 1 -3.418140 11.411084 -30.695313
2332 3 1 -3.288628 10.583294 -30.149427
2333 3 1 -2.917526 11.470452 -30.423718
2334 3 1 -3.161600 12.197032 -29.781450
2335 3 1 -3.671823 11.803440 -30.546144
2336 3 1 -3.932292 11.148366 -31.255393
2337 3 1 -4.412095 11.971561 -31.558936
2338 3 1 -4.393320 11.015525 -31.266288
2339 3 1 -3.496258 10.614239 -31.081225
2340 3 1 -3.442974 11.611710 -31.034184
2341 3 1 -3.429432 11.554895 -32.032477
2342 3 1 -2.922326 12.357923 -32.345507
2343 3 1 -2.394252 12.435733 -31.499881
2344 3 1 -2.620976 12.801399 -30.597171
2345 3 1 -1.750723 13.264640 -30.429641
2346 3 1 -2.199957 13.615483 -31.251285
2347 3 1 -1.276146 13.997099 -31.220556
2348 3 1 -1.815305 14.530596 -30.568874
2349 3 1 -1.420721 15.180508 -29.919322
2350 3 1 -0.923363 15.143727 -29.052557
2351 3 1 -0.180811 14.988201 -29.704038
2352 3 1 0.502349 15.655229 -29.406773
2353 3 1 0.861565 14.876856 -29.921651
2354 3 1 0.670168 15.093001 -28.964234
2355 3 1 1.579950 15.499610 -28.880768
2356 3 1 1.098936 15.339507 -29.742738
2357 3 1 0.644353 15.902721 -29.052705
2358 3 1 0.339434 16.412432 -29.857204
2359 3 1 1.308064 16.659144 -29.827375
2360 3 1 1.540455 16.565597 -28.859262
2361 3 1 1.051310 16.290128 -28.031703
2362 3 1 0.229826 16.306168 -28.601709
2363 3 1 1.206364 16.091704 -28.582218
2364 3 1 0.665997 16.747618 -29.109268
2365 3 1 0.155015 16.514239 -29.936572
2366 3 1 -0.546589 16.341024 -29.245378
2367 3 1 0.184728 15.716019 -29.518408
2368 3 1 0.649701 16.484134 -29.958635
2369 3 1 0.111344 16.776535 -29.168271
2370 3 1 0.030960 17.771269 -29.231849
2371 3 1 0.361103 17.936250 -28.302447
2372 3 1 0.995116 17.225324 -27.998125
2373 3 1 0.204741 17.833712 -28.070040
2374 3 1 -0.705001 17.432375 -28.176336
2375 3 1 0.222649 17.556789 -27.824220
2376 3 1 -0.140234 17.307652 -28.722132
2377 3 1 -0.977226 16.762445 -28.768965
2378 3 1 -1.835837 16.556927 -29.238592
2379 3 1 -1.555581 15.862782 -29.901631
2380 3 1 -2.313815 15.266965 -30.166363
2381 3 1 -2.876678 15.906399 -29.642617
2382 3 1 -2.660025 16.388724 -30.491395
2383 3 1 -3.437282 15.799187 -30.271582
2384 3 1 -3.029958 16.234946 -31.074203
2385 3 1 -3.115643 17.195200 -31.339857
2386 3 1 -2.874548 16.224698 -31.339201
2387 3 1 -3.012583 15.296358 -30.994046
2388 3 1 -2.175043 15.787772 -31.232877
2389 3 1 -2.360709 15.034981 -30.601343
2390 3 1 -2.062280 15.989217 -30.620684
2391 3 1 -1.302349 15.778997 -31.235755
2392 3 1 -1.330137 15.073575 -31.943997
2393 3 1 -0.767814 15.599969 -32.581729
2394 3 1 -1.517902 15.411077 -33.215517
2395 3 1 -1.090476 15.171058 -34.087123
2396 3 1 -1.495488 15.336412 -33.187888
2397 3 1 -1.238945 14.537205 -33.731444
2398 3 1 -0.853307 13.669356 -33.418199
2399 3 1 -0.065623 13.222087 -33.841878
2400 3 1 -0.679296 13.073359 -33.066452
2401 3 1 -0.074419 13.009467 -32.272700
2402 3 1 -0.004229 13.190319 -33.253703
2403 3 1 -0.783468 12.818915 -32.748880
2404 3 1 -1.256270 12.127042 -33.294564
2405 3 1 -0.523636 11.451152 -33.214434
2406 3 1 -0.522487 12.356047 -32.788801
2407 3 1 -0.757335 12.882115 -31.971427
2408 3 1 -0.936285 12.084401 -32.547300
2409 3 1 -0.911187 11.090119 -32.443502
2410 3 1 -0.455698 11.166198 -31.556517
2411 3 1 -0.573752 10.183217 -31.415767
2412 3 1 -0.023019 9.387740 -31.162961
2413 3 1 0.645493 9.471938 -30.424042
2414 3 1 -0.002116 9.710339 -31.147759
2415 3 1 -0.698523 9.122044 -30.736753
2416 3 1 -0.525311 9.953537 -31.264595
2417 3 1 -1.364655 10.368355 -31.615916
2418 3 1 -2.139285 10.742600 -31.106123
2419 3 1 -2.966599 10.874285 -30.560036
2420 3 1 -3.705372 10.229989 -30.362303
2421 3 1 -2.919109 9.748830 -29.974648
2422 3 1 -2.015804 10.047661 -30.282447
2423 3 1 -2.790133 10.671976 -30.385621
2424 3 1 -3.735726 10.799396 -30.684984
2425 3 1 -3.798384 11.782949 -30.515582
2426 3 1 -4.661022 11.605887 -30.989402
2427 3 1 -4.373962 10.662057 -30.825751
2428 3 1 -4.276840 10.029368 -30.057460
2429 3 1 -3.590382 9.327585 -30.247923
2430 3 1 -3.637637 9.515756 -31.228921
2431 3 1 -2.879897 9.768613 -31.830497
2432 3 1 -3.617529 10.058431 -31.220658
2433 3 1 -2.942342 10.322424 -30.531869
2434 3 1 -3.763375 10.835294 -30.281133
2435 3 1 -3.744567 11.833059 -30.345254
2436 3 1 -3.887600 11.370500 -31.220229
2437 3 1 -4.022275 12.049640 -30.498681
2438 3 1 -4.318011 12.198770 -29.555124
2439 3 1 -4.882277 11.982745 -30.351953
2440 3 1 -3.940652 11.682328 -30.503914
2441 3 1 -3.920808 11.403715 -29.543716
2442 3 1 -3.529554 12.093385 -30.153040
2443 3 1 -2.874046 12.049137 -30.906931
2444 3 1 -2.782367 12.847219 -30.311398
2445 3 1 -2.882466 13.783609 -29.975014
2446 3 1 -3.501258 13.139961 -30.425363
2447 3 1 -3.375788 12.546229 -31.220183
2448 3 1 -2.483355 12.171141 -30.969439
2449 3 1 -2.783892 12.130370 -30.016541
2450 3 1 -2.560764 13.095665 -29.880825
2451 3 1 -1.864188 13.190524 -29.169641
2452 3 1 -2.448320 13.915552 -28.804779
2453 3 1 -2.807373 13.680615 -29.708043
2454 3 1 -2.949946 14.404660 -30.382900
2455 3 1 -2.425727 13.553443 -30.407889
2456 3 1 -3.142479 13.313326 -29.753205
2457 3 1 -3.067316 14.301051 -29.890132
2458 3 1 -3.426081 14.197244 -30.817770
2459 3 1 -4.013894 14.230521 -30.009457
2460 3 1 -4.481516 13.808683 -30.786233
2461 3 1 -5.479541 13.799010 -30.724170
2462 3 1 -5.171340 13.591778 -29.795694
2463 3 1 -6.105800 13.583880 -29.439713
2464 3 1 -6.639688 14.352903 -29.791232
2465 3 1 -7.121076 14.598096 -30.632747
2466 3 1 -7.126624 15.104393 -31.495088
2467 3 1 -6.801044 15.654910 -30.726369
2468 3 1 -6.929671 16.198544 -31.555777
2469 3 1 -7.705296 16.260140 -32.183958
2470 3 1 -8.364645 15.539905 -32.399643
2471 3 1 -8.926897 14.713356 -32.425918
2472 3 1 -9.780055 14.727143 -31.904447
2473 3 1 -9.012675 14.441225 -32.478364
2474 3 1 -9.345534 13.574756 -32.106294
2475 3 1 -9.392153 14.534569 -31.829556
2476 3 1 -9.872775 15.364367 -32.113174
2477 3 1 -10.011176 16.246418 -31.662806
2478 3 1 -10.706895 16.874917 -31.315009
2479 3 1 -10.781659 16.226412 -30.557478
2480 3 1 -11.254838 16.634637 -31.338154
2481 3 1 -11.948471 15.960562 -31.084193
2482 3 1 -11.934675 16.218670 -32.050211
2483 3 1 -11.479772 16.557054 -32.873958
2484 3 1 -11.401638 15.602569 -33.161801
2485 3 1 -11.051927 15.585257 -34.098499
2486 3 1 -11.601227 16.415429 -34.003193
2487 3 1 -11.254459 15.509301 -33.760945
2488 3 1 -11.170580 14.916456 -32.960009
2489 3 1 -11.259348 15.746174 -33.511089
2490 3 1 -10.687082 16.529769 -33.752937
2491 3 1 -10.456336 17.413077 -34.161010
2492 3 1 -11.423017 17.643658 -34.272186
2493 3 1 -11.292432 17.156710 -33.408573
2494 3 1 -10.934400 17.708497 -32.655350
2495 3 1 -10.336870 17.520252 -33.434787
2496 3 1 -9.546009 17.707543 -32.852156
2497 3 1 -8.732151 17.602585 -33.423662
2498 3 1 -8.341376 17.172582 -34.237537
2499 3 1 -7.786034 16.797225 -33.495443
2500 3 1 -8.753516 16.690826 -33.724919
2501 3 1 -8.788671 16.010080 -32.993244
2502 3 1 -9.566554 16.244880 -32.410348
2503 3 1 -9.592973 16.338036 -33.405649
2504 3 1 -9.116464 17.156531 -33.084705
2505 3 1 -8.585269 17.940629 -32.763735
2506 3 1 -9.435336 17.416661 -32.817040
2507 3 1 -8.540143 17.862194 -32.828422
2508 3 1 -8.806810 17.277457 -32.062282
2509 3 1 -9.136559 17.329673 -33.004905
2510 3 1 -9.462873 16.591229 -33.595007
2511 3 1 -9.742667 17.512029 -33.323266
2512 3 1 -8.855476 17.110750 -33.095523
2513 3 1 -9.777027 16.814442 -33.346412
2514 3 1 -10.580669 16.833232 -33.941228
2515 3 1 -10.310244 16.467270 -34.831701
2516 3 1 -10.891375 16.029211 -34.145850
2517 3 1 -11.839227 15.729366 -34.037824
2518 3 1 -12.126838 15.602846 -33.088470
2519 3 1 -12.446168 16.349782 -32.505277
2520 3 1 -12.313146 17.338340 -32.434159
2521 3 1 -12.616840 16.509928 -32.904800
2522 3 1 -12.291323 16.690735 -31.976712
2523 3 1 -11.422161 17.181733 -31.917731
2524 3 1 -10.834709 17.160530 -32.726712
2525 3 1 -11.218709 17.738681 -32.006791
2526 3 1 -11.018975 18.011622 -32.947860
2527 3 1 -10.045972 18.240947 -32.921895
2528 3 1 -10.873613 18.579642 -33.369439
2529 3 1 -11.810697 18.837633 -33.134251
2530 3 1 -11.975228 17.922135 -32.767112
2531 3 1 -11.939067 18.547107 -31.987303
2532 3 1 -12.687261 18.733270 -32.624130
2533 3 1 -12.203559 18.198017 -33.316615
2534 3 1 -11.210892 18.290043 -33.238227
2535 3 1 -11.017855 18.864632 -34.033579
2536 3 1 -10.632903 18.864023 -33.110643
2537 3 1 -10.662470 18.695896 -32.125321
2538 3 1 -10.739204 17.698851 -32.128855
2539 3 1 -10.131591 17.887537 -32.900349
2540 3 1 -10.247016 17.153994 -32.230580
2541 3 1 -11.167295 17.063472 -31.849933
2542 3 1 -10.406967 16.457523 -31.615996
2543 3 1 -9.451319 16.163125 -31.607869
2544 3 1 -10.312142 15.965225 -31.139019
2545 3 1 -10.284042 16.416144 -32.031142
2546 3 1 -10.236440 16.304945 -33.023799
2547 3 1 -9.361366 16.392027 -33.499889
2548 3 1 -8.957829 16.594512 -34.392166
2549 3 1 -8.769636 17.568563 -34.266439
2550 3 1 -8.422388 16.880959 -34.904106
2551 3 1 -9.128234 17.416672 -34.440647
2552 3 1 -9.867076 17.683105 -35.059619
2553 3 1 -10.760824 17.618793 -35.503553
2554 3 1 -10.810036 17.788876 -34.519353
2555 3 1 -11.255363 17.176938 -35.172971
2556 3 1 -10.435877 17.575706 -34.761356
2557 3 1 -10.069340 17.744397 -33.846372
2558 3 1 -10.091379 17.056770 -34.572102
2559 3 1 -9.190001 16.693256 -34.807417
2560 3 1 -9.282414 17.387207 -35.521484
2561 3 1 -9.435833 17.676364 -36.466391
2562 3 1 -9.367246 18.649657 -36.247313
2563 3 1 -9.175531 19.623227 -36.371436
2564 3 1 -9.585031 19.129844 -35.604049
2565 3 1 -10.337783 18.576539 -35.247372
2566 3 1 -9.533049 18.635330 -35.838089
2567 3 1 -10.473487 18.964020 -35.751259
2568 3 1 -10.218060 19.281412 -36.664506
2569 3 1 -11.156419 19.089852 -36.952235
2570 3 1 -11.937932 18.479342 -37.080745
2571 3 1 -11.445012 19.347139 -37.017836
2572 3 1 -12.334655 19.802473 -37.052565
2573 3 1 -12.607528 18.840772 -37.026685
2574 3 1 -13.156183 18.726125 -37.854836
2575 3 1 -13.441122 18.772741 -38.812248
2576 3 1 -14.102902 19.230295 -38.218370
2577 3 1 -14.888031 19.546714 -37.685968
2578 3 1 -14.229053 20.277206 -37.506718
2579 3 1 -13.971854 19.918723 -36.609312
2580 3 1 -14.003286 18.972657 -36.286866
2581 3 1 -13.379941 19.242581 -37.020747
2582 3 1 -13.207189 18.385953 -36.534594
2583 3 1 -13.024295 17.739888 -37.275641
2584 3 1 -12.077186 17.817752 -37.586962
2585 3 1 -11.447628 17.246882 -38.113996
2586 3 1 -11.221443 17.456541 -39.065249
2587 3 1 -10.983558 17.612516 -40.023937
2588 3 1 -10.368420 17.943951 -40.739309
2589 3 1 -9.595886 18.172176 -40.146769
2590 3 1 -10.427958 17.629787 -40.030703
2591 3 1 -10.798021 17.483793 -40.948166
2592 3 1 -9.972832 17.687834 -40.421449
2593 3 1 -9.316716 17.661223 -39.667259
2594 3 1 -10.274701 17.495872 -39.901617
2595 3 1 -10.328643 16.678845 -39.327547
2596 3 1 -9.372429 16.773615 -39.050647
2597 3 1 -10.304174 16.442467 -38.901678
2598 3 1 -11.119270 16.738417 -39.399706
2599 3 1 -10.913082 15.810677 -39.088602
2600 3 1 -10.376286 16.066717 -38.284678
2601 3 1 -10.448215 16.610613 -39.120742
2602 3 1 -9.588218 17.062498 -39.357820
2603 3 1 -8.897547 16.356812 -39.515878
2604 3 1 -8.686154 15.657994 -40.199227
2605 3 1 -8.017463 15.416892 -40.902592
2606 3 1 -8.463258 14.873140 -41.613648
2607 3 1 -8.284146 14.299355 -42.412828
2608 3 1 -8.255526 14.219800 -41.416409
2609 3 1 -9.012526 13.882530 -40.856766
2610 3 1 -8.717493 13.333320 -41.638638
2611 3 1 -8.124880 13.259410 -42.440727
2612 3 1 -8.566873 12.852284 -41.641421
2613 3 1 -9.458758 12.634465 -41.245068
2614 3 1 -10.358880 12.453991 -40.848569
2615 3 1 -11.134035 12.106609 -41.376262
2616 3 1 -11.070240 11.564143 -42.213915
2617 3 1 -11.067344 11.683094 -41.221019
2618 3 1 -11.628129 11.389354 -41.995123
2619 3 1 -11.023384 12.012839 -42.490652
2620 3 1 -11.660418 12.543811 -43.049452
2621 3 1 -12.351617 12.303241 -42.368005
2622 3 1 -11.524517 12.027738 -41.878103
2623 3 1 -11.747329 12.893164 -42.326871
2624 3 1 -10.869714 13.179549 -42.711286
2625 3 1 -11.716111 13.672734 -42.510338
2626 3 1 -12.390578 13.037056 -42.885848
2627 3 1 -13.213699 12.519334 -43.119164
2628 3 1 -13.267626 12.189411 -42.176698
2629 3 1 -13.672305 11.393837 -41.725813
2630 3 1 -14.620216 11.710909 -41.695293
2631 3 1 -14.243103 11.273186 -42.511494
2632 3 1 -13.701829 11.127614 -41.683345
2633 3 1 -12.983882 10.491604 -41.400427
2634 3 1 -13.746083 9.846053 -41.448524
2635 3 1 -13.727549 8.913945 -41.086818
2636 3 1 -13.494056 9.431882 -41.909753
2637 3 1 -12.999929 8.751924 -42.451506
2638 3 1 -12.112933 8.745879 -41.989767
2639 3 1 -11.615972 9.386606 -42.575001
2640 3 1 -12.476047 9.651230 -42.138832
2641 3 1 -13.095448 9.954100 -42.863134
2642 3 1 -13.862795 9.634738 -42.307089
2643 3 1 -12.983329 9.226960 -42.061620
2644 3 1 -13.597935 9.842910 -41.568807
2645 3 1 -13.820080 10.817754 -41.550631
2646 3 1 -14.055881 10.359400 -40.693713
2647 3 1 -13.695929 9.808997 -39.940393
2648 3 1 -13.137359 10.562674 -39.594025
2649 3 1 -13.233173 10.011303 -38.765285
2650 3 1 -12.713694 10.865627 -38.781814
2651 3 1 -13.370619 10.294111 -38.290063
2652 3 1 -12.711760 9.953450 -38.960775
2653 3 1 -13.429596 10.354274 -39.530031
2654 3 1 -13.049095 10.347274 -40.454785
2655 3 1 -13.721735 11.083054 -40.376148
2656 3 1 -13.811268 12.077904 -40.328644
2657 3 1 -13.230242 12.699212 -39.802920
2658 3 1 -12.547885 12.448525 -39.116228
2659 3 1 -11.630911 12.212604 -38.794515
2660 3 1 -12.256015 12.313594 -38.020534
2661 3 1 -11.441212 12.070618 -37.494169
2662 3 1 -10.566856 12.385615 -37.125010
2663 3 1 -9.943601 11.618794 -37.278428
2664 3 1 -9.029498 11.591759 -36.873848
2665 3 1 -8.117725 11.259242 -36.632802
2666 3 1 -8.738470 11.327957 -35.851807
2667 3 1 -7.871532 11.808255 -35.984968
2668 3 1 -8.057792 10.828026 -36.051743
2669 3 1 -8.848181 10.268449 -36.301059
2670 3 1 -8.324731 11.065427 -35.999687
2671 3 1 -9.109113 10.774560 -35.451835
2672 3 1 -9.209911 11.740238 -35.212449
2673 3 1 -8.766381 12.230271 -34.462016
2674 3 1 -8.953231 12.815917 -35.250753
2675 3 1 -8.161808 13.360722 -35.527947
2676 3 1 -7.432831 13.486522 -36.200826
2677 3 1 -6.571982 13.600016 -35.704784
2678 3 1 -6.957851 13.134126 -36.501057
2679 3 1 -7.626286 13.716083 -36.037893
2680 3 1 -8.620398 13.785045 -35.954311
2681 3 1 -9.261560 14.147551 -36.630699
2682 3 1 -8.304998 13.937716 -36.428315
2683 3 1 -9.296117 13.804820 -36.423646
2684 3 1 -9.836388 13.599299 -37.239654
2685 3 1 -9.253573 12.831319 -37.505236
2686 3 1 -8.474051 13.454849 -37.564869
2687 3 1 -9.030326 12.635165 -37.428207
2688 3 1 -8.791736 11.947834 -38.114248
2689 3 1 -7.863200 12.317988 -38.142676
2690 3 1 -8.361587 11.586284 -37.677681
2691 3 1 -8.905547 11.653037 -38.514133
2692 3 1 -8.407546 11.787703 -39.370789
2693 3 1 -7.426344 11.870004 -39.545340
2694 3 1 -8.315597 11.898765 -40.001850
2695 3 1 -7.413957 12.164155 -40.343337
2696 3 1 -8.106593 12.461886 -41.000308
2697 3 1 -7.945269 12.498196 -41.986542
2698 3 1 -8.098615 13.354389 -42.479918
2699 3 1 -8.892222 12.747574 -42.524222
2700 3 1 -8.606292 13.669807 -42.263971
2701 3 1 -9.477212 13.244285 -42.509795
2702 3 1 -9.621690 12.343011 -42.101344
2703 3 1 -8.641290 12.172794 -42.002139
2704 3 1 -9.476625 12.278259 -42.541669
2705 3 1 -10.249378 12.908000 -42.462424
2706 3 1 -10.539694 11.951138 -42.473868
2707 3 1 -9.563889 12.128832 -42.346474
2708 3 1 -9.081794 12.973774 -42.114831
2709 3 1 -8.202103 13.160009 -41.677269
2710 3 1 -7.839770 14.031264 -42.008373
2711 3 1 -7.128921 14.729871 -42.089871
2712 3 1 -7.641891 15.533527 -42.391531
2713 3 1 -8.328559 15.891499 -43.024257
2714 3 1 -8.005364 14.945582 -42.996240
2715 3 1 -7.173738 14.885331 -42.444182
2716 3 1 -7.582173 14.010965 -42.706220
2717 3 1 -7.130134 14.610475 -42.045729
2718 3 1 -6.680739 14.635493 -42.938711
2719 3 1 -6.974779 15.320470 -43.605305
2720 3 1 -6.665987 15.598898 -44.514769
2721 3 1 -5.980205 15.007917 -44.089982
2722 3 1 -6.046143 14.819994 -45.069950
2723 3 1 -6.748618 15.466510 -45.367518
2724 3 1 -7.214394 14.762677 -45.903868
2725 3 1 -7.985347 15.398962 -45.876067
2726 3 1 -8.487696 14.776826 -45.275573
2727 3 1 -8.996213 15.108162 -44.480824
2728 3 1 -8.451365 15.407789 -45.263999
2729 3 1 -7.980877 15.610158 -44.405112
2730 3 1 -8.263421 15.388949 -43.471711
2731 3 1 -8.730196 16.222333 -43.175753
2732 3 1 -9.707216 16.075446 -43.330208
2733 3 1 -10.273886 15.254335 -43.261935
2734 3 1 -10.939333 14.833473 -43.878421
2735 3 1 -11.105613 15.370811 -43.051609
2736 3 1 -10.224248 14.924050 -43.205233
2737 3 1 -9.784208 15.821869 -43.222105
2738 3 1 -10.626402 16.068225 -42.742504
2739 3 1 -10.916486 16.977357 -43.041385
2740 3 1 -10.878550 17.229818 -42.074521
2741 3 1 -11.612151 17.623369 -41.520493
2742 3 1 -11.657259 18.501420 -41.996929
2743 3 1 -12.293902 17.820649 -42.359194
2744 3 1 -13.169500 18.300166 -42.300969
2745 3 1 -13.809682 19.055584 -42.161285
2746 3 1 -14.472511 18.308475 -42.111418
2747 3 1 -13.670486 18.162911 -41.532137
2748 3 1 -12.772798 18.579430 -41.675902
2749 3 1 -13.411245 18.271045 -40.970718
2750 3 1 -13.330442 17.338671 -41.323068
2751 3 1 -13.442004 18.247379 -41.725317
2752 3 1 -12.474835 18.391146 -41.515759
2753 3 1 -13.355751 18.780348 -41.246485
2754 3 1 -12.612460 18.164447 -40.985364
2755 3 1 -13.111914 17.843103 -40.180825
2756 3 1 -13.440729 17.264091 -39.434752
2757 3 1 -13.490516 18.261954 -39.392449
2758 3 1 -12.963017 18.105402 -38.557442
2759 3 1 -12.934606 19.076660 -38.793767
2760 3 1 -12.588713 19.613566 -39.563241
2761 3 1 -12.851328 19.215897 -40.442385
2762 3 1 -12.744395 18.309401 -40.850833
2763 3 1 -13.706185 18.555194 -40.971434
2764 3 1 -13.054982 19.306645 -40.865342
2765 3 1 -13.740854 19.818500 -41.382629
2766 3 1 -13.948851 19.844072 -40.404834
2767 3 1 -13.053686 20.264722 -40.552258
2768 3 1 -12.522746 20.985310 -40.998189
2769 3 1 -12.295719 20.264493 -41.653080
2770 3 1 -12.103426 20.527452 -42.598530
2771 3 1 -12.038372 19.534159 -42.694109
2772 3 1 -11.909842 19.265420 -43.648709
2773 3 1 -12.457343 19.597351 -42.880552
2774 3 1 -12.024233 20.058647 -42.106199
2775 3 1 -12.289102 20.871091 -42.625602
2776 3 1 -11.502768 21.319601 -43.050476
2777 3 1 -11.008578 22.020422 -43.564894
2778 3 1 -10.831255 22.448978 -42.678950
2779 3 1 -11.095403 23.274317 -43.177991
2780 3 1 -11.534996 24.053875 -42.731846
2781 3 1 -11.927618 24.922030 -42.428273
2782 3 1 -11.833767 24.830745 -43.419666
2783 3 1 -11.778324 25.829202 -43.422616
2784 3 1 -11.303766 25.794539 -42.543074
2785 3 1 -12.244417 25.968159 -42.834677
2786 3 1 -12.069251 26.464330 -41.984306
2787 3 1 -11.593740 27.159026 -42.524015
2788 3 1 -11.512427 26.176920 -42.354145
2789 3 1 -12.335101 26.733609 -42.238802
2790 3 1 -12.698510 25.848129 -41.949215
2791 3 1 -13.067553 24.955653 -41.689807
2792 3 1 -13.690413 25.312699 -42.385913
2793 3 1 -14.151983 26.168938 -42.153944
2794 3 1 -13.173962 25.962391 -42.182486
2795 3 1 -13.177782 26.908278 -41.858012
2796 3 1 -12.381768 26.606076 -41.333574
2797 3 1 -11.385588 26.652848 -41.259836
2798 3 1 -10.657969 27.181772 -40.823018
2799 3 1 -9.781980 27.153044 -41.304492
2800 3 1 -10.767640 27.131142 -41.137180
2801 3 1 -10.304149 26.484609 -41.743127
2802 3 1 -10.441774 26.297449 -42.715768
2803 3 1 -10.661480 27.220455 -43.031663
2804 3 1 -9.755741 27.501155 -43.349225
2805 3 1 -9.843894 26.944254 -42.523337
2806 3 1 -10.200130 26.544651 -41.678699
2807 3 1 -10.651147 25.661847 -41.810001
2808 3 1 -10.157252 26.159122 -42.523293
2809 3 1 -11.108903 26.387188 -42.729077
2810 3 1 -11.535375 27.227858 -42.395319
2811 3 1 -12.030683 27.738706 -43.097960
2812 3 1 -12.319390 28.684786 -43.244868
2813 3 1 -11.578716 28.250448 -43.757462
2814 3 1 -12.138610 27.679285 -43.157218
2815 3 1 -11.209340 27.960447 -42.917621
2816 3 1 -11.558512 27.915612 -41.981635
2817 3 1 -10.603821 28.173161 -41.832529
2818 3 1 -9.779534 28.284899 -42.387567
2819 3 1 -10.658285 28.020802 -42.785121
2820 3 1 -11.426494 27.437833 -42.520543
2821 3 1 -10.675910 28.076053 -42.691715
2822 3 1 -11.572330 28.022604 -42.251742
2823 3 1 -11.919237 28.820094 -42.745367
2824 3 1 -12.818619 29.083699 -42.396621
2825 3 1 -12.924649 29.737618 -41.647523
2826 3 1 -13.820761 29.886323 -42.065700
2827 3 1 -13.204343 30.125680 -41.315542
2828 3 1 -13.558248 29.291995 -40.891608
2829 3 1 -12.648546 29.462013 -41.270471
2830 3 1 -12.656229 29.290911 -40.285248
2831 3 1 -12.249178 28.552217 -39.747995
2832 3 1 -12.750069 28.924385 -40.529403
2833 3 1 -13.049572 29.093931 -41.468313
2834 3 1 -13.664849 28.743238 -40.762304
2835 3 1 -13.023159 28.819284 -39.999120
2836 3 1 -12.417316 28.446363 -40.701889
2837 3 1 -11.612380 28.056899 -40.254233
2838 3 1 -12.396662 28.041311 -40.874442
2839 3 1 -11.787718 28.735967 -40.491504
2840 3 1 -11.003940 28.283717 -40.065873
2841 3 1 -10.477735 27.623616 -39.529801
2842 3 1 -9.963772 28.432220 -39.816159
2843 3 1 -9.963703 29.384059 -39.509562
2844 3 1 -9.605672 28.647347 -38.935916
2845 3 1 -9.992257 29.219481 -39.659252
2846 3 1 -10.719159 29.604286 -39.090447
2847 3 1 -11.071868 28.862397 -38.520187
2848 3 1 -10.471794 28.391364 -39.166746
2849 3 1 -10.779892 28.345005 -40.116970
2850 3 1 -11.470613 28.834876 -40.648883
2851 3 1 -11.847874 29.586516 -40.107855
2852 3 1 -10.849713 29.609808 -40.163813
2853 3 1 -10.996570 29.048612 -40.978363
2854 3 1 -11.037745 28.315134 -40.299898
2855 3 1 -10.580961 27.654373 -40.895501
2856 3 1 -10.456364 28.317641 -40.157565
2857 3 1 -10.840163 28.396823 -39.237549
2858 3 1 -11.216104 27.890731 -38.461315
2859 3 1 -11.520230 27.358246 -37.671399
2860 3 1 -11.944660 26.963307 -36.856609
2861 3 1 -11.086034 27.441241 -36.671296
2862 3 1 -10.464365 28.069603 -36.203655
2863 3 1 -11.241836 28.268129 -36.800419
2864 3 1 -12.177727 28.620102 -36.815334
2865 3 1 -11.555745 28.731070 -36.040205
2866 3 1 -10.777378 28.330430 -35.556849
2867 3 1 -9.798571 28.169469 -35.683449
2868 3 1 -9.799799 28.856369 -36.410200
2869 3 1 -10.618239 29.073523 -35.878223
2870 3 1 -9.785088 28.862816 -35.366889
2871 3 1 -8.869759 29.169827 -35.106282
2872 3 1 -9.539970 28.595505 -34.636207
2873 3 1 -9.268012 28.489358 -33.679770
2874 3 1 -8.459191 29.067280 -33.788460
2875 3 1 -7.631446 29.538578 -33.483965
2876 3 1 -8.090422 30.266780 -33.992947
2877 3 1 -7.810517 29.697994 -34.766339
2878 3 1 -8.801767 29.766478 -34.653498
2879 3 1 -9.022898 29.465729 -35.581212
2880 3 1 -9.042300 29.287980 -36.565096
2881 3 1 -9.418026 29.022187 -37.452894
2882 3 1 -8.995366 28.509867 -36.705307
2883 3 1 -8.437518 28.272048 -35.910167
2884 3 1 -7.770916 29.009686 -35.802779
2885 3 1 -8.189469 28.109363 -35.683483
2886 3 1 -8.244159 27.833736 -34.723775
2887 3 1 -7.928975 26.888227 -34.805459
2888 3 1 -7.544611 25.979508 -34.642688
2889 3 1 -7.759669 25.040171 -34.375486
2890 3 1 -7.505908 24.087347 -34.208961
2891 3 1 -7.826070 23.901722 -35.137960
2892 3 1 -8.282937 24.726518 -34.804817
2893 3 1 -8.467594 24.844637 -35.780496
2894 3 1 -8.590628 23.898299 -35.481651
2895 3 1 -9.396957 24.048428 -34.909556
2896 3 1 -10.057022 24.482102 -34.296171
2897 3 1 -10.340834 23.723655 -33.709478
2898 3 1 -10.261935 23.504780 -32.736920
2899 3 1 -10.952988 23.084391 -33.324900
2900 3 1 -11.802892 22.979674 -33.841327
2901 3 1 -11.093297 22.661167 -33.212814
2902 3 1 -12.036077 22.334842 -33.144420
2903 3 1 -12.725078 22.897679 -33.601031
2904 3 1 -13.257045 23.493598 -34.202605
2905 3 1 -12.827325 24.216855 -33.662013
2906 3 1 -12.093024 24.020717 -33.012141
2907 3 1 -12.388467 23.069298 -33.098834
2908 3 1 -11.693506 22.726644 -32.466680
2909 3 1 -12.490781 23.253647 -32.172368
2910 3 1 -12.670194 22.313348 -31.883149
2911 3 1 -12.161904 22.709073 -31.118268
2912 3 1 -12.497891 23.565191 -30.725616
2913 3 1 -12.820480 24.511588 -30.709230
2914 3 1 -12.449202 25.177712 -31.356093
2915 3 1 -13.058460 25.079223 -32.142925
2916 3 1 -13.160209 25.857834 -32.762127
2917 3 1 -13.058276 25.319681 -31.925467
2918 3 1 -13.779126 24.634649 -32.030853
2919 3 1 -13.067487 24.292684 -32.644555
2920 3 1 -13.740531 24.741538 -32.056727
2921 3 1 -13.805525 24.890349 -33.043455
2922 3 1 -13.355333 24.632582 -33.898372
2923 3 1 -12.711089 25.310693 -34.252088
2924 3 1 -12.634232 24.440826 -34.739350
2925 3 1 -12.006552 23.842949 -35.237909
2926 3 1 -11.615056 22.966474 -35.518126
2927 3 1 -11.083722 22.558109 -36.260367
2928 3 1 -11.819808 22.648646 -36.931174
2929 3 1 -11.115333 21.963214 -37.115290
2930 3 1 -10.438705 21.618843 -37.766122
2931 3 1 -10.637389 22.263375 -38.504434
2932 3 1 -11.314416 22.502928 -39.200314
2933 3 1 -12.078809 22.838914 -38.650026
2934 3 1 -12.279465 22.307429 -37.827067
2935 3 1 -13.191649 22.265943 -38.234743
2936 3 1 -12.636535 22.542127 -39.019326
2937 3 1 -11.803767 23.095693 -39.027247
2938 3 1 -12.039117 23.029356 -39.996891
2939 3 1 -12.415119 22.630243 -39.160631
2940 3 1 -12.814053 21.840501 -38.694627
2941 3 1 -11.957985 22.344910 -38.807401
2942 3 1 -12.265671 23.296341 -38.797030
2943 3 1 -12.825985 23.396344 -39.619251
2944 3 1 -13.444867 24.158699 -39.808464
2945 3 1 -13.673988 24.677853 -38.985066
2946 3 1 -14.257980 23.989563 -39.415427
2947 3 1 -15.047478 24.323706 -38.900605
2948 3 1 -15.100373 23.767799 -39.730165
2949 3 1 -15.282967 22.905768 -39.257343
2950 3 1 -16.159736 22.515994 -39.539042
2951 3 1 -15.412468 23.083067 -39.192603
2952 3 1 -15.310588 23.429418 -40.125159
2953 3 1 -14.800206 23.284367 -39.277533
2954 3 1 -14.251921 24.015925 -39.682757
2955 3 1 -13.278098 24.217053 -39.576856
2956 3 1 -13.526620 24.395703 -40.528865
2957 3 1 -12.593861 24.756163 -40.534340
2958 3 1 -11.716490 25.116877 -40.217946
2959 3 1 -12.077927 25.427257 -41.097166
2960 3 1 -12.951387 25.600008 -41.552386
2961 3 1 -13.535854 25.541238 -42.361672
2962 3 1 -12.730507 25.119069 -42.777831
2963 3 1 -12.208560 24.647799 -43.488799
2964 3 1 -12.174382 24.432717 -42.512801
2965 3 1 -12.190897 23.436921 -42.422707
2966 3 1 -12.357798 24.390494 -42.172021
2967 3 1 -13.166266 23.803662 -42.127207
2968 3 1 -13.865908 24.252538 -41.571319
2969 3 1 -14.648236 24.436915 -40.976367
2970 3 1 -15.230251 23.731024 -40.572662
2971 3 1 -14.951594 24.188834 -39.728411
2972 3 1 -15.017655 23.227027 -39.462771
2973 3 1 -15.578682 23.624144 -38.736446
2974 3 1 -15.335134 24.587821 -38.626853
2975 3 1 -15.177881 24.065644 -37.788639
2976 3 1 -15.813444 23.697821 -38.467436
2977 3 1 -15.914302 23.504800 -39.443434
2978 3 1 -14.956754 23.756587 -39.583811
2979 3 1 -14.942202 24.528465 -38.948208
2980 3 1 -14.816308 24.874544 -39.877929
2981 3 1 -14.055968 24.707761 -40.505676
2982 3 1 -14.561659 24.756411 -41.367018
2983 3 1 -14.256791 24.067059 -40.709866
2984 3 1 -15.204173 24.276358 -40.952066
2985 3 1 -15.790136 24.882857 -40.414659
2986 3 1 -16.334899 24.700063 -39.596233
2987 3 1 -16.274983 24.145731 -40.426370
2988 3 1 -16.894418 24.554440 -39.756102
2989 3 1 -17.186750 23.804061 -40.348954
2990 3 1 -18.165421 24.003536 -40.398072
2991 3 1 -17.796377 24.807984 -39.932594
2992 3 1 -18.117591 24.531855 -40.838449
2993 3 1 -18.893377 25.160729 -40.786735
2994 3 1 -19.476141 25.361346 -41.574224
2995 3 1 -19.885150 25.326913 -42.486104
2996 3 1 -20.472272 25.877005 -43.079978
2997 3 1 -20.035832 25.013414 -43.332424
2998 3 1 -19.353614 24.493454 -43.846449
2999 3 1 -19.573750 23.525047 -43.729279
3000 3 1 -18.670958 23.952743 -43.684080
3001 4 1 29.595358 -41.056748 45.085717
3002 4 1 29.363931 -41.057565 44.112866
3003 4 1 28.594720 -41.616534 44.422490
3004 4 1 28.020702 -41.063451 43.818667
3005 4 1 27.398230 -40.621093 43.173029
3006 4 1 27.791053 -41.539351 43.123101
3007 4 1 27.015957 -42.152205 43.276842
3008 4 1 26.302153 -41.478611 43.085125
3009 4 1 27.258390 -41.188644 43.124244
3010 4 1 26.557277 -40.513487 43.353599
3011 4 1 26.954263 -41.122800 42.667203
3012 4 1 26.422391 -40.682545 43.390589
3013 4 1 26.909120 -41.546469 43.261247
3014 4 1 27.864856 -41.808960 43.394170
3015 4 1 28.331846 -42.096866 44.230250
3016 4 1 28.604650 -42.122036 45.191991
3017 4 1 29.042379 -42.688201 45.890454
3018 4 1 29.098748 -42.966308 44.931559
3019 4 1 29.713513 -43.079802 44.151058
3020 4 1 29.080553 -42.358455 43.869953
3021 4 1 28.887722 -41.382862 43.974999
3022 4 1 29.868628 -41.281756 43.808861
3023 4 1 29.028693 -40.767536 43.982319
3024 4 1 28.565488 -40.852567 44.864482
3025 4 1 28.868206 -40.864961 43.911483
3026 4 1 28.301425 -40.441518 44.618204
3027 4 1 28.414468 -39.752656 43.902179
3028 4 1 28.032681 -39.517398 44.795987
3029 4 1 27.687102 -38.939073 44.056991
3030 4 1 28.317952 -38.197205 43.829704
3031 4 1 28.597025 -37.536328 43.133027
3032 4 1 28.051285 -38.121221 43.733083
3033 4 1 28.628788 -38.755902 43.219594
3034 4 1 29.270405 -39.480615 42.968359
3035 4 1 29.879312 -39.469725 43.761526
3036 4 1 29.959887 -39.658674 42.782851
3037 4 1 29.196108 -39.800759 42.153205
3038 4 1 29.867886 -39.159907 42.524720
3039 4 1 30.239944 -38.452920 41.923270
3040 4 1 30.044076 -37.524059 41.608860
3041 4 1 29.920458 -36.623267 42.025145
3042 4 1 29.272838 -35.967444 41.637222
3043 4 1 29.381259 -35.665669 40.690028
3044 4 1 30.296820 -35.315022 40.886994
3045 4 1 31.022321 -35.558882 41.530562
3046 4 1 31.260829 -36.409071 41.061207
3047 4 1 31.871005 -37.122297 41.406161
3048 4 1 31.766646 -36.763725 40.478510
3049 4 1 32.116548 -36.831696 41.412827
3050 4 1 32.630936 -36.710427 42.261767
3051 4 1 32.915729 -37.083878 43.144619
3052 4 1 32.899279 -37.792217 43.850300
3053 4 1 32.097149 -37.232543 43.642089
3054 4 1 32.138345 -37.262901 44.640779
3055 4 1 31.380066 -37.836260 44.951054
3056 4 1 30.445760 -38.014233 44.642188
3057 4 1 30.099031 -38.623404 43.928964
3058 4 1 29.818336 -39.321827 43.270621
3059 4 1 30.771219 -39.350120 43.572635
3060 4 1 31.059278 -38.394344 43.631911
3061 4 1 32.027302 -38.267334 43.848241
3062 4 1 31.216998 -37.707724 43.674332
3063 4 1 30.963819 -36.849853 44.121497
3064 4 1 30.906247 -36.063031 43.507008
3065 4 1 30.240407 -36.184626 42.770889
3066 4 1 30.112407 -35.559781 43.541074
3067 4 1 29.454421 -35.366589 42.813248
3068 4 1 29.637940 -34.488688 42.370969
3069 4 1 30.133322 -34.411918 43.236245
3070 4 1 29.768404 -34.942676 44.001184
3071 4 1 30.447482 -34.490500 43.422918
3072 4 1 30.547945 -34.796069 44.369774
3073 4 1 31.092945 -35.316878 43.712709
3074 4 1 30.160964 -35.678931 43.730845
3075 4 1 30.525564 -34.807533 43.402620
3076 4 1 31.083700 -35.637195 43.390523
3077 4 1 31.883748 -36.126137 43.738171
3078 4 1 32.730807 -36.585378 44.005730
3079 4 1 33.317089 -37.137409 44.598634
3080 4 1 33.289585 -38.084800 44.917530
3081 4 1 34.152035 -38.179792 45.414679
3082 4 1 35.046881 -37.925587 45.781599
3083 4 1 35.777133 -37.247344 45.863561
3084 4 1 34.954739 -37.802170 45.737721
3085 4 1 35.489646 -37.540087 46.540956
3086 4 1 36.198824 -36.876996 46.301422
3087 4 1 36.914266 -37.529592 46.550944
3088 4 1 36.899457 -37.880405 47.487272
3089 4 1 37.718402 -37.340234 47.293509
3090 4 1 37.278956 -37.744464 46.491334
3091 4 1 36.664663 -37.530487 47.250846
3092 4 1 37.220543 -36.700374 47.294538
3093 4 1 36.887251 -36.270427 46.455453
3094 4 1 37.361151 -35.805679 47.203402
3095 4 1 36.750017 -36.142963 46.487334
3096 4 1 36.268905 -36.946993 46.836715
3097 4 1 36.228812 -36.935097 45.837590
3098 4 1 36.364685 -35.954450 45.978546
3099 4 1 36.891850 -36.493835 46.635175
3100 4 1 36.783308 -35.501421 46.692910
3101 4 1 36.584279 -36.165240 45.971986
3102 4 1 37.217785 -35.392403 46.009300
3103 4 1 37.171136 -36.153297 46.656498
3104 4 1 38.110679 -35.891972 46.435214
3105 4 1 38.661994 -35.474103 45.713107
3106 4 1 38.476011 -34.562854 46.080580
3107 4 1 38.584366 -34.042376 45.233608
3108 4 1 37.633226 -33.972593 45.534378
3109 4 1 38.596312 -33.927841 45.799826
3110 4 1 39.570158 -34.150834 45.756279
3111 4 1 39.937276 -33.414780 46.325004
3112 4 1 40.447576 -33.985683 45.681837
3113 4 1 40.491060 -34.617951 46.455365
3114 4 1 39.910121 -34.992248 47.178145
3115 4 1 40.458817 -34.169121 47.324413
3116 4 1 39.545096 -34.178510 46.918178
3117 4 1 38.730918 -34.262757 47.492648
3118 4 1 38.059654 -34.777506 46.959321
3119 4 1 38.457469 -35.655996 47.223894
3120 4 1 38.708563 -35.645322 46.255990
3121 4 1 38.630875 -34.660255 46.409635
3122 4 1 38.430432 -34.046641 45.645894
3123 4 1 38.852388 -34.051212 46.552499
3124 4 1 39.788102 -33.771707 46.767710
3125 4 1 39.155212 -34.478058 47.084756
3126 4 1 38.320570 -34.051543 47.433262
3127 4 1 38.979878 -33.310295 47.307307
3128 4 1 39.108915 -33.204014 46.321379
3129 4 1 38.165576 -33.244364 46.650749
3130 4 1 38.832228 -33.732762 47.213815
3131 4 1 38.828466 -32.735657 47.137872
3132 4 1 38.529361 -33.245275 46.331135
3133 4 1 38.751190 -34.217201 46.252699
3134 4 1 39.679923 -34.320765 46.608688
3135 4 1 40.643270 -34.117492 46.783743
3136 4 1 40.575617 -33.374270 47.449358
3137 4 1 39.788459 -32.775329 47.302212
3138 4 1 40.784301 -32.684551 47.294587
3139 4 1 40.963813 -31.810150 46.843812
3140 4 1 41.193323 -32.558503 47.466141
3141 4 1 41.938132 -33.042881 47.007189
3142 4 1 42.778381 -33.371797 46.576149
3143 4 1 42.351058 -32.742105 47.224904
3144 4 1 43.218282 -32.361431 46.903952
3145 4 1 43.550468 -31.818479 46.132684
3146 4 1 43.218792 -31.815314 47.076072
3147 4 1 42.303562 -31.499395 47.326170
3148 4 1 42.624383 -30.960626 46.547195
3149 4 1 41.839886 -30.732993 45.970352
3150 4 1 42.204065 -30.250054 46.766682
3151 4 1 41.423900 -29.962623 47.322313
3152 4 1 41.840061 -29.232717 46.780053
3153 4 1 40.941096 -29.670591 46.768725
3154 4 1 41.709068 -29.039206 46.876297
3155 4 1 42.521850 -28.743869 46.374141
3156 4 1 43.130062 -29.312023 45.819814
3157 4 1 42.478052 -30.059902 45.695073
3158 4 1 42.517593 -30.790822 45.013755
3159 4 1 43.397130 -30.384924 44.765437
3160 4 1 42.764343 -30.340437 43.992391
3161 4 1 42.054981 -29.761566 44.394528
3162 4 1 41.869125 -28.779808 44.354426
3163 4 1 42.646990 -28.178886 44.538328
3164 4 1 42.742756 -27.330794 45.059450
3165 4 1 42.116043 -27.102497 44.314392
3166 4 1 41.466570 -26.761812 43.634599
3167 4 1 42.341819 -26.958451 44.076496
3168 4 1 42.560055 -26.439804 44.903162
3169 4 1 41.579596 -26.423824 45.099238
3170 4 1 42.441037 -25.938890 44.948378
3171 4 1 41.846924 -26.643687 44.560705
3172 4 1 42.011806 -26.493291 45.535485
3173 4 1 42.241980 -25.962302 44.719966
3174 4 1 42.673660 -26.533559 44.021884
3175 4 1 43.672664 -26.489582 44.014424
3176 4 1 43.709430 -27.124980 43.243115
3177 4 1 44.706952 -27.061530 43.273521
3178 4 1 45.258237 -27.791436 42.869389
3179 4 1 44.369912 -27.343113 42.769962
3180 4 1 44.869666 -26.606648 42.314041
3181 4 1 45.183562 -26.753085 43.252138
3182 4 1 45.419990 -25.852158 42.888225
3183 4 1 46.119640 -26.204497 42.266656
3184 4 1 45.130067 -26.201538 42.122655
3185 4 1 45.392433 -27.166197 42.147092
3186 4 1 45.398877 -27.633833 43.030989
3187 4 1 46.355049 -27.491881 43.287084
3188 4 1 46.913845 -26.881704 42.725450
3189 4 1 47.102040 -25.900793 42.676517
3190 4 1 46.909826 -26.809983 42.307159
3191 4 1 46.036568 -26.790550 42.794030
3192 4 1 46.846465 -26.285337 43.092068
3193 4 1 46.923951 -26.754506 42.212366
3194 4 1 46.911994 -27.253153 43.079089
3195 4 1 46.812728 -28.211500 43.346890
3196 4 1 46.870355 -28.078853 42.357404
3197 4 1 47.128768 -27.282803 42.904695
3198 4 1 46.990626 -26.751465 43.740515
3199 4 1 46.867361 -25.928676 44.295335
3200 4 1 46.108056 -26.291915 43.755415
3201 4 1 46.824593 -26.446246 43.075153
3202 4 1 46.672133 -27.426605 43.200260
3203 4 1 47.263888 -28.192270 43.452416
3204 4 1 46.689749 -27.373792 43.431007
3205 4 1 46.518936 -26.575270 44.008230
3206 4 1 46.458665 -27.565623 44.133001
3207 4 1 45.856283 -26.784398 44.296778
3208 4 1 45.732530 -26.951141 45.274982
3209 4 1 46.405447 -26.360299 44.829910
3210 4 1 46.252182 -26.230922 43.850231
3211 4 1 46.857337 -26.793839 44.413180
3212 4 1 46.579353 -26.551112 43.483767
3213 4 1 45.731016 -26.802868 43.017995
3214 4 1 44.809106 -27.145613 43.198571
3215 4 1 45.205304 -27.637090 42.423022
3216 4 1 45.111955 -28.296945 41.677450
3217 4 1 44.650028 -27.424261 41.835710
3218 4 1 43.968405 -26.844533 41.389275
3219 4 1 44.011401 -27.564092 42.082374
3220 4 1 44.286012 -26.610406 42.205141
3221 4 1 44.183864 -26.121822 41.338624
3222 4 1 43.524427 -26.862836 41.211971
3223 4 1 43.069496 -27.601449 41.709453
3224 4 1 43.336714 -27.941236 40.807711
3225 4 1 44.284805 -27.822558 40.512685
3226 4 1 44.417674 -27.430712 39.602299
3227 4 1 45.226768 -27.319258 39.025285
3228 4 1 45.857845 -27.575181 39.757573
3229 4 1 45.970308 -27.779720 40.729950
3230 4 1 45.730601 -27.408547 41.627040
3231 4 1 45.390897 -27.968781 42.382513
3232 4 1 45.802275 -28.853498 42.601698
3233 4 1 46.509867 -29.170657 43.233145
3234 4 1 46.116747 -30.007544 42.852257
3235 4 1 46.904225 -30.341982 42.334542
3236 4 1 46.936881 -29.954316 41.413320
3237 4 1 47.475368 -29.264524 40.929358
3238 4 1 47.381408 -28.305324 41.196016
3239 4 1 46.960730 -27.900415 40.384180
3240 4 1 46.650455 -28.168495 41.296244
3241 4 1 47.117432 -28.969793 41.670214
3242 4 1 46.147662 -28.956133 41.913851
3243 4 1 46.667156 -28.178068 42.267039
3244 4 1 45.729812 -28.394477 41.993997
3245 4 1 44.893795 -28.309726 41.451877
3246 4 1 45.111967 -27.601237 42.123029
3247 4 1 46.099382 -27.707054 42.005496
3248 4 1 46.674052 -28.295199 42.574566
3249 4 1 46.029569 -27.640645 42.179344
3250 4 1 46.760006 -27.090114 42.583545
3251 4 1 46.134210 -26.324982 42.432044
3252 4 1 45.446909 -26.067243 43.111152
3253 4 1 44.624215 -25.500853 43.062383
3254 4 1 44.557341 -24.540034 42.793396
3255 4 1 44.364315 -24.076284 41.928712
3256 4 1 44.909235 -24.609432 42.575872
3257 4 1 44.484800 -23.975988 41.928877
3258 4 1 45.471612 -23.815336 41.909053
3259 4 1 45.355331 -22.822120 41.909271
3260 4 1 45.986095 -22.556992 41.179995
3261 4 1 46.954660 -22.547182 41.428563
3262 4 1 47.183049 -22.441142 42.396341
3263 4 1 47.101520 -23.023634 43.205078
3264 4 1 46.617962 -22.164689 43.373555
3265 4 1 46.922926 -21.382388 42.830414
3266 4 1 46.698613 -20.719588 43.544822
3267 4 1 46.097914 -19.954311 43.776152
3268 4 1 46.563148 -19.980681 44.660947
3269 4 1 46.702538 -20.309572 45.594971
3270 4 1 45.887748 -20.534603 45.060670
3271 4 1 45.289393 -21.317157 44.888678
3272 4 1 44.584570 -20.859042 45.430301
3273 4 1 43.885194 -20.401147 44.881479
3274 4 1 44.116613 -20.105054 43.954778
3275 4 1 43.162143 -19.894225 44.165818
3276 4 1 43.175794 -20.494386 43.366055
3277 4 1 42.480917 -20.112758 42.756543
3278 4 1 42.985292 -20.660324 43.424208
3279 4 1 42.190065 -21.209677 43.680773
3280 4 1 41.540929 -21.188660 42.920391
3281 4 1 41.822790 -20.231318 42.856737
3282 4 1 42.157290 -21.077726 42.442366
3283 4 1 41.885921 -20.210638 42.024614
3284 4 1 41.820490 -19.216992 42.116195
3285 4 1 42.306740 -19.910089 42.648339
3286 4 1 42.162185 -19.349134 43.463467
3287 4 1 41.291915 -18.914859 43.231010
3288 4 1 42.221858 -19.274457 43.307792
3289 4 1 41.491951 -19.832799 43.702113
3290 4 1 40.519941 -19.715886 43.498329
3291 4 1 39.581458 -19.984753 43.281624
3292 4 1 40.026823 -20.511068 42.557302
3293 4 1 40.721828 -19.792553 42.530727
3294 4 1 39.869817 -19.569098 42.057286
3295 4 1 40.731641 -19.662683 41.558786
3296 4 1 40.364984 -20.580336 41.405564
3297 4 1 39.476933 -20.516737 41.860888
3298 4 1 39.802559 -21.431669 42.099356
3299 4 1 39.484802 -22.370095 41.963757
3300 4 1 40.317580 -22.278676 41.417750
3301 4 1 39.412691 -22.505841 41.777713
3302 4 1 39.430090 -21.668173 42.323615
3303 4 1 40.280129 -22.092178 42.636110
3304 4 1 40.011682 -21.291391 43.171532
3305 4 1 40.889244 -21.759602 43.274801
3306 4 1 40.040408 -21.294537 43.526183
3307 4 1 40.918702 -21.430662 43.067848
3308 4 1 41.031487 -21.338076 42.078552
3309 4 1 41.747553 -21.723048 42.660828
3310 4 1 42.408169 -20.977389 42.747884
3311 4 1 41.896447 -21.449726 43.465545
3312 4 1 41.216271 -20.945839 42.933136
3313 4 1 40.805953 -20.310797 42.278643
3314 4 1 40.244370 -21.080237 42.582923
3315 4 1 40.131143 -21.997532 42.201152
3316 4 1 39.965729 -21.079091 42.560463
3317 4 1 39.631694 -20.644492 41.724075
3318 4 1 40.483351 -20.747217 41.210140
3319 4 1 41.452962 -20.943776 41.064474
3320 4 1 40.675251 -20.637138 40.515713
3321 4 1 40.252415 -20.128954 41.266019
3322 4 1 40.497357 -21.014400 41.660972
3323 4 1 39.645621 -20.645695 42.033266
3324 4 1 38.838726 -20.055045 42.026123
3325 4 1 38.792567 -20.813784 42.675880
3326 4 1 38.224980 -20.746960 41.855283
3327 4 1 37.709301 -21.264384 41.172386
3328 4 1 37.459751 -20.510407 41.780040
3329 4 1 36.995733 -20.937369 42.556177
3330 4 1 37.869862 -20.963785 42.071203
3331 4 1 37.697162 -21.911435 41.802625
3332 4 1 38.489150 -21.313523 41.679103
3333 4 1 39.160836 -20.821935 41.124866
3334 4 1 38.335011 -21.374027 41.239792
3335 4 1 39.322575 -21.219593 41.210327
3336 4 1 39.174251 -20.624154 41.999917
3337 4 1 39.640371 -21.251180 42.624073
3338 4 1 39.986898 -20.524129 43.216793
3339 4 1 39.120568 -20.678706 42.741841
3340 4 1 39.390213 -21.188212 41.924715
3341 4 1 39.429198 -21.927506 41.252462
3342 4 1 39.255073 -22.911718 41.284184
3343 4 1 38.586292 -23.603802 41.555755
3344 4 1 38.265004 -22.678717 41.758221
3345 4 1 37.740911 -23.096091 41.015842
3346 4 1 37.595122 -22.118144 40.866295
3347 4 1 37.691123 -22.771254 41.617448
3348 4 1 38.013597 -22.194993 40.866493
3349 4 1 37.853511 -22.669427 41.732105
3350 4 1 37.736368 -21.690611 41.900025
3351 4 1 37.434314 -21.145091 42.681799
3352 4 1 37.093310 -22.069572 42.511357
3353 4 1 36.645705 -22.472836 41.713217
3354 4 1 36.216350 -23.374190 41.769930
3355 4 1 36.427423 -22.414315 41.954561
3356 4 1 36.219945 -21.592486 41.423947
3357 4 1 35.398325 -22.129867 41.233782
3358 4 1 35.709372 -21.513601 40.510273
3359 4 1 36.551074 -21.254960 40.984237
3360 4 1 36.113602 -21.381679 40.093978
3361 4 1 36.126725 -21.978600 40.896171
3362 4 1 36.753429 -22.574736 41.398032
3363 4 1 37.231132 -22.741401 42.260599
3364 4 1 36.738204 -23.611102 42.235261
3365 4 1 37.406087 -23.421667 41.515506
3366 4 1 37.027855 -22.651919 41.001278
3367 4 1 36.932261 -23.140712 41.868424
3368 4 1 37.519074 -23.614744 41.211961
3369 4 1 38.313490 -23.008937 41.168364
3370 4 1 38.403052 -23.345746 42.105667
3371 4 1 38.883893 -22.621791 42.600320
3372 4 1 38.149150 -23.192585 42.233786
3373 4 1 38.242708 -23.827455 41.466853
3374 4 1 37.771179 -24.668278 41.201001
3375 4 1 38.519686 -24.051482 40.957485
3376 4 1 38.601700 -24.388733 40.019649
3377 4 1 38.842912 -25.356678 40.089643
3378 4 1 38.575126 -26.282774 40.355421
3379 4 1 39.504443 -26.134193 40.693495
3380 4 1 38.917495 -25.951117 41.482149
3381 4 1 38.513092 -25.275841 40.865333
3382 4 1 39.235803 -25.962042 40.947908
3383 4 1 39.071238 -26.093606 41.925461
3384 4 1 38.702192 -26.024702 42.852314
3385 4 1 38.594710 -26.978396 42.571395
3386 4 1 38.071628 -27.742307 42.949318
3387 4 1 38.042515 -28.537583 42.343770
3388 4 1 37.403470 -28.808623 43.063602
3389 4 1 36.686283 -28.115173 42.994534
3390 4 1 36.472937 -28.556079 42.122705
3391 4 1 36.945083 -28.991643 41.356309
3392 4 1 36.816269 -28.080618 40.964594
3393 4 1 36.640000 -27.372042 40.281331
3394 4 1 36.935607 -26.418801 40.218495
3395 4 1 36.049357 -26.012968 39.995200
3396 4 1 36.992129 -25.704276 40.121254
3397 4 1 36.323491 -24.997637 40.352739
3398 4 1 36.876343 -24.407438 40.940973
3399 4 1 36.950542 -24.498170 39.947865
3400 4 1 36.447879 -24.827419 40.747193
3401 4 1 37.094558 -25.497233 40.382289
3402 4 1 36.204723 -25.157847 40.687268
3403 4 1 36.771846 -25.882113 40.295083
3404 4 1 37.511964 -26.307245 40.816130
3405 4 1 38.139589 -25.534610 40.911645
3406 4 1 38.144063 -24.552340 40.724226
3407 4 1 38.057361 -25.085753 41.565626
3408 4 1 37.940841 -25.519005 42.459335
3409 4 1 38.100053 -26.505627 42.424278
3410 4 1 38.758723 -26.308119 43.150325
3411 4 1 38.113273 -26.158263 42.401368
3412 4 1 38.786958 -26.873802 42.216562
3413 4 1 39.155771 -27.585760 41.618990
3414 4 1 38.900481 -27.124635 42.468808
3415 4 1 38.261459 -27.893571 42.488535
3416 4 1 37.622405 -28.622733 42.733346
3417 4 1 37.324251 -27.817556 42.220711
3418 4 1 38.085675 -27.196839 42.033781
3419 4 1 38.148566 -28.191570 42.114738
3420 4 1 38.163822 -28.730255 42.957107
3421 4 1 37.199935 -28.464068 42.965185
3422 4 1 37.298905 -29.391469 43.325923
3423 4 1 36.761854 -29.274633 44.161343
3424 4 1 36.464143 -30.224081 44.260929
3425 4 1 36.724807 -30.586983 43.366302
3426 4 1 35.875464 -30.491401 43.885417
3427 4 1 35.553468 -29.557080 43.732565
3428 4 1 36.533255 -29.748838 43.789541
3429 4 1 37.109543 -29.339978 44.497161
3430 4 1 37.922907 -29.243849 45.070919
3431 4 1 38.410069 -28.772543 45.806136
3432 4 1 38.716387 -28.386954 46.676476
3433 4 1 38.238277 -27.812766 47.341095
3434 4 1 37.362007 -27.411310 47.074668
3435 4 1 36.830625 -26.822042 46.466065
3436 4 1 37.087262 -27.248164 45.598565
3437 4 1 37.908076 -27.545579 45.110909
3438 4 1 37.793476 -26.775375 44.483492
3439 4 1 38.653724 -27.239443 44.694712
3440 4 1 38.664650 -26.386337 44.173088
3441 4 1 39.487068 -26.514527 43.618834
3442 4 1 39.715704 -25.777760 44.255152
3443 4 1 40.275831 -25.839508 45.081254
3444 4 1 41.015720 -26.472294 44.852898
3445 4 1 40.160557 -26.707527 45.314808
3446 4 1 39.794297 -26.765817 46.243493
3447 4 1 40.067376 -26.322377 45.389802
3448 4 1 39.483401 -26.982522 44.917380
3449 4 1 38.930532 -27.558231 45.519787
3450 4 1 39.667073 -28.062075 45.971062
3451 4 1 38.934860 -27.827793 46.610575
3452 4 1 39.655524 -28.302089 46.104919
3453 4 1 39.529687 -27.362782 46.424087
3454 4 1 39.801978 -26.837002 45.618225
3455 4 1 38.844858 -27.061505 45.435145
3456 4 1 38.962267 -27.016170 46.427193
3457 4 1 38.751679 -27.303233 47.361670
3458 4 1 39.251953 -26.843834 46.627723
3459 4 1 40.114655 -26.639144 47.090160
3460 4 1 40.912854 -26.430680 46.524988
3461 4 1 40.662943 -27.021410 47.292179
3462 4 1 40.972381 -26.482421 46.508764
3463 4 1 40.993225 -27.450539 46.758389
3464 4 1 40.082961 -27.052507 46.644412
3465 4 1 40.475541 -26.227762 47.051446
3466 4 1 40.739026 -25.333423 46.689874
3467 4 1 40.811409 -24.927709 45.778744
3468 4 1 40.586816 -23.967279 45.943460
3469 4 1 41.012692 -23.062589 45.930594
3470 4 1 40.800457 -23.171069 46.901773
3471 4 1 41.777878 -23.380791 46.927543
3472 4 1 42.305428 -24.204437 47.135624
3473 4 1 42.660193 -23.282719 47.292397
3474 4 1 41.975466 -23.559812 46.618328
3475 4 1 42.184456 -22.691513 47.068195
3476 4 1 42.027475 -23.675379 47.154007
3477 4 1 41.322502 -24.345149 47.387292
3478 4 1 42.289491 -24.453926 47.156857
3479 4 1 41.591007 -23.890320 46.715871
3480 4 1 40.635305 -24.096714 46.925717
3481 4 1 40.045702 -24.083732 46.118128
3482 4 1 40.807991 -24.730943 46.123923
3483 4 1 39.986994 -25.177903 46.479156
3484 4 1 39.605002 -25.203471 47.402968
3485 4 1 40.549180 -24.876821 47.445715
3486 4 1 40.747598 -25.618888 46.805428
3487 4 1 39.850447 -25.178363 46.772888
3488 4 1 39.738960 -24.184943 46.799104
3489 4 1 40.593695 -23.678413 46.912485
3490 4 1 40.963814 -24.599838 47.030756
3491 4 1 41.495146 -23.755115 46.966496
3492 4 1 42.337363 -23.240710 46.805072
3493 4 1 41.425622 -23.002942 46.470118
3494 4 1 42.077747 -22.752522 45.754561
3495 4 1 41.833524 -22.439497 46.672368
3496 4 1 40.957286 -22.228191 46.239290
3497 4 1 40.835913 -22.843842 47.017905
3498 4 1 40.546968 -23.798189 46.942191
3499 4 1 39.975283 -23.575191 46.152604
3500 4 1 39.432194 -22.790290 46.450908
3501 4 1 38.888159 -22.365451 45.727350
3502 4 1 38.972800 -21.444902 45.346003
3503 4 1 38.016782 -21.285112 45.100042
3504 4 1 38.968661 -21.317404 44.795274
3505 4 1 38.531945 -22.163501 44.489664
3506 4 1 38.614190 -23.018315 45.002040
3507 4 1 39.312826 -22.478157 44.532852
3508 4 1 38.735303 -21.812833 44.059766
3509 4 1 38.362518 -22.142541 44.927132
3510 4 1 37.582499 -21.655337 45.319818
3511 4 1 38.151887 -21.478337 46.122606
3512 4 1 38.598342 -21.937662 45.354689
3513 4 1 38.720987 -21.121195 45.918904
3514 4 1 39.083858 -20.712398 45.081522
3515 4 1 39.104210 -20.676740 46.080678
3516 4 1 38.563693 -19.837986 46.146514
3517 4 1 39.475711 -20.243039 46.082051
3518 4 1 38.673784 -20.813452 45.904452
3519 4 1 38.001355 -20.376961 46.502210
3520 4 1 38.020235 -20.343805 45.502938
3521 4 1 37.537922 -20.590215 44.662310
3522 4 1 38.155336 -20.135828 44.020178
3523 4 1 37.183753 -20.283026 44.205541
3524 4 1 38.096838 -20.415874 43.820019
3525 4 1 38.341288 -19.970019 44.681099
3526 4 1 37.394651 -20.248766 44.842897
3527 4 1 37.475680 -21.221633 45.059613
3528 4 1 38.394127 -20.847207 44.932101
3529 4 1 37.672576 -21.537130 44.874050
3530 4 1 37.276118 -21.931773 44.045148
3531 4 1 37.711289 -21.045555 43.886265
3532 4 1 38.035218 -21.014566 44.831839
3533 4 1 37.907400 -21.083854 43.842464
3534 4 1 37.738449 -21.717779 43.087750
3535 4 1 38.510436 -21.341865 43.600315
3536 4 1 38.750754 -22.312169 43.572819
3537 4 1 39.466697 -22.987689 43.396468
3538 4 1 39.385210 -21.991238 43.375360
3539 4 1 40.096875 -21.369828 43.047667
3540 4 1 40.213146 -22.290805 42.675802
3541 4 1 40.922914 -21.763881 43.143329
3542 4 1 40.952282 -20.969943 43.750617
3543 4 1 40.977058 -21.431071 44.637605
3544 4 1 41.776498 -21.704269 45.172636
3545 4 1 41.640128 -20.873500 44.632982
3546 4 1 41.669568 -21.339432 45.517313
3547 4 1 42.062631 -21.268615 44.600533
3548 4 1 42.130038 -21.800890 45.444416
3549 4 1 41.918602 -22.777397 45.402848
3550 4 1 41.218826 -22.503776 44.742966
3551 4 1 41.433800 -23.283911 45.330482
3552 4 1 41.414058 -22.318274 45.071341
3553 4 1 42.361338 -22.407122 45.379182
3554 4 1 42.310224 -21.757954 44.620257
3555 4 1 41.443891 -21.473737 44.209541
3556 4 1 40.530953 -21.067360 44.172090
3557 4 1 39.557418 -21.039268 43.945285
3558 4 1 38.778284 -20.537798 44.321420
3559 4 1 39.540645 -20.864671 43.762886
3560 4 1 40.464356 -20.568607 44.005999
3561 4 1 39.739694 -20.957934 44.574586
3562 4 1 38.829482 -21.367121 44.638451
3563 4 1 37.886414 -21.071047 44.486913
3564 4 1 36.889892 -21.139922 44.439997
3565 4 1 36.773634 -20.877283 43.482132
3566 4 1 35.913217 -20.396006 43.649627
3567 4 1 35.947856 -19.416270 43.452350
3568 4 1 35.183799 -18.875026 43.101249
3569 4 1 35.617581 -19.038920 43.987235
3570 4 1 34.949868 -19.350413 44.663350
3571 4 1 34.926541 -18.582561 45.303552
3572 4 1 35.388081 -19.330871 45.780011
3573 4 1 35.408659 -19.023821 44.828540
3574 4 1 35.884475 -18.222609 45.191387
3575 4 1 36.781128 -17.909292 44.878584
3576 4 1 37.722040 -18.193278 44.694091
3577 4 1 37.956367 -17.711240 45.538325
3578 4 1 38.795740 -17.618441 45.002750
3579 4 1 39.067683 -18.300453 44.323849
3580 4 1 38.340088 -17.796572 44.789370
3581 4 1 37.424677 -17.646571 45.162896
3582 4 1 38.108396 -17.008578 44.808648
3583 4 1 38.356329 -17.976721 44.773607
3584 4 1 38.451773 -18.183060 43.799792
3585 4 1 38.324091 -17.223676 43.548238
3586 4 1 38.370840 -16.476395 44.211100
3587 4 1 38.226087 -15.771983 44.905974
3588 4 1 38.817280 -14.967801 44.844480
3589 4 1 39.261160 -14.706413 45.701596
3590 4 1 38.417723 -14.169572 45.681170
3591 4 1 39.186653 -13.531193 45.646248
3592 4 1 39.251543 -13.913746 44.724595
3593 4 1 39.109660 -12.941900 44.536484
3594 4 1 38.333955 -12.921477 43.905719
3595 4 1 38.409616 -12.332681 44.710452
3596 4 1 38.816008 -12.603646 43.837856
3597 4 1 38.803505 -12.872139 44.801056
3598 4 1 39.731382 -13.231686 44.899900
3599 4 1 40.092184 -13.504903 44.008175
3600 4 1 40.629045 -13.271155 43.197532
3601 4 1 41.491809 -13.360748 42.699926
3602 4 1 41.601790 -12.518867 42.171589
3603 4 1 42.096731 -13.283687 42.584001
3604 4 1 41.578291 -13.740236 43.307038
3605 4 1 42.391826 -14.316370 43.228106
3606 4 1 41.810150 -13.503892 43.267256
3607 4 1 41.161476 -12.898241 43.728134
3608 4 1 41.006528 -11.983945 44.102371
3609 4 1 41.595812 -12.689260 44.496422
3610 4 1 41.839748 -12.926544 45.436737
3611 4 1 42.766165 -12.772614 45.093142
3612 4 1 42.293463 -12.830839 45.972439
3613 4 1 41.682713 -13.349915 46.570389
3614 4 1 41.125774 -12.521601 46.509450
3615 4 1 40.518714 -12.895065 47.210879
3616 4 1 40.880670 -13.355188 46.400154
3617 4 1 39.930386 -13.336075 46.710952
3618 4 1 40.561126 -12.685514 47.133962
3619 4 1 39.682422 -13.029728 47.464715
3620 4 1 39.208316 -12.758153 46.627176
3621 4 1 39.230296 -11.871723 47.089518
3622 4 1 38.471663 -12.104806 46.481119
3623 4 1 37.621592 -11.578142 46.479179
3624 4 1 38.562477 -11.311108 46.687576
3625 4 1 38.154194 -11.906247 47.379757
3626 4 1 38.906318 -11.724332 46.746340
3627 4 1 39.834257 -12.093537 46.797491
3628 4 1 40.717444 -12.382010 46.427673
3629 4 1 40.211951 -11.915055 47.153229
3630 4 1 41.038871 -11.402838 46.921200
3631 4 1 40.199344 -11.750405 47.338803
3632 4 1 40.926228 -11.064137 47.364809
3633 4 1 41.281856 -11.201136 46.440276
3634 4 1 40.998313 -10.445531 47.030754
3635 4 1 41.483628 -10.510218 46.158811
3636 4 1 40.946761 -9.772094 45.750219
3637 4 1 41.173183 -9.871404 46.719172
3638 4 1 40.992105 -8.994453 46.274011
3639 4 1 41.380813 -8.130451 46.594021
3640 4 1 40.742951 -7.448364 46.951637
3641 4 1 40.297987 -6.974548 46.191699
3642 4 1 40.501744 -6.064334 45.831153
3643 4 1 40.631840 -5.781717 46.781523
3644 4 1 41.575455 -5.565930 47.032573
3645 4 1 41.073851 -6.111693 46.361354
3646 4 1 40.573236 -5.277429 46.130297
3647 4 1 39.862185 -5.973626 46.031730
3648 4 1 40.206081 -6.442756 45.218310
3649 4 1 40.320608 -5.786099 44.472867
3650 4 1 40.169116 -6.409467 45.239981
3651 4 1 39.517430 -7.158905 45.356806
3652 4 1 39.190904 -6.567060 44.619852
3653 4 1 39.302662 -6.250988 45.561982
3654 4 1 40.201716 -6.291843 45.126055
3655 4 1 40.528013 -6.906098 45.844541
3656 4 1 40.674650 -6.854172 44.856715
3657 4 1 39.750093 -7.230953 44.799877
3658 4 1 38.783896 -7.477216 44.876148
3659 4 1 38.188967 -6.693382 45.054090
3660 4 1 39.060592 -7.123597 45.289004
3661 4 1 38.147186 -7.405570 45.582571
3662 4 1 37.833200 -7.792122 44.715397
3663 4 1 38.633033 -7.193264 44.674966
3664 4 1 38.826509 -7.235786 43.694783
3665 4 1 39.078821 -7.795242 42.905259
3666 4 1 39.766324 -7.814057 42.179321
3667 4 1 40.618860 -7.986784 42.672625
3668 4 1 40.156501 -7.321147 43.258416
3669 4 1 39.737700 -6.417371 43.346704
3670 4 1 38.923044 -6.113142 42.852962
3671 4 1 39.134677 -5.161220 42.631478
3672 4 1 39.005783 -4.277868 43.082119
3673 4 1 39.919165 -4.684972 43.081928
3674 4 1 38.951485 -4.919516 42.989276
3675 4 1 39.320123 -4.636835 42.103726
3676 4 1 38.979336 -5.571862 42.005807
3677 4 1 39.827771 -5.526878 41.478423
3678 4 1 39.839010 -5.737052 40.500824
3679 4 1 39.035857 -5.998888 41.035975
3680 4 1 38.650245 -6.433645 40.222163
3681 4 1 38.556006 -7.032915 41.017144
3682 4 1 38.536866 -7.967558 41.372217
3683 4 1 39.011336 -8.847807 41.365931
3684 4 1 38.527449 -9.514305 40.798803
3685 4 1 38.338013 -9.397637 41.773740
3686 4 1 38.533243 -8.783878 42.538714
3687 4 1 38.006404 -9.416304 41.970842
3688 4 1 38.665237 -10.140517 42.174444
3689 4 1 38.343683 -9.332562 41.680673
3690 4 1 37.645881 -9.653962 41.040537
3691 4 1 38.119872 -9.048041 41.679436
3692 4 1 39.004546 -9.513516 41.705612
3693 4 1 38.515638 -10.346932 41.963270
3694 4 1 39.182233 -10.663158 42.638290
3695 4 1 39.360306 -11.050820 41.733852
3696 4 1 40.320690 -10.938476 41.478819
3697 4 1 39.504324 -11.189763 40.958818
3698 4 1 39.544575 -12.184129 41.056879
3699 4 1 40.048767 -11.779725 40.293827
3700 4 1 40.091352 -11.573038 41.271307
3701 4 1 40.731378 -10.819686 41.120218
3702 4 1 41.585435 -11.043691 40.650743
3703 4 1 40.611740 -10.875102 40.497461
3704 4 1 39.843710 -10.270169 40.287256
3705 4 1 40.509838 -9.694254 39.813340
3706 4 1 40.638994 -8.980003 39.125471
3707 4 1 39.855648 -8.420890 39.397062
3708 4 1 39.413573 -7.851149 38.704268
3709 4 1 39.650948 -6.880171 38.675016
3710 4 1 39.897339 -7.168206 37.749636
3711 4 1 39.157702 -6.496310 37.788283
3712 4 1 39.107937 -6.792921 38.741984
3713 4 1 38.299769 -6.387099 39.168802
3714 4 1 37.580819 -5.778448 39.504443
3715 4 1 37.889909 -6.499484 40.124581
3716 4 1 37.176226 -6.590714 40.819084
3717 4 1 37.983613 -7.111004 41.097335
3718 4 1 38.010428 -7.889421 40.470159
3719 4 1 37.362312 -7.945221 41.229653
3720 4 1 36.929991 -8.639306 41.805278
3721 4 1 36.051952 -8.874259 41.388331
3722 4 1 36.341025 -9.567452 42.048574
3723 4 1 36.139971 -10.005917 42.924545
3724 4 1 36.179221 -9.680264 41.979871
3725 4 1 35.600893 -10.084972 42.688213
3726 4 1 34.766054 -9.651273 42.349173
3727 4 1 34.078724 -8.974979 42.614134
3728 4 1 33.489626 -8.622858 41.886828
3729 4 1 33.701927 -8.671496 42.862821
3730 4 1 33.925442 -7.730774 43.117934
3731 4 1 33.689718 -7.309238 42.242296
3732 4 1 33.060976 -7.370749 43.017474
3733 4 1 33.405861 -7.889600 42.235266
3734 4 1 33.540577 -8.691420 41.653084
3735 4 1 33.094511 -9.366205 41.065130
3736 4 1 32.862631 -8.594513 40.472911
3737 4 1 32.844868 -7.934604 41.224047
3738 4 1 32.666141 -8.906019 41.067817
3739 4 1 31.881424 -8.977656 41.683517
3740 4 1 32.051450 -9.950434 41.840979
3741 4 1 32.609995 -10.390135 42.544321
3742 4 1 33.465480 -10.674030 42.111251
3743 4 1 33.022913 -10.321205 41.286843
3744 4 1 33.614928 -11.127015 41.300568
3745 4 1 33.165891 -11.244338 40.414790
3746 4 1 32.654191 -10.409533 40.211657
3747 4 1 33.525494 -9.929228 40.312352
3748 4 1 33.798775 -10.022589 41.269744
3749 4 1 33.603757 -10.577684 42.078346
3750 4 1 33.536693 -9.997841 41.266383
3751 4 1 33.458855 -9.291016 41.969476
3752 4 1 32.750150 -9.390704 41.271050
3753 4 1 33.078619 -9.838925 40.439662
3754 4 1 32.658797 -10.271375 41.237620
3755 4 1 32.132969 -9.722836 40.587536
3756 4 1 32.350022 -8.935737 41.164912
3757 4 1 33.160522 -8.377504 40.987527
3758 4 1 33.777589 -8.256614 40.209959
3759 4 1 34.555639 -8.640342 39.712573
3760 4 1 34.101201 -7.820758 39.363618
3761 4 1 34.247933 -8.362607 40.191187
3762 4 1 34.451093 -8.330810 41.169816
3763 4 1 33.983979 -7.564111 41.610245
3764 4 1 33.059085 -7.713209 41.960016
3765 4 1 32.505212 -8.154012 42.666357
3766 4 1 33.352001 -7.654092 42.848094
3767 4 1 33.436830 -8.443924 43.455523
3768 4 1 32.471872 -8.366104 43.706124
3769 4 1 32.825304 -8.132839 42.800214
3770 4 1 32.481431 -7.567670 43.550105
3771 4 1 32.948309 -6.963383 42.904456
3772 4 1 32.900058 -6.849381 43.896764
3773 4 1 33.013514 -7.303479 44.780462
3774 4 1 33.057715 -6.938113 43.850649
3775 4 1 33.143596 -6.576072 44.778846
3776 4 1 33.201385 -7.354672 44.153992
3777 4 1 33.936360 -6.687299 44.033887
3778 4 1 33.366768 -5.942052 43.687228
3779 4 1 33.350881 -6.431986 42.815614
3780 4 1 33.463360 -5.452450 42.648711
3781 4 1 32.863062 -4.814687 42.166113
3782 4 1 31.901171 -5.054428 42.297601
3783 4 1 30.901863 -5.087992 42.281542
3784 4 1 30.922282 -4.094048 42.389508
3785 4 1 31.290087 -3.194334 42.154488
3786 4 1 32.109362 -3.766182 42.196664
3787 4 1 32.040191 -3.023949 42.863227
3788 4 1 31.617455 -3.621953 42.182282
3789 4 1 30.792787 -4.184376 42.122251
3790 4 1 30.426943 -3.412725 42.642551
3791 4 1 31.352017 -3.193932 42.952983
3792 4 1 31.208108 -2.302478 43.382634
3793 4 1 31.175347 -2.082323 44.357549
3794 4 1 31.835137 -2.056448 43.606545
3795 4 1 30.835243 -2.065812 43.595461
3796 4 1 30.806310 -1.469321 44.397560
3797 4 1 30.405175 -1.766160 45.264149
3798 4 1 31.394979 -1.665570 45.364994
3799 4 1 32.284135 -1.236166 45.523150
3800 4 1 32.340851 -0.302547 45.169400
3801 4 1 32.805924 -1.045037 45.651495
3802 4 1 33.480449 -1.003746 46.388592
3803 4 1 32.572825 -1.382285 46.207136
3804 4 1 32.907577 -1.251866 45.273899
3805 4 1 32.976153 -1.072938 46.255368
3806 4 1 33.407287 -0.413252 46.870947
3807 4 1 33.081644 -1.313145 47.161031
3808 4 1 33.936891 -1.817655 47.042621
3809 4 1 34.838577 -2.013311 47.428213
3810 4 1 35.653471 -1.496249 47.166309
3811 4 1 35.054696 -0.766467 46.836327
3812 4 1 35.644090 -0.107811 47.304073
3813 4 1 36.572207 -0.355926 47.026516
3814 4 1 36.041423 0.452083 46.770802
3815 4 1 36.897277 0.650290 47.248535
3816 4 1 37.181023 -0.308119 47.217861
3817 4 1 37.121056 0.679735 47.074508
3818 4 1 36.435847 0.623427 46.348341
3819 4 1 37.404787 0.376437 46.360609
3820 4 1 36.545616 0.016417 46.724217
3821 4 1 35.583972 0.220199 46.540604
3822 4 1 36.448167 0.528933 46.937908
3823 4 1 36.728497 1.258220 46.313764
3824 4 1 37.461869 1.634212 45.747375
3825 4 1 37.771375 1.749335 46.691278
3826 4 1 37.776920 2.692260 47.024239
3827 4 1 37.049163 3.378055 47.016966
3828 4 1 37.766439 3.042370 46.406369
3829 4 1 38.623353 3.119992 46.915951
3830 4 1 38.812704 2.897332 45.959621
3831 4 1 39.063330 3.627575 46.595176
3832 4 1 38.570169 4.343967 46.101644
3833 4 1 38.098823 4.982132 46.710396
3834 4 1 37.275584 4.899072 47.271981
3835 4 1 37.392689 4.664586 46.306941
3836 4 1 37.657417 5.220879 47.094631
3837 4 1 37.226298 5.325225 46.198390
3838 4 1 37.687599 5.880919 45.506721
3839 4 1 38.077020 6.520462 46.169545
3840 4 1 37.628069 6.707951 47.043210
3841 4 1 38.123084 5.839148 47.031270
3842 4 1 38.699888 5.853128 46.214507
3843 4 1 38.979160 6.788012 46.433590
3844 4 1 39.917409 7.132478 46.465732
3845 4 1 39.258306 7.841867 46.715433
3846 4 1 40.011904 8.118875 47.311551
3847 4 1 40.354861 9.051626 47.422712
3848 4 1 40.791740 8.774875 46.566823
3849 4 1 40.409608 8.858778 47.487114
3850 4 1 41.061776 9.387597 46.943951
3851 4 1 40.707319 8.456550 47.030621
3852 4 1 40.447793 8.436736 46.065088
3853 4 1 41.005079 8.886566 45.367173
3854 4 1 40.413009 9.417047 45.973838
3855 4 1 40.821905 10.161907 45.446594
3856 4 1 41.060523 11.133018 45.448834
3857 4 1 40.311768 11.150606 44.786220
3858 4 1 41.277828 11.056935 44.545484
3859 4 1 40.552725 11.745561 44.541212
3860 4 1 41.407004 11.809515 45.057077
3861 4 1 41.646288 11.255917 45.854743
3862 4 1 40.963327 11.721918 46.417244
3863 4 1 41.309701 11.458016 47.317455
3864 4 1 41.505884 10.911139 46.503552
3865 4 1 41.784344 10.962801 47.462610
3866 4 1 42.312583 10.153419 47.205971
3867 4 1 41.357066 10.101394 46.915657
3868 4 1 41.531485 9.251629 47.413128
3869 4 1 41.124137 8.343661 47.314840
3870 4 1 40.540488 8.623245 46.552484
3871 4 1 41.183401 9.359004 46.339595
3872 4 1 40.227538 9.538383 46.106899
3873 4 1 40.195893 8.801907 45.431177
3874 4 1 40.426664 8.269798 44.616557
3875 4 1 41.043049 8.979794 44.276003
3876 4 1 40.522788 9.816568 44.105307
3877 4 1 40.865787 9.161720 43.431864
3878 4 1 40.993085 9.994818 42.893586
3879 4 1 40.639105 9.758200 43.798412
3880 4 1 40.641379 10.170414 44.709497
3881 4 1 40.978072 10.924084 44.145033
3882 4 1 41.239314 11.242737 43.233872
3883 4 1 41.611383 11.874161 42.553528
3884 4 1 41.193235 12.756649 42.768858
3885 4 1 41.159816 13.353013 41.966839
3886 4 1 41.452534 13.897459 41.180776
3887 4 1 41.341818 13.853854 42.173672
3888 4 1 40.705582 13.947232 41.407849
3889 4 1 40.249131 13.687837 40.556752
3890 4 1 40.826921 14.042843 39.821816
3891 4 1 40.296072 13.546498 39.134908
3892 4 1 39.426840 13.993039 38.922694
3893 4 1 40.221313 14.456110 39.315602
3894 4 1 39.648582 15.273558 39.254300
3895 4 1 38.663034 15.180774 39.112579
3896 4 1 39.175838 14.335405 39.262192
3897 4 1 38.919851 15.280962 39.061213
3898 4 1 39.298433 16.020729 38.504956
3899 4 1 39.503752 16.052982 39.483120
3900 4 1 39.809072 15.732025 40.379650
3901 4 1 38.867628 15.745566 40.716545
3902 4 1 39.573113 15.064522 40.520408
3903 4 1 39.201419 15.359842 39.640277
3904 4 1 39.037052 14.766469 40.428244
3905 4 1 39.403976 15.597295 40.009800
3906 4 1 38.751060 14.995829 39.549432
3907 4 1 39.442787 14.586496 38.954487
3908 4 1 38.955074 15.280389 38.424725
3909 4 1 38.382582 14.517163 38.125158
3910 4 1 38.342577 14.670048 39.112592
3911 4 1 39.089738 14.907062 38.491645
3912 4 1 39.766766 15.611638 38.279029
3913 4 1 40.015681 14.718440 37.904545
3914 4 1 40.568947 13.958754 38.246266
3915 4 1 41.235802 13.213769 38.228882
3916 4 1 41.771095 14.056141 38.291104
3917 4 1 42.649263 13.676998 37.999434
3918 4 1 43.165877 14.478327 38.301065
3919 4 1 43.745330 14.928464 38.980485
3920 4 1 44.640779 15.188879 39.341533
3921 4 1 44.755287 15.479677 40.291441
3922 4 1 45.290075 16.158314 40.794882
3923 4 1 46.207119 15.762076 40.749854
3924 4 1 46.130598 15.555541 39.774411
3925 4 1 46.832431 14.954122 39.392671
3926 4 1 46.574673 15.863321 39.719656
3927 4 1 47.433275 15.958472 40.223390
3928 4 1 46.577620 15.466271 40.383364
3929 4 1 45.606890 15.651860 40.535810
3930 4 1 45.192837 16.403374 41.049413
3931 4 1 46.029013 16.632893 41.547539
3932 4 1 46.386256 15.703336 41.638650
3933 4 1 46.359588 16.520845 42.213948
3934 4 1 47.196839 16.574266 41.669745
3935 4 1 47.468503 15.775211 41.133359
3936 4 1 46.712144 16.341477 41.460868
3937 4 1 47.328000 16.694106 42.165406
3938 4 1 46.876594 17.565155 41.971742
3939 4 1 47.472385 17.506026 42.772702
3940 4 1 46.567930 17.081070 42.735647
3941 4 1 46.973152 17.134464 43.648304
3942 4 1 46.378712 17.900675 43.892358
3943 4 1 46.805925 17.418481 44.657197
3944 4 1 45.941651 17.540499 45.145195
3945 4 1 46.522279 18.093101 44.547280
3946 4 1 45.988771 18.807800 44.999578
3947 4 1 46.614205 19.326540 45.582451
3948 4 1 45.797257 19.435916 46.148696
3949 4 1 46.056645 20.235667 46.690099
3950 4 1 45.706613 19.318726 46.881665
3951 4 1 46.286095 18.695202 47.406468
3952 4 1 45.683499 19.492816 47.432755
3953 4 1 45.886221 19.434878 46.455234
3954 4 1 44.974648 19.561925 46.846251
3955 4 1 45.499399 18.826777 47.275428
3956 4 1 45.275458 19.491421 46.562617
3957 4 1 44.703731 20.311853 46.566950
3958 4 1 45.009669 19.620449 47.221444
3959 4 1 44.620226 18.972169 46.567175
3960 4 1 45.464895 18.921489 47.100059
3961 4 1 45.770139 18.774566 46.159188
3962 4 1 45.987486 19.242918 45.302796
3963 4 1 45.727907 18.869237 44.412301
3964 4 1 46.177775 19.752656 44.281189
3965 4 1 46.369929 19.891732 45.252649
3966 4 1 46.932465 20.538728 44.737917
3967 4 1 47.348444 20.527410 43.828612
3968 4 1 46.526940 20.310150 44.355802
3969 4 1 47.356398 20.707912 43.963649
3970 4 1 46.649421 21.331898 43.630746
3971 4 1 46.835047 22.225001 43.220979
3972 4 1 46.849483 22.887078 43.970275
3973 4 1 47.215725 23.736338 44.350571
3974 4 1 46.904677 24.666436 44.545933
3975 4 1 47.358956 25.555797 44.494285
3976 4 1 46.747595 24.782220 44.327502
3977 4 1 46.451166 23.840504 44.168440
3978 4 1 45.575153 23.420873 44.406162
3979 4 1 45.167902 22.545886 44.667971
3980 4 1 45.374895 22.579683 43.690213
3981 4 1 46.104485 22.125517 44.201517
3982 4 1 46.720356 22.353618 44.955620
3983 4 1 47.321369 21.844624 44.339416
3984 4 1 46.465286 22.338952 44.490287
3985 4 1 46.662687 22.182149 45.457988
3986 4 1 46.589415 22.926903 46.121292
3987 4 1 46.386762 23.607286 46.825572
3988 4 1 46.337863 22.609273 46.785841
3989 4 1 46.525078 23.444999 47.302090
3990 4 1 46.083581 23.020382 46.511659
3991 4 1 45.705444 23.051972 47.436870
3992 4 1 45.060200 23.068209 46.673066
3993 4 1 45.795792 23.654081 46.332981
3994 4 1 45.437693 23.116274 45.569745
3995 4 1 46.093086 22.379899 45.401785
3996 4 1 46.506095 22.129339 44.526203
3997 4 1 47.042728 22.483811 45.291954
3998 4 1 47.082463 23.103820 46.075542
3999 4 1 46.876816 22.176608 46.388572
4000 4 1 47.057228 21.869825 45.454048
4001 5 1 31.682568 -9.427701 -19.921259
4002 5 1 30.927203 -10.043355 -19.696774
4003 5 1 30.236956 -9.357848 -19.928373
4004 5 1 31.096928 -9.244004 -20.425854
4005 5 1 32.070337 -9.254505 -20.654686
4006 5 1 32.983696 -8.850659 -20.602869
4007 5 1 32.273089 -9.466133 -20.261945
4008 5 1 31.825466 -9.009571 -21.030831
4009 5 1 31.984689 -9.989496 -21.150810
4010 5 1 32.943660 -9.835166 -21.388627
4011 5 1 32.892499 -9.831902 -20.389942
4012 5 1 33.150062 -9.163795 -21.088007
4013 5 1 33.708369 -8.703541 -21.778267
4014 5 1 32.895691 -8.816664 -21.206640
4015 5 1 32.460729 -9.089718 -20.348590
4016 5 1 32.411534 -9.847307 -19.697714
4017 5 1 32.537676 -10.737033 -20.136435
4018 5 1 32.803163 -11.005635 -19.210492
4019 5 1 33.343388 -10.246475 -18.847404
4020 5 1 33.047241 -10.142529 -17.897935
4021 5 1 32.275682 -10.362281 -17.300938
4022 5 1 31.829898 -9.840741 -18.028449
4023 5 1 32.192424 -10.731285 -18.303231
4024 5 1 32.080538 -9.759567 -18.511185
4025 5 1 32.851897 -9.443690 -19.063658
4026 5 1 33.346711 -9.460748 -19.932490
4027 5 1 32.355066 -9.375566 -19.835621
4028 5 1 31.376614 -9.337347 -20.038528
4029 5 1 31.916409 -10.177430 -19.984843
4030 5 1 31.783420 -9.715260 -19.108081
4031 5 1 32.574843 -10.320445 -19.022049
4032 5 1 32.175489 -10.821964 -19.789509
4033 5 1 31.299052 -10.888673 -20.266382
4034 5 1 31.613379 -10.673154 -19.341855
4035 5 1 31.268852 -9.762563 -19.113548
4036 5 1 31.003997 -10.410541 -19.827673
4037 5 1 31.208575 -11.297971 -19.414617
4038 5 1 30.677402 -12.064866 -19.774796
4039 5 1 30.635744 -11.145094 -20.165032
4040 5 1 29.953228 -11.004870 -19.447739
4041 5 1 29.586096 -11.852535 -19.064752
4042 5 1 29.663239 -11.679544 -20.046650
4043 5 1 30.124682 -11.750776 -19.162344
4044 5 1 29.501873 -11.289588 -19.794336
4045 5 1 30.214219 -11.867409 -20.192689
4046 5 1 29.932296 -12.804380 -20.399100
4047 5 1 30.734642 -12.484142 -19.895424
4048 5 1 30.422454 -13.369434 -20.240092
4049 5 1 29.858032 -14.103504 -19.862509
4050 5 1 29.776538 -13.472898 -20.634322
4051 5 1 29.757032 -14.224403 -19.974882
4052 5 1 29.735356 -14.939853 -20.673210
4053 5 1 30.405761 -15.650647 -20.886113
4054 5 1 30.331399 -16.290205 -20.120975
4055 5 1 31.261203 -16.656505 -20.085082
4056 5 1 31.867958 -16.150779 -19.471820
4057 5 1 31.229126 -16.186448 -20.240340
4058 5 1 30.982310 -15.719254 -19.391333
4059 5 1 30.157317 -15.660274 -19.953389
4060 5 1 30.919128 -15.047354 -19.743693
4061 5 1 31.631752 -14.890530 -20.427487
4062 5 1 31.402415 -14.732929 -21.387991
4063 5 1 31.143879 -14.489239 -22.322749
4064 5 1 31.855787 -13.848141 -22.036077
4065 5 1 31.613397 -14.446731 -21.272574
4066 5 1 31.936606 -13.727953 -21.888118
4067 5 1 32.285413 -13.058641 -22.544133
4068 5 1 32.516834 -13.198340 -23.506904
4069 5 1 33.307976 -13.418901 -22.936424
4070 5 1 33.720791 -12.593421 -23.321350
4071 5 1 32.933023 -11.978314 -23.353989
4072 5 1 33.594320 -12.476948 -23.914391
4073 5 1 34.539053 -12.371093 -24.224669
4074 5 1 35.448632 -12.750409 -24.055004
4075 5 1 35.743312 -13.502064 -23.464938
4076 5 1 35.565288 -14.433032 -23.783696
4077 5 1 35.222304 -15.372368 -23.780718
4078 5 1 34.998417 -14.650172 -23.126266
4079 5 1 34.564087 -14.408579 -22.258516
4080 5 1 35.229300 -14.741233 -22.926972
4081 5 1 34.521442 -14.163454 -22.520636
4082 5 1 34.605694 -14.175339 -21.524263
4083 5 1 34.838045 -13.457475 -22.180528
4084 5 1 34.211617 -14.048940 -21.672829
4085 5 1 33.942179 -13.089147 -21.594082
4086 5 1 34.660112 -13.335285 -20.942938
4087 5 1 34.367527 -13.391208 -21.897541
4088 5 1 33.534022 -13.926220 -21.759585
4089 5 1 33.675906 -14.725275 -22.343863
4090 5 1 32.878219 -14.395685 -22.848904
4091 5 1 32.076225 -14.031330 -23.322244
4092 5 1 32.551929 -13.331931 -23.855673
4093 5 1 31.935075 -13.434941 -23.075366
4094 5 1 31.343749 -12.711359 -23.431403
4095 5 1 30.803419 -11.905896 -23.674866
4096 5 1 30.002878 -12.411667 -23.996316
4097 5 1 29.643096 -11.664894 -23.436954
4098 5 1 29.609198 -11.012985 -24.194494
4099 5 1 28.619301 -11.011421 -24.336277
4100 5 1 29.229286 -10.806360 -23.570856
4101 5 1 28.657007 -11.319579 -24.210467
4102 5 1 28.031790 -10.546481 -24.103593
4103 5 1 27.508439 -10.817747 -23.295807
4104 5 1 28.366360 -10.305743 -23.253091
4105 5 1 29.165942 -10.338701 -23.852743
4106 5 1 29.220166 -11.316217 -24.056512
4107 5 1 30.190937 -11.092678 -23.969142
4108 5 1 31.029686 -11.572681 -23.712049
4109 5 1 30.466727 -12.348946 -23.995755
4110 5 1 30.002177 -13.209586 -24.204305
4111 5 1 29.463200 -13.683253 -23.507783
4112 5 1 29.977739 -12.855300 -23.730814
4113 5 1 29.499180 -13.275495 -22.959829
4114 5 1 28.519164 -13.467005 -22.906058
4115 5 1 27.757649 -12.979664 -23.333368
4116 5 1 27.723665 -12.102820 -22.853795
4117 5 1 27.549826 -12.203657 -21.874197
4118 5 1 28.246154 -12.018518 -22.567631
4119 5 1 27.892393 -11.254705 -23.107486
4120 5 1 27.623040 -12.140614 -23.485130
4121 5 1 28.237042 -11.707335 -24.144880
4122 5 1 28.835057 -12.366039 -23.688276
4123 5 1 29.217199 -12.895677 -24.445541
4124 5 1 30.031114 -12.353129 -24.237732
4125 5 1 29.594694 -12.094196 -25.099411
4126 5 1 29.926391 -11.152674 -25.158698
4127 5 1 30.698897 -11.732086 -24.898860
4128 5 1 30.434540 -10.875161 -25.341348
4129 5 1 29.705580 -10.395545 -25.829800
4130 5 1 30.327863 -11.035879 -25.379537
4131 5 1 30.672539 -11.444457 -24.534397
4132 5 1 30.831542 -10.538378 -24.142302
4133 5 1 31.286547 -11.268498 -23.632503
4134 5 1 31.125420 -11.425184 -24.606920
4135 5 1 30.199216 -11.782370 -24.486236
4136 5 1 30.396808 -12.670180 -24.070602
4137 5 1 31.131779 -13.074828 -24.614732
4138 5 1 31.852935 -12.777481 -25.240447
4139 5 1 32.145694 -12.587979 -24.303227
4140 5 1 32.885538 -11.916968 -24.351950
4141 5 1 31.920104 -11.992692 -24.601356
4142 5 1 31.747694 -11.253066 -25.251916
4143 5 1 32.460016 -11.656196 -25.826446
4144 5 1 33.253839 -11.845570 -26.404358
4145 5 1 33.899201 -12.584006 -26.208858
4146 5 1 33.498800 -12.421141 -27.110608
4147 5 1 34.338730 -12.954652 -27.011192
4148 5 1 33.394663 -12.757710 -27.275676
4149 5 1 33.069752 -13.259933 -28.077053
4150 5 1 32.352124 -12.674838 -28.454775
4151 5 1 32.054686 -13.113810 -29.302616
4152 5 1 32.828478 -13.719075 -29.115796
4153 5 1 32.451411 -14.367702 -29.776934
4154 5 1 32.580703 -15.112482 -30.431599
4155 5 1 31.959342 -14.771881 -31.137220
4156 5 1 32.828994 -15.092428 -31.512660
4157 5 1 33.724407 -14.872080 -31.899549
4158 5 1 33.267133 -14.451457 -31.115982
4159 5 1 32.855895 -14.745269 -30.253104
4160 5 1 31.913401 -14.435304 -30.128097
4161 5 1 31.804555 -14.823429 -31.043253
4162 5 1 31.575473 -15.794032 -30.969422
4163 5 1 31.127842 -16.163648 -30.155167
4164 5 1 31.503764 -16.948317 -29.662241
4165 5 1 31.165872 -17.889455 -29.671658
4166 5 1 31.047705 -17.208819 -28.948628
4167 5 1 31.788991 -17.859679 -29.112571
4168 5 1 30.809532 -17.773554 -29.294898
4169 5 1 29.838343 -17.572779 -29.166518
4170 5 1 29.257993 -18.368966 -29.337632
4171 5 1 29.311528 -18.582898 -28.362252
4172 5 1 30.296370 -18.610947 -28.533424
4173 5 1 29.991454 -17.660640 -28.596211
4174 5 1 30.413607 -17.078968 -27.900909
4175 5 1 30.571409 -16.121780 -27.658241
4176 5 1 30.623032 -17.051211 -28.023607
4177 5 1 30.477061 -16.254011 -28.609409
4178 5 1 30.518038 -16.365132 -29.602371
4179 5 1 30.581356 -15.654838 -30.303423
4180 5 1 31.157860 -16.411501 -30.611812
4181 5 1 30.898617 -15.456290 -30.754512
4182 5 1 30.854666 -14.777585 -30.021417
4183 5 1 30.688809 -14.482171 -29.080555
4184 5 1 31.056165 -15.412250 -29.081919
4185 5 1 30.456656 -14.613321 -29.033962
4186 5 1 29.517904 -14.899233 -28.841613
4187 5 1 30.279718 -15.169408 -29.430378
4188 5 1 29.697819 -14.707350 -28.761128
4189 5 1 30.569800 -14.284475 -28.514499
4190 5 1 29.882871 -14.787659 -27.990156
4191 5 1 30.077964 -14.407797 -28.894393
4192 5 1 30.470125 -15.044928 -28.230862
4193 5 1 30.155077 -14.789628 -29.144955
4194 5 1 29.950438 -15.766138 -29.077500
4195 5 1 29.078017 -15.279774 -29.029228
4196 5 1 29.869640 -15.560748 -28.486655
4197 5 1 29.287821 -16.283103 -28.860406
4198 5 1 28.403582 -15.890342 -29.113113
4199 5 1 28.115411 -16.759425 -28.711052
4200 5 1 28.781011 -17.051109 -28.024104
4201 5 1 28.914549 -16.980419 -29.012624
4202 5 1 28.362325 -16.355898 -28.460336
4203 5 1 29.266944 -16.644418 -28.146615
4204 5 1 28.533774 -17.066594 -28.679747
4205 5 1 28.009796 -16.902107 -27.844050
4206 5 1 28.103931 -17.587754 -27.122228
4207 5 1 28.269598 -18.325792 -26.468122
4208 5 1 28.317752 -17.545507 -27.091690
4209 5 1 28.022253 -17.304567 -28.016151
4210 5 1 28.084287 -16.413001 -27.567527
4211 5 1 27.957924 -17.112810 -28.270593
4212 5 1 28.932378 -16.924158 -28.148728
4213 5 1 28.204891 -16.602635 -27.542604
4214 5 1 27.431337 -16.034452 -27.261923
4215 5 1 27.369192 -16.628485 -26.459887
4216 5 1 27.778298 -16.925071 -27.322828
4217 5 1 28.267917 -17.796903 -27.336382
4218 5 1 28.047705 -18.628686 -27.845933
4219 5 1 27.436489 -17.904394 -27.526846
4220 5 1 28.003575 -18.423259 -26.887163
4221 5 1 28.255202 -17.487453 -27.134047
4222 5 1 28.553835 -18.108868 -26.409712
4223 5 1 28.680218 -19.066143 -26.669809
4224 5 1 28.696132 -20.065878 -26.653179
4225 5 1 27.713181 -20.236457 -26.584550
4226 5 1 28.553229 -20.116411 -27.113614
4227 5 1 28.817350 -20.833541 -27.758568
4228 5 1 28.392417 -20.412136 -26.957412
4229 5 1 28.786780 -21.330105 -26.914864
4230 5 1 29.049542 -22.280491 -27.081367
4231 5 1 29.847068 -22.763329 -27.443055
4232 5 1 29.227637 -22.109009 -27.009271
4233 5 1 29.694517 -21.356891 -27.474395
4234 5 1 28.952483 -21.161988 -28.115798
4235 5 1 29.710011 -20.536821 -27.927869
4236 5 1 30.417354 -20.317983 -28.600012
4237 5 1 29.775625 -19.754182 -29.119927
4238 5 1 30.630515 -20.098157 -28.731541
4239 5 1 30.130382 -20.171248 -29.594399
4240 5 1 29.502085 -19.650411 -30.172302
4241 5 1 28.880475 -19.064115 -29.652824
4242 5 1 27.985267 -18.866357 -29.253456
4243 5 1 27.232271 -19.510803 -29.386443
4244 5 1 28.231706 -19.527896 -29.415385
4245 5 1 27.300577 -19.398847 -29.074290
4246 5 1 26.511639 -18.843906 -28.810437
4247 5 1 27.510397 -18.848018 -28.760780
4248 5 1 28.282193 -18.278169 -29.042920
4249 5 1 27.343462 -18.053035 -28.781963
4250 5 1 27.430551 -18.138576 -27.789442
4251 5 1 26.498253 -18.443255 -27.594529
4252 5 1 26.978444 -17.973087 -28.335041
4253 5 1 27.775572 -17.516571 -27.939844
4254 5 1 28.044700 -18.405723 -28.309950
4255 5 1 27.403366 -18.435565 -29.076630
4256 5 1 27.238702 -19.400609 -29.280534
4257 5 1 26.356608 -19.871109 -29.303764
4258 5 1 26.682473 -20.772613 -29.018978
4259 5 1 27.599078 -20.906632 -29.395641
4260 5 1 26.881344 -21.549353 -29.663536
4261 5 1 26.582690 -21.345794 -28.731136
4262 5 1 25.956102 -21.297768 -27.953267
4263 5 1 26.918383 -21.070074 -27.804372
4264 5 1 26.266465 -21.760294 -27.490369
4265 5 1 26.944310 -21.234176 -26.976826
4266 5 1 27.674302 -20.576151 -27.161527
4267 5 1 27.764932 -21.487388 -26.759739
4268 5 1 27.903725 -21.407171 -25.772672
4269 5 1 27.071454 -21.326764 -26.321180
4270 5 1 27.803541 -21.942311 -26.612987
4271 5 1 28.043575 -20.972190 -26.648316
4272 5 1 27.170035 -21.425780 -26.471727
4273 5 1 27.458860 -22.147138 -25.842264
4274 5 1 26.783886 -22.863590 -26.018637
4275 5 1 26.087365 -23.565245 -26.168768
4276 5 1 25.209961 -23.720756 -26.622616
4277 5 1 25.385030 -24.483521 -26.000089
4278 5 1 25.900437 -23.676340 -25.712314
4279 5 1 25.074125 -23.396305 -25.223654
4280 5 1 25.203427 -22.717496 -24.500813
4281 5 1 24.750156 -23.604194 -24.409644
4282 5 1 24.824668 -23.160240 -23.516698
4283 5 1 24.647284 -23.407745 -22.564187
4284 5 1 24.538276 -23.492856 -23.554578
4285 5 1 24.683932 -24.425661 -23.884213
4286 5 1 24.333914 -25.338636 -23.674534
4287 5 1 25.231944 -25.085381 -24.034262
4288 5 1 24.368685 -25.389362 -23.631299
4289 5 1 25.210370 -25.094206 -23.179139
4290 5 1 25.607131 -25.965997 -23.466476
4291 5 1 25.106464 -25.578731 -22.692294
4292 5 1 25.070361 -24.589647 -22.835161
4293 5 1 24.794959 -24.877488 -23.752385
4294 5 1 25.365471 -25.518763 -23.239275
4295 5 1 25.533813 -25.293545 -24.198930
4296 5 1 24.782966 -25.892594 -23.920775
4297 5 1 24.190916 -26.505533 -23.397534
4298 5 1 23.410020 -26.465381 -24.020903
4299 5 1 24.027436 -27.069018 -24.525305
4300 5 1 23.651324 -27.807204 -23.965286
4301 5 1 23.507166 -26.887758 -23.599449
4302 5 1 22.691986 -27.371814 -23.281374
4303 5 1 22.627304 -28.321906 -22.976182
4304 5 1 22.986844 -27.789931 -22.209544
4305 5 1 22.965963 -28.503462 -22.909856
4306 5 1 22.167826 -28.122870 -22.442817
4307 5 1 21.181459 -28.109665 -22.606849
4308 5 1 20.999628 -29.083939 -22.739989
4309 5 1 20.079508 -28.881233 -22.404894
4310 5 1 20.516061 -29.605736 -22.938296
4311 5 1 19.992657 -28.792352 -23.192175
4312 5 1 20.934030 -28.771640 -22.855446
4313 5 1 20.320262 -29.471545 -23.220714
4314 5 1 19.692540 -30.229584 -23.043675
4315 5 1 20.522868 -30.764945 -23.198408
4316 5 1 21.406981 -30.813472 -22.733660
4317 5 1 21.776298 -30.139388 -22.093961
4318 5 1 21.901926 -30.870542 -21.423416
4319 5 1 20.951856 -30.822848 -21.115047
4320 5 1 21.915461 -30.595212 -20.974877
4321 5 1 21.675099 -30.713099 -21.938375
4322 5 1 20.680288 -30.801058 -21.887250
4323 5 1 19.926513 -31.265856 -22.351778
4324 5 1 20.580094 -31.527530 -21.641596
4325 5 1 19.642903 -31.857044 -21.756026
4326 5 1 19.949812 -31.075455 -21.212955
4327 5 1 20.914242 -30.811131 -21.210331
4328 5 1 20.870077 -31.274694 -20.325369
4329 5 1 20.815957 -31.791121 -21.179988
4330 5 1 20.615334 -32.508641 -20.512968
4331 5 1 21.239884 -32.882571 -19.827319
4332 5 1 22.119510 -32.513804 -19.526869
4333 5 1 21.975187 -32.042170 -20.396772
4334 5 1 22.278323 -32.072774 -21.349228
4335 5 1 21.795441 -31.880632 -20.494882
4336 5 1 21.874596 -32.853605 -20.277957
4337 5 1 21.900963 -33.795607 -20.612529
4338 5 1 21.399669 -34.649257 -20.471162
4339 5 1 22.364327 -34.669444 -20.733892
4340 5 1 22.240437 -35.495994 -21.282952
4341 5 1 21.518661 -35.068717 -21.827446
4342 5 1 21.539640 -34.837987 -22.800238
4343 5 1 21.845792 -33.906663 -22.997484
4344 5 1 21.962853 -33.269712 -22.235519
4345 5 1 22.338081 -33.744269 -21.439278
4346 5 1 21.605689 -34.299661 -21.833158
4347 5 1 21.895521 -35.244918 -21.683201
4348 5 1 21.121809 -35.716462 -22.106304
4349 5 1 21.322558 -35.009580 -22.784551
4350 5 1 21.733481 -35.465464 -21.995050
4351 5 1 21.465746 -35.144102 -22.903369
4352 5 1 21.939984 -34.409247 -23.388227
4353 5 1 22.009068 -35.354953 -23.705825
4354 5 1 21.889006 -36.310127 -23.435219
4355 5 1 22.203172 -35.364246 -23.516514
4356 5 1 22.227305 -34.859469 -24.379427
4357 5 1 22.469880 -35.070294 -23.432479
4358 5 1 22.267940 -34.194479 -23.870849
4359 5 1 21.379921 -33.827460 -23.593867
4360 5 1 22.009138 -34.041827 -22.846784
4361 5 1 21.386445 -34.556170 -22.257119
4362 5 1 21.754784 -33.691645 -22.599059
4363 5 1 22.104175 -33.277919 -21.758371
4364 5 1 21.172257 -33.187669 -22.109631
4365 5 1 21.347662 -32.233567 -21.866890
4366 5 1 22.259321 -31.860453 -22.039120
4367 5 1 23.226560 -31.724391 -22.253446
4368 5 1 23.889847 -31.262818 -22.842513
4369 5 1 22.940301 -31.490305 -22.626618
4370 5 1 23.854513 -31.337164 -22.251433
4371 5 1 24.471516 -30.646057 -22.627835
4372 5 1 24.317190 -29.810676 -23.155397
4373 5 1 23.351263 -30.039985 -23.035383
4374 5 1 24.162034 -30.320395 -23.549214
4375 5 1 24.015671 -29.827027 -24.406632
4376 5 1 24.370903 -28.915353 -24.613176
4377 5 1 24.044629 -29.671571 -25.180345
4378 5 1 24.037422 -28.775928 -24.735630
4379 5 1 23.883722 -29.545278 -25.355692
4380 5 1 24.464461 -30.160608 -24.822670
4381 5 1 24.679660 -29.265663 -24.431823
4382 5 1 23.865594 -29.093454 -24.986476
4383 5 1 22.871987 -29.206165 -24.980006
4384 5 1 22.091605 -29.356710 -24.373095
4385 5 1 22.126535 -29.903302 -23.536425
4386 5 1 21.686775 -29.054377 -23.243275
4387 5 1 22.426609 -28.840805 -23.881266
4388 5 1 23.084112 -29.156969 -24.565174
4389 5 1 22.178553 -28.835983 -24.842540
4390 5 1 22.020557 -29.403852 -24.034728
4391 5 1 22.581359 -28.605268 -23.816178
4392 5 1 23.228039 -28.787586 -23.075526
4393 5 1 23.319356 -29.109541 -22.133185
4394 5 1 23.676989 -28.788755 -23.010223
4395 5 1 23.156630 -29.535418 -23.424616
4396 5 1 23.442628 -30.478134 -23.252888
4397 5 1 22.662587 -30.637415 -22.647772
4398 5 1 23.192568 -29.804048 -22.490870
4399 5 1 23.403490 -29.058172 -23.122678
4400 5 1 22.931418 -28.470023 -22.465998
4401 5 1 23.548585 -27.892888 -21.931190
4402 5 1 24.132818 -27.738538 -21.134416
4403 5 1 23.355299 -27.721791 -21.763052
4404 5 1 23.341136 -28.695988 -21.537801
4405 5 1 23.396724 -28.039316 -22.289925
4406 5 1 23.289262 -27.503696 -23.127519
4407 5 1 23.266635 -28.222939 -22.433129
4408 5 1 22.370180 -28.085335 -22.011900
4409 5 1 21.652575 -28.305341 -22.672687
4410 5 1 21.867090 -27.766943 -23.487617
4411 5 1 21.851189 -28.728114 -23.212121
4412 5 1 22.310335 -27.998864 -22.704794
4413 5 1 21.531406 -28.625304 -22.733854
4414 5 1 22.151806 -29.327286 -23.083605
4415 5 1 22.546552 -29.197301 -22.174056
4416 5 1 21.659125 -28.752512 -22.053071
4417 5 1 21.925901 -28.988079 -22.987597
4418 5 1 22.811135 -29.355122 -22.701871
4419 5 1 23.024326 -30.216098 -22.240060
4420 5 1 23.230593 -29.319128 -22.631081
4421 5 1 23.721634 -28.869374 -21.885024
4422 5 1 23.275972 -28.609893 -22.741794
4423 5 1 23.470355 -28.017826 -21.959699
4424 5 1 22.503427 -28.168789 -21.754124
4425 5 1 21.952785 -27.344019 -21.625486
4426 5 1 21.504138 -26.462918 -21.475897
4427 5 1 20.631340 -26.844928 -21.779692
4428 5 1 20.624737 -25.895548 -22.093751
4429 5 1 20.085622 -25.750150 -21.264164
4430 5 1 20.324989 -26.514344 -20.665239
4431 5 1 20.046183 -26.774747 -19.740870
4432 5 1 19.178201 -26.749940 -20.236846
4433 5 1 19.814784 -26.353241 -20.898202
4434 5 1 19.372881 -26.865364 -20.161689
4435 5 1 18.430218 -26.612689 -19.943648
4436 5 1 18.547777 -27.000764 -19.029549
4437 5 1 19.423443 -26.577124 -18.797731
4438 5 1 19.955393 -26.057618 -19.466418
4439 5 1 19.105923 -26.287389 -19.941397
4440 5 1 18.801513 -26.349690 -18.990895
4441 5 1 18.981466 -26.048199 -18.054562
4442 5 1 18.689617 -26.162900 -19.004124
4443 5 1 17.983619 -25.510043 -19.278613
4444 5 1 17.882506 -24.839006 -18.544116
4445 5 1 18.068851 -25.368719 -19.371570
4446 5 1 18.140631 -26.365839 -19.347084
4447 5 1 17.332931 -26.530613 -19.913184
4448 5 1 17.930616 -26.585194 -19.113314
4449 5 1 17.744328 -25.725681 -19.589269
4450 5 1 18.046756 -25.987515 -20.505773
4451 5 1 18.962684 -25.900041 -20.897467
4452 5 1 18.117199 -25.557365 -20.487919
4453 5 1 18.331648 -26.339437 -21.073048
4454 5 1 17.449984 -26.728388 -21.340229
4455 5 1 17.878560 -26.211082 -22.080983
4456 5 1 17.128594 -25.550072 -22.056157
4457 5 1 16.457725 -25.397529 -22.781874
4458 5 1 16.251244 -26.357132 -22.972997
4459 5 1 17.137013 -25.946028 -23.188421
4460 5 1 17.104524 -25.425571 -22.335151
4461 5 1 16.179745 -25.800736 -22.271621
4462 5 1 16.973296 -26.279808 -21.896432
4463 5 1 17.820687 -26.351538 -21.370330
4464 5 1 18.475427 -27.104627 -21.305736
4465 5 1 18.560293 -26.383907 -21.993748
4466 5 1 18.156889 -27.129830 -22.523714
4467 5 1 18.364751 -28.089725 -22.711849
4468 5 1 18.272908 -28.457827 -21.786611
4469 5 1 18.542021 -29.295621 -22.261668
4470 5 1 18.833182 -30.102689 -21.747989
4471 5 1 18.712915 -30.933459 -22.291457
4472 5 1 17.849098 -30.745043 -22.758703
4473 5 1 17.514656 -30.894270 -21.828177
4474 5 1 18.175267 -31.300051 -22.459789
4475 5 1 18.573127 -31.921666 -21.785028
4476 5 1 18.275504 -31.479908 -20.938700
4477 5 1 17.972248 -30.856821 -20.217730
4478 5 1 18.650285 -30.157293 -20.443398
4479 5 1 19.402128 -29.531223 -20.236590
4480 5 1 19.826468 -30.237417 -20.803357
4481 5 1 19.820064 -31.175000 -20.455655
4482 5 1 19.969888 -30.324286 -20.959478
4483 5 1 20.877587 -30.007063 -20.684792
4484 5 1 21.136053 -29.690095 -21.597331
4485 5 1 20.846623 -29.149714 -22.387406
4486 5 1 21.770815 -28.978441 -22.046034
4487 5 1 22.363068 -28.908385 -21.243333
4488 5 1 23.224032 -28.821044 -20.742222
4489 5 1 22.461811 -28.288422 -20.374345
4490 5 1 21.605848 -28.156333 -19.874466
4491 5 1 21.041668 -28.975792 -19.773537
4492 5 1 20.598210 -29.839055 -19.532450
4493 5 1 20.069800 -29.649853 -18.704812
4494 5 1 20.536356 -29.318217 -19.524777
4495 5 1 21.148980 -29.357874 -18.735399
4496 5 1 20.835855 -29.185630 -19.669361
4497 5 1 21.197833 -30.104165 -19.510409
4498 5 1 21.983024 -29.731399 -20.004900
4499 5 1 22.683400 -30.434277 -20.129138
4500 5 1 21.846284 -30.969629 -20.016728
4501 5 1 20.949884 -30.526485 -20.026264
4502 5 1 20.426566 -30.320685 -19.199352
4503 5 1 19.634047 -29.710945 -19.210751
4504 5 1 19.942384 -30.634105 -18.981181
4505 5 1 20.325257 -31.465029 -19.384882
4506 5 1 20.066297 -31.761283 -20.304215
4507 5 1 19.647923 -32.620844 -20.010757
4508 5 1 19.639870 -32.216812 -19.096048
4509 5 1 19.278279 -32.976949 -18.556194
4510 5 1 19.048694 -33.318134 -17.644665
4511 5 1 18.377568 -32.924281 -17.016596
4512 5 1 17.961475 -33.679978 -16.510840
4513 5 1 17.630447 -34.498565 -16.041441
4514 5 1 18.365927 -35.089933 -15.710755
4515 5 1 18.647210 -35.084420 -14.751146
4516 5 1 17.871473 -35.600280 -14.387663
4517 5 1 18.005015 -36.478901 -13.929196
4518 5 1 18.492147 -35.608902 -14.005390
4519 5 1 17.737263 -35.139216 -13.547629
4520 5 1 18.423225 -34.640485 -14.077463
4521 5 1 17.513683 -34.773760 -13.683798
4522 5 1 17.463005 -35.688550 -13.283060
4523 5 1 16.823392 -35.709948 -14.051460
4524 5 1 17.383285 -36.279324 -13.449521
4525 5 1 17.935605 -35.626195 -12.931481
4526 5 1 17.752999 -35.541636 -11.951938
4527 5 1 17.056342 -35.649449 -11.242681
4528 5 1 16.784879 -34.828315 -11.744723
4529 5 1 16.094231 -34.678735 -12.452276
4530 5 1 15.258718 -34.437140 -12.945784
4531 5 1 15.814898 -33.820187 -12.388978
4532 5 1 16.344838 -33.541150 -11.588165
4533 5 1 16.576652 -33.098993 -10.721701
4534 5 1 16.334597 -32.237619 -10.275109
4535 5 1 17.229394 -32.550733 -9.956838
4536 5 1 17.699027 -32.689987 -9.085027
4537 5 1 17.043044 -33.150145 -8.486746
4538 5 1 17.350893 -34.049632 -8.176660
4539 5 1 17.592098 -33.079158 -8.178045
4540 5 1 17.639970 -34.072316 -8.284566
4541 5 1 17.454037 -33.822655 -9.234880
4542 5 1 17.440977 -33.458549 -10.166147
4543 5 1 18.286051 -32.937800 -10.045025
4544 5 1 18.551304 -33.587190 -9.332330
4545 5 1 18.661121 -34.531894 -9.023342
4546 5 1 17.924252 -35.182668 -8.840264
4547 5 1 16.990388 -35.033241 -8.515350
4548 5 1 16.863512 -34.846838 -9.489597
4549 5 1 17.695188 -34.441892 -9.869510
4550 5 1 17.526815 -33.636299 -10.437552
4551 5 1 16.936951 -32.953464 -10.006509
4552 5 1 17.126973 -32.003100 -9.760137
4553 5 1 17.722246 -31.513625 -9.122906
4554 5 1 16.774356 -31.478416 -8.806257
4555 5 1 16.133934 -32.244448 -8.861529
4556 5 1 16.963059 -32.319519 -8.307527
4557 5 1 17.605513 -31.627545 -7.978250
4558 5 1 17.022525 -32.347934 -8.353967
4559 5 1 16.516851 -32.563987 -9.189201
4560 5 1 16.262086 -32.139657 -10.058130
4561 5 1 16.564182 -31.857231 -10.968610
4562 5 1 16.833247 -31.932310 -10.008419
4563 5 1 16.985797 -32.681529 -9.363904
4564 5 1 17.066354 -31.951104 -8.685679
4565 5 1 16.090552 -32.018904 -8.893559
4566 5 1 16.819095 -32.471639 -8.379501
4567 5 1 17.463383 -32.547396 -9.140523
4568 5 1 17.293856 -31.975617 -9.943225
4569 5 1 17.518790 -31.327166 -9.215959
4570 5 1 17.182322 -30.708532 -8.505971
4571 5 1 16.445699 -31.141204 -9.025762
4572 5 1 15.798056 -30.502131 -8.610858
4573 5 1 16.106442 -30.957648 -7.775752
4574 5 1 15.393768 -31.591583 -7.475381
4575 5 1 15.176145 -30.830773 -6.863983
4576 5 1 15.857240 -31.428974 -7.286198
4577 5 1 14.857596 -31.440049 -7.310501
4578 5 1 13.986225 -31.869014 -7.072382
4579 5 1 14.692796 -32.353218 -7.588428
4580 5 1 14.624700 -32.075076 -6.630305
4581 5 1 14.919646 -32.853890 -7.183889
4582 5 1 14.623795 -33.779888 -6.949369
4583 5 1 14.056983 -34.590166 -7.098278
4584 5 1 14.539117 -35.447609 -7.278103
4585 5 1 15.145851 -36.240418 -7.335796
4586 5 1 14.373099 -36.753666 -6.962393
4587 5 1 13.837567 -37.454495 -6.491178
4588 5 1 13.573814 -37.052181 -5.614493
4589 5 1 14.557132 -37.188904 -5.494519
4590 5 1 14.201947 -36.292798 -5.228364
4591 5 1 15.181810 -36.487402 -5.273058
4592 5 1 14.240994 -36.737554 -5.501724
4593 5 1 14.541678 -36.054981 -6.167819
4594 5 1 14.181092 -35.164071 -6.443965
4595 5 1 14.516794 -34.313332 -6.848376
4596 5 1 14.720199 -33.334286 -6.838649
4597 5 1 15.517844 -33.545360 -6.273662
4598 5 1 15.724197 -32.958117 -7.056326
4599 5 1 16.274670 -33.594550 -6.516019
4600 5 1 16.254016 -33.422219 -5.531196
4601 5 1 15.387665 -32.967822 -5.323932
4602 5 1 14.829501 -32.139092 -5.364675
4603 5 1 15.579888 -32.343563 -4.736096
4604 5 1 16.455608 -32.115512 -5.161663
4605 5 1 16.436813 -32.994521 -5.638098
4606 5 1 16.049061 -32.773773 -6.533039
4607 5 1 16.430243 -33.182007 -5.703553
4608 5 1 17.091637 -33.883987 -5.439391
4609 5 1 17.412010 -34.727253 -5.870973
4610 5 1 17.315694 -35.356309 -6.642343
4611 5 1 17.414047 -36.321432 -6.399723
4612 5 1 18.210860 -36.765991 -5.990510
4613 5 1 17.966616 -36.570955 -5.040612
4614 5 1 18.946300 -36.732724 -5.159137
4615 5 1 18.079928 -37.193261 -5.352283
4616 5 1 17.608566 -37.154850 -4.471180
4617 5 1 16.708080 -37.586271 -4.416405
4618 5 1 15.952136 -38.187352 -4.157077
4619 5 1 16.370787 -37.979959 -5.041226
4620 5 1 16.823496 -37.252425 -5.556733
4621 5 1 16.775947 -37.991898 -6.228238
4622 5 1 16.236046 -37.694057 -7.015510
4623 5 1 17.164302 -37.369738 -7.197601
4624 5 1 17.842232 -37.341913 -7.932201
4625 5 1 18.691909 -36.820092 -8.008041
4626 5 1 18.701729 -37.284365 -8.893679
4627 5 1 18.291120 -36.405769 -9.137541
4628 5 1 18.338837 -35.488580 -9.533127
4629 5 1 18.255650 -35.798471 -10.480253
4630 5 1 18.840877 -35.073273 -10.843017
4631 5 1 18.553481 -34.436801 -10.127261
4632 5 1 19.436477 -34.128787 -9.773077
4633 5 1 19.097979 -34.827111 -9.142393
4634 5 1 18.304721 -34.221460 -9.079721
4635 5 1 17.866639 -34.101493 -8.188827
4636 5 1 18.792634 -34.428097 -8.378204
4637 5 1 17.957788 -34.926401 -8.612140
4638 5 1 17.929448 -34.241755 -9.340465
4639 5 1 18.657299 -34.784462 -8.921296
4640 5 1 17.727435 -35.105692 -8.741955
4641 5 1 18.430151 -35.725615 -9.091076
4642 5 1 18.285045 -35.537532 -8.119701
4643 5 1 19.155750 -35.897153 -8.455179
4644 5 1 19.744605 -35.255688 -7.963475
4645 5 1 19.772873 -36.024110 -8.602793
4646 5 1 19.915523 -37.004229 -8.740702
4647 5 1 20.830714 -36.839612 -8.372836
4648 5 1 20.292246 -36.017122 -8.556036
4649 5 1 20.702542 -35.190745 -8.170343
4650 5 1 20.495308 -34.892464 -7.238634
4651 5 1 20.296484 -34.240562 -7.970408
4652 5 1 20.533936 -34.576421 -7.058917
4653 5 1 20.107153 -33.697482 -6.846024
4654 5 1 19.117426 -33.574728 -6.772729
4655 5 1 19.578449 -33.624370 -7.658727
4656 5 1 18.852435 -33.965245 -7.061476
4657 5 1 18.577471 -33.023625 -7.255760
4658 5 1 18.963450 -32.122022 -7.060485
4659 5 1 18.164951 -31.524535 -7.134031
4660 5 1 18.471294 -32.476352 -7.119910
4661 5 1 18.476492 -33.459579 -7.302218
4662 5 1 17.789385 -34.090784 -6.942408
4663 5 1 17.575916 -33.234275 -6.472490
4664 5 1 16.660960 -33.167212 -6.870432
4665 5 1 16.971143 -32.217678 -6.823831
4666 5 1 16.765605 -31.244693 -6.928972
4667 5 1 16.461068 -31.394777 -7.869574
4668 5 1 17.158721 -30.883725 -7.367473
4669 5 1 17.912012 -31.075310 -7.996637
4670 5 1 17.396747 -30.538492 -7.328559
4671 5 1 17.742454 -30.967882 -6.494227
4672 5 1 16.744253 -30.910498 -6.511605
4673 5 1 16.569771 -31.777126 -6.979057
4674 5 1 16.120797 -30.947650 -7.311311
4675 5 1 16.387282 -31.870439 -7.589604
4676 5 1 16.931434 -31.048338 -7.422124
4677 5 1 17.878800 -30.802096 -7.626725
4678 5 1 17.958200 -29.977077 -8.186224
4679 5 1 17.159349 -29.557243 -8.617010
4680 5 1 17.493953 -30.476310 -8.408786
4681 5 1 17.042003 -31.048422 -7.724368
4682 5 1 16.812930 -31.912606 -8.172377
4683 5 1 16.654382 -30.954205 -8.409718
4684 5 1 15.940138 -31.303942 -7.803467
4685 5 1 16.375923 -30.710440 -7.126823
4686 5 1 17.008803 -31.248657 -6.570239
4687 5 1 17.468728 -31.945457 -6.019841
4688 5 1 18.263197 -32.061337 -5.423694
4689 5 1 17.460383 -32.621376 -5.219129
4690 5 1 17.593968 -31.838377 -4.611620
4691 5 1 18.015796 -32.481588 -5.250635
4692 5 1 18.956807 -32.158948 -5.148640
4693 5 1 18.912123 -31.217699 -5.483384
4694 5 1 19.206488 -30.301718 -5.756016
4695 5 1 18.965205 -30.408142 -6.720617
4696 5 1 19.445955 -29.979737 -5.955537
4697 5 1 19.559273 -29.414604 -5.138357
4698 5 1 20.466562 -29.157554 -4.805562
4699 5 1 19.824413 -28.435605 -4.547814
4700 5 1 20.507343 -27.920090 -5.065357
4701 5 1 19.675441 -27.408009 -5.279161
4702 5 1 19.947758 -26.664516 -5.889948
4703 5 1 20.523535 -27.472723 -5.766330
4704 5 1 20.535535 -27.866912 -6.685281
4705 5 1 20.301645 -28.811003 -6.452930
4706 5 1 20.463758 -27.969312 -5.937881
4707 5 1 19.758896 -28.604924 -6.252790
4708 5 1 19.673940 -28.148936 -7.138712
4709 5 1 19.941420 -28.723948 -6.365527
4710 5 1 19.413645 -29.351556 -6.937857
4711 5 1 19.483456 -28.372232 -6.747985
4712 5 1 20.216496 -28.795691 -6.215693
4713 5 1 20.755112 -28.108550 -6.703270
4714 5 1 20.050210 -27.937556 -6.014884
4715 5 1 19.680905 -27.763225 -5.102074
4716 5 1 18.831597 -28.290101 -5.134883
4717 5 1 19.504635 -28.170066 -4.405081
4718 5 1 20.403308 -28.356498 -4.802107
4719 5 1 21.048589 -28.989709 -4.374724
4720 5 1 21.974873 -28.699013 -4.614506
4721 5 1 22.128900 -28.868418 -3.641070
4722 5 1 22.901417 -28.630882 -3.052178
4723 5 1 23.366977 -27.812988 -2.714090
4724 5 1 22.813353 -27.903192 -3.541957
4725 5 1 21.907810 -27.584391 -3.821882
4726 5 1 21.913251 -26.988758 -3.018644
4727 5 1 22.211744 -27.358805 -2.138890
4728 5 1 21.872252 -26.429411 -2.283705
4729 5 1 22.584614 -26.880501 -1.746064
4730 5 1 23.036528 -26.848809 -0.854566
4731 5 1 23.957426 -26.479478 -0.729897
4732 5 1 24.658561 -26.128001 -1.350278
4733 5 1 24.199979 -26.107745 -2.238699
4734 5 1 23.346556 -25.622417 -2.428769
4735 5 1 24.265448 -25.478489 -2.061452
4736 5 1 25.221334 -25.257496 -2.254961
4737 5 1 24.535474 -25.705260 -2.828637
4738 5 1 23.864755 -26.424416 -2.647112
4739 5 1 23.164807 -25.759826 -2.908634
4740 5 1 23.774493 -25.275800 -2.280938
4741 5 1 23.924173 -25.500928 -1.318174
4742 5 1 24.672436 -24.881652 -1.080267
4743 5 1 23.808204 -25.365422 -0.942172
4744 5 1 24.429433 -24.612315 -1.158747
4745 5 1 24.876856 -25.035064 -1.946843
4746 5 1 25.129184 -24.175481 -1.502491
4747 5 1 24.442665 -23.784382 -2.115462
4748 5 1 24.751515 -23.380607 -1.254313
4749 5 1 23.806994 -23.665250 -1.090429
4750 5 1 24.206933 -23.920061 -0.210020
4751 5 1 23.324536 -23.514912 0.029208
4752 5 1 23.804091 -23.177789 -0.780961
4753 5 1 24.415530 -23.763588 -1.312922
4754 5 1 23.780870 -23.876353 -0.548402
4755 5 1 24.251558 -24.758240 -0.521385
4756 5 1 24.985585 -24.108627 -0.323377
4757 5 1 24.357700 -23.339968 -0.445543
4758 5 1 23.904899 -24.201887 -0.217364
4759 5 1 24.364752 -23.472485 0.289102
4760 5 1 25.240751 -23.450712 0.770922
4761 5 1 25.835316 -24.231434 0.963190
4762 5 1 25.609508 -23.509198 1.616938
4763 5 1 24.803235 -24.100112 1.644218
4764 5 1 25.421831 -24.862741 1.833256
4765 5 1 25.492760 -25.503697 1.068962
4766 5 1 25.784072 -24.625908 0.688668
4767 5 1 26.518985 -24.284449 0.102742
4768 5 1 26.034629 -25.136692 0.300433
4769 5 1 26.373454 -25.267025 -0.631345
4770 5 1 26.652788 -25.515608 -1.558803
4771 5 1 27.451584 -26.079374 -1.768788
4772 5 1 27.538471 -25.266075 -2.344110
4773 5 1 27.653203 -26.198594 -2.686519
4774 5 1 27.459401 -27.102956 -2.306294
4775 5 1 27.762467 -28.046495 -2.172562
4776 5 1 26.874366 -28.401558 -2.464463
4777 5 1 27.664095 -28.924372 -2.143537
4778 5 1 28.539640 -28.848597 -1.666380
4779 5 1 29.341937 -29.263458 -2.095577
4780 5 1 29.713716 -29.219289 -1.168306
4781 5 1 29.124574 -29.066768 -0.374802
4782 5 1 28.311395 -28.486796 -0.326094
4783 5 1 27.545266 -28.986524 -0.730221
4784 5 1 28.202690 -29.364865 -0.078568
4785 5 1 27.551141 -28.708677 -0.459227
4786 5 1 27.588807 -27.709550 -0.477293
4787 5 1 27.370196 -27.273125 0.395485
4788 5 1 27.131724 -27.626411 -0.509125
4789 5 1 26.283842 -28.073199 -0.223687
4790 5 1 25.493598 -27.555789 0.104643
4791 5 1 25.893283 -26.639245 0.090523
4792 5 1 24.995333 -26.463062 0.493815
4793 5 1 25.936516 -26.421018 0.158545
4794 5 1 25.128444 -25.863718 -0.032336
4795 5 1 25.730543 -25.065527 -0.013153
4796 5 1 26.420578 -24.987854 0.706442
4797 5 1 25.832146 -25.357986 1.425295
4798 5 1 25.049515 -25.903398 1.725319
4799 5 1 24.357966 -26.215790 1.074034
4800 5 1 25.033734 -26.266833 1.809380
4801 5 1 25.178223 -27.252357 1.898065
4802 5 1 24.571964 -26.934372 1.169138
4803 5 1 25.124911 -26.646362 1.950995
4804 5 1 25.821333 -26.208169 1.382679
4805 5 1 25.208273 -26.928479 1.058162
4806 5 1 25.114720 -25.948850 1.235856
4807 5 1 24.562286 -25.117431 1.295525
4808 5 1 23.843917 -25.001624 0.609571
4809 5 1 24.279483 -25.264914 1.470361
4810 5 1 23.601480 -25.145994 0.744985
4811 5 1 24.224619 -25.547250 1.416321
4812 5 1 24.034508 -24.781249 0.802236
4813 5 1 23.872314 -24.068940 0.119368
4814 5 1 24.087738 -24.664357 0.893365
4815 5 1 24.579914 -25.518014 0.722976
4816 5 1 25.004114 -24.612957 0.692567
4817 5 1 24.221722 -24.089050 0.355839
4818 5 1 24.202634 -24.418096 -0.588282
4819 5 1 23.367036 -23.869574 -0.558313
4820 5 1 23.316874 -24.781008 -0.149936
4821 5 1 22.802360 -25.330567 -0.808161
4822 5 1 22.114545 -25.254272 -1.530026
4823 5 1 23.052719 -25.386677 -1.849868
4824 5 1 22.918264 -24.886802 -2.705465
4825 5 1 22.857271 -24.024349 -2.203018
4826 5 1 22.945020 -24.252310 -1.233310
4827 5 1 22.686729 -23.422295 -1.727638
4828 5 1 21.739055 -23.481592 -2.041324
4829 5 1 21.002045 -23.526840 -1.366958
4830 5 1 20.383917 -22.813978 -1.698236
4831 5 1 19.644886 -22.166820 -1.511104
4832 5 1 19.378097 -21.562849 -0.760076
4833 5 1 19.400835 -22.418195 -1.277634
4834 5 1 18.737562 -22.614751 -0.555528
4835 5 1 18.814176 -22.894515 0.401479
4836 5 1 19.438744 -23.601924 0.732366
4837 5 1 20.078798 -23.002235 0.252050
4838 5 1 20.168134 -23.464469 -0.630196
4839 5 1 20.373800 -24.436385 -0.744565
4840 5 1 21.237418 -23.943153 -0.848907
4841 5 1 21.482272 -23.868960 0.117810
4842 5 1 21.923286 -23.237581 -0.520052
4843 5 1 21.779640 -23.696452 0.356763
4844 5 1 22.472344 -23.595607 1.070900
4845 5 1 22.647659 -23.813755 2.030940
4846 5 1 22.768965 -22.930859 1.577312
4847 5 1 23.420325 -23.463299 2.117903
4848 5 1 23.055033 -24.119957 2.777722
4849 5 1 23.003962 -23.183518 2.430630
4850 5 1 22.544282 -22.360520 2.096910
4851 5 1 22.700244 -23.328825 1.901814
4852 5 1 21.712099 -23.477929 1.865238
4853 5 1 22.401563 -22.754052 1.839903
4854 5 1 22.469921 -22.747376 2.837542
4855 5 1 21.906979 -21.940096 3.014728
4856 5 1 21.266267 -21.588103 3.697068
4857 5 1 21.576200 -22.383687 4.217632
4858 5 1 22.148245 -22.637874 4.997475
4859 5 1 21.351722 -23.227531 4.863847
4860 5 1 21.415303 -22.540031 5.587243
4861 5 1 21.104924 -22.008439 6.375325
4862 5 1 22.092182 -22.023736 6.216931
4863 5 1 21.748738 -22.903712 5.888771
4864 5 1 20.779490 -22.705456 6.034558
4865 5 1 21.326389 -22.218217 6.715366
4866 5 1 20.715256 -22.594025 7.411989
4867 5 1 21.322928 -23.271976 6.998326
4868 5 1 21.132991 -24.138973 6.537630
4869 5 1 21.171090 -24.817632 7.271094
4870 5 1 21.789203 -24.154326 7.692948
4871 5 1 22.044289 -25.083076 7.961937
4872 5 1 21.681110 -24.188944 7.699967
4873 5 1 21.890429 -24.959031 7.097348
4874 5 1 22.050399 -24.690269 8.047177
4875 5 1 22.401664 -24.177000 8.830228
4876 5 1 21.758140 -23.481263 8.511125
4877 5 1 22.137969 -23.492154 9.436118
4878 5 1 22.918706 -22.937286 9.148767
4879 5 1 21.924023 -22.842477 9.188981
4880 5 1 21.993666 -22.530593 10.136545
4881 5 1 22.862629 -22.135467 9.838586
4882 5 1 22.335056 -21.374870 10.216949
4883 5 1 22.445012 -22.356188 10.059075
4884 5 1 23.209709 -21.799215 9.735009
4885 5 1 23.932183 -22.081939 9.104058
4886 5 1 24.775691 -21.604340 9.349810
4887 5 1 24.603146 -20.847672 8.719189
4888 5 1 24.764049 -21.280221 7.832052
4889 5 1 24.577344 -22.255327 7.712427
4890 5 1 23.632764 -22.233316 7.384884
4891 5 1 22.767041 -22.473581 6.945797
4892 5 1 23.441343 -21.827646 7.303686
4893 5 1 23.787345 -20.896776 7.421010
4894 5 1 23.912769 -19.981226 7.803157
4895 5 1 23.462356 -19.099902 7.945977
4896 5 1 24.132018 -18.368681 7.816099
4897 5 1 24.227141 -17.881352 6.948077
4898 5 1 23.260356 -17.636108 7.020058
4899 5 1 22.377400 -17.655127 7.489129
4900 5 1 21.731610 -18.409667 7.372409
4901 5 1 20.980318 -19.013531 7.106122
4902 5 1 20.027667 -19.296233 7.218087
4903 5 1 19.371977 -18.570684 7.427008
4904 5 1 20.270334 -18.605541 7.864889
4905 5 1 20.225630 -19.471541 8.362930
4906 5 1 19.698717 -19.041706 7.629715
4907 5 1 19.727832 -19.243260 8.608760
4908 5 1 19.519331 -18.364797 9.038679
4909 5 1 20.343318 -18.550147 9.574114
4910 5 1 21.111075 -17.964323 9.833651
4911 5 1 21.804758 -18.570682 10.222407
4912 5 1 21.404733 -18.076725 10.994408
4913 5 1 21.841395 -18.273592 10.116587
4914 5 1 20.981542 -18.673488 10.433978
4915 5 1 20.499154 -17.797545 10.428943
4916 5 1 20.081850 -17.174335 11.090356
4917 5 1 20.632560 -17.994918 11.243202
4918 5 1 21.133009 -17.655053 10.446934
4919 5 1 21.542708 -16.798943 10.131939
4920 5 1 20.614387 -17.163047 10.207093
4921 5 1 20.566023 -17.213124 9.209519
4922 5 1 19.881746 -17.939458 9.144683
4923 5 1 20.525380 -18.386451 9.765918
4924 5 1 21.293808 -17.823858 9.460947
4925 5 1 22.229137 -18.131895 9.286955
4926 5 1 21.480590 -18.617544 8.835488
4927 5 1 22.433742 -18.385318 9.029325
4928 5 1 22.106864 -18.766144 8.164384
4929 5 1 21.830207 -17.820835 7.991603
4930 5 1 22.780076 -17.564778 7.812202
4931 5 1 23.568552 -17.594126 8.426566
4932 5 1 23.237737 -16.686128 8.683668
4933 5 1 23.433410 -15.826932 8.210915
4934 5 1 22.572727 -16.171792 8.585477
4935 5 1 23.300531 -16.813710 8.826810
4936 5 1 23.553671 -17.410073 8.065055
4937 5 1 24.511112 -17.194483 7.873150
4938 5 1 24.798658 -18.132208 8.068057
4939 5 1 24.665955 -18.463109 9.002346
4940 5 1 24.583795 -18.518558 8.007270
4941 5 1 24.058469 -18.636505 8.849957
4942 5 1 23.227670 -19.112783 8.561978
4943 5 1 23.712507 -19.869503 9.000506
4944 5 1 22.849075 -20.326973 9.213124
4945 5 1 21.943157 -20.282326 9.634217
4946 5 1 22.365198 -19.809006 8.861009
4947 5 1 21.730676 -19.052657 9.020124
4948 5 1 22.714734 -18.875932 9.040090
4949 5 1 22.652570 -18.042323 9.588936
4950 5 1 22.170114 -17.647306 8.807144
4951 5 1 22.680044 -17.854120 9.642129
4952 5 1 23.298429 -17.530049 8.926184
4953 5 1 22.410264 -17.188306 9.233386
4954 5 1 22.659582 -16.417316 8.647371
4955 5 1 22.073272 -17.073451 9.122479
4956 5 1 22.900215 -17.620406 8.992071
4957 5 1 23.751839 -17.915092 9.425541
4958 5 1 24.436947 -17.749705 10.134959
4959 5 1 24.933517 -17.972195 9.295962
4960 5 1 24.837065 -18.630833 8.549710
4961 5 1 25.269407 -19.432023 8.135976
4962 5 1 25.312387 -20.329952 8.574011
4963 5 1 26.192996 -20.798515 8.503466
4964 5 1 25.372333 -21.104776 8.985874
4965 5 1 25.095637 -21.919340 9.495701
4966 5 1 24.803783 -20.977932 9.326667
4967 5 1 24.537225 -21.120157 8.373399
4968 5 1 24.699529 -20.906871 7.409986
4969 5 1 23.730693 -21.152809 7.439486
4970 5 1 24.444198 -21.666129 6.962607
4971 5 1 24.327523 -20.937166 6.288070
4972 5 1 23.921618 -21.619210 6.896393
4973 5 1 24.405770 -20.928318 7.433296
4974 5 1 25.123859 -21.525564 7.790572
4975 5 1 25.825426 -21.089914 7.226647
4976 5 1 25.505983 -21.546831 8.056817
4977 5 1 25.753810 -22.134782 8.826814
4978 5 1 26.024328 -22.682680 9.618413
4979 5 1 26.054121 -22.866294 8.635866
4980 5 1 26.078911 -22.677663 7.654131
4981 5 1 25.272061 -23.085722 8.081311
4982 5 1 24.690974 -22.287221 7.924038
4983 5 1 23.904379 -22.495994 8.505142
4984 5 1 23.743691 -23.473639 8.640755
4985 5 1 23.914285 -23.460910 7.655496
4986 5 1 23.966992 -22.465375 7.577189
4987 5 1 24.014520 -23.463226 7.532087
4988 5 1 24.329734 -24.310087 7.103758
4989 5 1 23.475532 -23.796207 7.024604
4990 5 1 22.541360 -24.136808 7.130970
4991 5 1 22.571493 -23.142160 7.032136
4992 5 1 22.544649 -24.056065 7.437177
4993 5 1 21.795518 -23.789527 6.830746
4994 5 1 21.376790 -24.197731 7.641940
4995 5 1 20.563479 -23.617051 7.605379
4996 5 1 19.742363 -23.859113 7.088489
4997 5 1 19.857179 -23.378020 7.957607
4998 5 1 19.323962 -23.931486 7.317800
4999 5 1 19.286853 -24.381709 8.209945
5000 5 1 19.237223 -24.475249 7.215567
5001 6 1 -11.213820 30.734491 8.765057
5002 6 1 -10.545276 30.243230 9.323369
5003 6 1 -9.627188 30.404246 9.685568
5004 6 1 -10.401887 30.063582 9.152850
5005 6 1 -10.251853 29.420821 8.401618
5006 6 1 -10.941320 29.068753 9.034613
5007 6 1 -10.155845 29.687129 9.059901
5008 6 1 -10.104025 28.817600 9.551057
5009 6 1 -10.971203 28.340788 9.407343
5010 6 1 -11.740623 28.085949 9.993048
5011 6 1 -11.200242 28.857966 10.327679
5012 6 1 -11.658257 29.132604 9.482222
5013 6 1 -12.620101 29.280424 9.251997
5014 6 1 -12.892893 28.736988 10.045887
5015 6 1 -12.931034 29.736239 10.039358
5016 6 1 -12.831536 29.791415 11.032864
5017 6 1 -13.746323 29.603987 10.675045
5018 6 1 -13.369230 28.691434 10.516778
5019 6 1 -13.940500 27.894974 10.715022
5020 6 1 -13.456717 27.975197 9.843519
5021 6 1 -14.222439 28.441067 9.400084
5022 6 1 -13.792479 28.364906 10.299714
5023 6 1 -14.648345 28.402295 10.815560
5024 6 1 -14.456028 27.589660 10.265435
5025 6 1 -14.836543 26.763453 9.849994
5026 6 1 -15.499531 26.238884 9.315884
5027 6 1 -16.174942 26.668608 9.915181
5028 6 1 -16.366830 27.383835 10.587216
5029 6 1 -16.595641 28.127642 11.215225
5030 6 1 -15.762297 27.651060 11.495240
5031 6 1 -16.385117 28.343140 11.130380
5032 6 1 -17.043419 27.681302 10.771759
5033 6 1 -17.849775 27.975741 11.284689
5034 6 1 -17.763623 27.184424 10.679382
5035 6 1 -18.295503 26.391424 10.976462
5036 6 1 -18.797217 26.694140 10.166124
5037 6 1 -19.255297 26.754871 11.052958
5038 6 1 -19.303442 26.180815 11.870358
5039 6 1 -19.357080 25.849941 10.928208
5040 6 1 -18.889911 25.399423 10.167428
5041 6 1 -19.248509 26.165205 10.701268
5042 6 1 -19.691592 25.419613 11.199033
5043 6 1 -19.723545 26.410738 11.328068
5044 6 1 -18.829414 26.024527 11.101417
5045 6 1 -18.754089 25.965635 12.096836
5046 6 1 -19.020150 25.562872 12.972617
5047 6 1 -19.946401 25.193658 12.896843
5048 6 1 -20.920532 25.355875 12.739508
5049 6 1 -20.485544 25.417412 11.841177
5050 6 1 -21.312766 24.909240 11.601455
5051 6 1 -21.850927 24.257631 12.136045
5052 6 1 -22.532279 23.880144 12.763152
5053 6 1 -22.876672 23.616768 13.664278
5054 6 1 -23.852390 23.762730 13.500968
5055 6 1 -24.396886 23.820249 14.337756
5056 6 1 -24.275412 23.647691 15.315237
5057 6 1 -24.067377 24.467824 15.848250
5058 6 1 -23.953151 23.593210 15.377078
5059 6 1 -23.588537 23.134023 16.187142
5060 6 1 -24.512398 23.266320 16.546277
5061 6 1 -24.887747 22.377284 16.284119
5062 6 1 -25.508285 23.130018 16.064292
5063 6 1 -25.465533 22.892807 17.034809
5064 6 1 -26.337869 22.424293 17.174538
5065 6 1 -25.789532 21.746076 16.685306
5066 6 1 -26.358008 20.946579 16.491297
5067 6 1 -25.685711 21.518743 16.021568
5068 6 1 -26.355986 21.249638 15.329966
5069 6 1 -25.502834 21.759753 15.220815
5070 6 1 -24.798683 21.063522 15.081407
5071 6 1 -24.742850 20.065658 15.047509
5072 6 1 -25.250358 20.368453 14.240818
5073 6 1 -25.654916 20.655240 15.109200
5074 6 1 -25.347942 20.833619 14.174348
5075 6 1 -26.319143 20.998501 14.002354
5076 6 1 -26.295372 21.635740 14.772653
5077 6 1 -26.582505 21.195058 13.922151
5078 6 1 -26.539828 21.624814 14.824087
5079 6 1 -27.140634 21.233153 14.127212
5080 6 1 -26.351960 21.827275 13.969057
5081 6 1 -26.069046 20.973208 13.532560
5082 6 1 -25.080470 20.852845 13.441839
5083 6 1 -25.079066 20.208275 12.677295
5084 6 1 -25.927659 20.627227 12.354235
5085 6 1 -26.321674 21.205307 11.639689
5086 6 1 -26.787565 20.402155 12.011028
5087 6 1 -26.923265 19.540435 12.499929
5088 6 1 -25.976386 19.767617 12.272314
5089 6 1 -26.082513 18.819231 11.973483
5090 6 1 -25.498737 18.963723 11.174530
5091 6 1 -26.245265 18.790241 11.816869
5092 6 1 -25.812939 18.729286 12.716524
5093 6 1 -26.660247 19.087450 12.324365
5094 6 1 -27.297729 19.366127 11.606064
5095 6 1 -27.348008 19.971394 10.811631
5096 6 1 -26.727321 20.652321 11.200327
5097 6 1 -27.304934 20.063940 10.634491
5098 6 1 -27.291035 19.113140 10.943982
5099 6 1 -26.727925 18.578907 11.574460
5100 6 1 -27.472214 17.986240 11.266596
5101 6 1 -27.514564 18.092066 12.260079
5102 6 1 -27.128006 18.953436 11.930511
5103 6 1 -26.902443 18.141288 11.392423
5104 6 1 -25.936152 18.096267 11.645910
5105 6 1 -25.457790 18.480131 10.856089
5106 6 1 -25.395251 19.388582 11.269376
5107 6 1 -26.038634 19.397876 10.503888
5108 6 1 -25.153967 19.834363 10.340050
5109 6 1 -25.540339 18.938465 10.559327
5110 6 1 -25.391119 19.347199 11.459700
5111 6 1 -25.589077 20.318762 11.329787
5112 6 1 -24.893296 20.795020 10.792136
5113 6 1 -24.012151 21.248950 10.924539
5114 6 1 -24.098032 21.376250 9.936400
5115 6 1 -24.911208 21.369984 10.518384
5116 6 1 -24.978264 21.832278 9.634196
5117 6 1 -24.001301 21.997597 9.499237
5118 6 1 -23.792333 22.939336 9.762788
5119 6 1 -23.511422 22.081478 10.193100
5120 6 1 -23.612524 21.304763 10.814785
5121 6 1 -23.586539 22.248337 10.484642
5122 6 1 -22.760422 22.614508 10.056331
5123 6 1 -22.132456 23.009876 10.726661
5124 6 1 -22.340827 22.044803 10.567866
5125 6 1 -22.236453 22.657071 11.351597
5126 6 1 -21.349874 23.094458 11.502165
5127 6 1 -21.832284 23.817440 11.007617
5128 6 1 -21.476140 23.490824 11.883107
5129 6 1 -21.856771 22.779436 11.292304
5130 6 1 -21.440498 22.478158 12.150179
5131 6 1 -22.348203 22.803255 11.884878
5132 6 1 -23.269189 22.780262 12.273794
5133 6 1 -22.737131 22.585936 11.449688
5134 6 1 -23.069332 22.334602 12.358794
5135 6 1 -23.540309 22.300676 13.240286
5136 6 1 -23.979283 22.976160 13.832759
5137 6 1 -23.540100 23.254292 12.978498
5138 6 1 -23.600543 23.095655 13.963983
5139 6 1 -23.194785 22.700988 13.139605
5140 6 1 -23.559234 23.630052 13.202982
5141 6 1 -23.491256 24.577839 12.891405
5142 6 1 -23.178237 23.884438 12.242394
5143 6 1 -22.600140 24.134830 13.018994
5144 6 1 -22.501664 25.040038 13.432396
5145 6 1 -22.180742 25.978531 13.559829
5146 6 1 -22.983155 25.400158 13.412796
5147 6 1 -22.100719 24.973696 13.214205
5148 6 1 -21.561081 25.606703 12.659145
5149 6 1 -22.546187 25.500003 12.793981
5150 6 1 -22.740820 24.965969 13.616735
5151 6 1 -22.512073 25.809984 14.101826
5152 6 1 -22.147458 24.907717 14.331977
5153 6 1 -21.811293 25.215900 13.442024
5154 6 1 -22.650599 25.314957 13.976582
5155 6 1 -22.103385 25.450278 13.150601
5156 6 1 -22.451918 24.927502 12.372636
5157 6 1 -23.231251 25.373316 11.932305
5158 6 1 -23.093773 25.986725 11.154598
5159 6 1 -23.290332 25.532469 12.023514
5160 6 1 -23.656958 24.753654 12.532466
5161 6 1 -24.493345 25.269769 12.717075
5162 6 1 -23.831425 25.979137 12.959270
5163 6 1 -23.623153 25.008314 12.840418
5164 6 1 -24.075337 24.261113 12.353366
5165 6 1 -24.475117 24.467351 11.460257
5166 6 1 -25.025153 25.236356 11.785974
5167 6 1 -25.737022 24.535289 11.827772
5168 6 1 -24.977571 23.918345 11.621342
5169 6 1 -24.524722 23.026862 11.635005
5170 6 1 -24.813059 22.072241 11.709565
5171 6 1 -24.165412 21.648530 11.076302
5172 6 1 -23.391478 21.689847 10.444385
5173 6 1 -23.134910 22.568091 10.040823
5174 6 1 -23.948400 22.285046 9.532768
5175 6 1 -23.334939 21.925316 10.235804
5176 6 1 -23.610443 21.892741 11.196552
5177 6 1 -22.832932 21.315415 10.947213
5178 6 1 -23.302200 21.658704 10.133616
5179 6 1 -23.240555 22.513134 9.617720
5180 6 1 -22.260696 22.434334 9.434232
5181 6 1 -21.539044 21.949587 9.928435
5182 6 1 -21.998733 21.078669 10.102185
5183 6 1 -21.365633 20.948593 10.865248
5184 6 1 -21.596573 21.908936 10.709020
5185 6 1 -20.719198 21.681562 10.286511
5186 6 1 -21.295122 22.486954 10.146317
5187 6 1 -21.715270 23.153521 10.762080
5188 6 1 -22.209196 23.582778 11.518238
5189 6 1 -22.056032 22.596127 11.462928
5190 6 1 -22.564421 21.748007 11.612037
5191 6 1 -22.294939 20.800191 11.441672
5192 6 1 -23.071084 21.129093 10.903693
5193 6 1 -23.779092 21.827882 10.801621
5194 6 1 -22.967010 21.943168 10.229579
5195 6 1 -23.652749 21.231802 10.075564
5196 6 1 -23.593116 21.955755 9.388297
5197 6 1 -23.560285 22.431585 10.267222
5198 6 1 -22.827720 22.882037 10.777557
5199 6 1 -23.552874 22.930695 10.090691
5200 6 1 -22.647633 23.350946 10.028016
5201 6 1 -23.071195 22.959142 10.844769
5202 6 1 -23.390938 22.821941 9.907251
5203 6 1 -22.964822 23.333508 9.161111
5204 6 1 -22.377788 23.217868 9.962372
5205 6 1 -21.586066 22.852680 10.452079
5206 6 1 -20.894378 22.131322 10.486866
5207 6 1 -21.396620 22.443541 9.680471
5208 6 1 -20.629381 22.171118 10.261100
5209 6 1 -19.717579 22.173055 9.850475
5210 6 1 -20.314839 22.577393 9.157805
5211 6 1 -21.041819 22.763186 9.818851
5212 6 1 -20.896588 23.586463 10.367596
5213 6 1 -20.111869 24.056130 10.772110
5214 6 1 -19.706799 24.957563 10.924871
5215 6 1 -20.296355 24.268792 10.502948
5216 6 1 -20.278082 23.280608 10.350769
5217 6 1 -20.106996 24.042909 9.726568
5218 6 1 -20.576986 23.402871 9.118735
5219 6 1 -20.696294 23.805719 8.211277
5220 6 1 -20.738422 23.957783 9.198750
5221 6 1 -20.176765 24.074487 8.379652
5222 6 1 -20.856658 23.742929 7.725576
5223 6 1 -20.429315 23.341957 6.915267
5224 6 1 -20.579538 24.073928 6.250699
5225 6 1 -21.360501 23.449530 6.235740
5226 6 1 -21.175474 22.797104 5.500820
5227 6 1 -20.977206 23.428544 6.250469
5228 6 1 -21.106449 22.775945 5.503870
5229 6 1 -21.116463 23.116153 6.444167
5230 6 1 -20.364835 23.674812 6.093517
5231 6 1 -20.304237 23.295088 7.016630
5232 6 1 -19.816546 23.108618 7.869500
5233 6 1 -19.833512 23.229298 8.862046
5234 6 1 -18.909768 23.259618 9.243853
5235 6 1 -18.965127 24.238722 9.048171
5236 6 1 -18.379958 23.453636 9.251195
5237 6 1 -17.786541 23.562715 8.453726
5238 6 1 -17.584655 22.664100 8.064197
5239 6 1 -17.127546 21.846901 7.713144
5240 6 1 -16.185894 21.898811 7.380581
5241 6 1 -15.730644 21.011499 7.454235
5242 6 1 -15.460674 21.974088 7.431016
5243 6 1 -16.301913 22.085045 6.901861
5244 6 1 -16.304049 21.087297 6.834822
5245 6 1 -16.216808 21.602484 5.982196
5246 6 1 -15.588927 22.289607 6.347745
5247 6 1 -15.568074 23.286134 6.428364
5248 6 1 -16.131855 22.478565 6.255208
5249 6 1 -15.496362 23.044727 6.780192
5250 6 1 -14.997434 22.289415 7.205131
5251 6 1 -15.019597 21.788550 8.070373
5252 6 1 -15.674580 21.216269 7.576923
5253 6 1 -16.241933 21.103675 8.392664
5254 6 1 -15.443981 20.735484 7.915476
5255 6 1 -15.337684 21.640782 8.326737
5256 6 1 -14.792355 22.397689 8.686888
5257 6 1 -14.728546 21.421617 8.479014
5258 6 1 -15.579353 20.923928 8.310390
5259 6 1 -15.084424 21.649748 7.832655
5260 6 1 -14.767507 22.016994 6.958187
5261 6 1 -14.489476 22.074703 5.999350
5262 6 1 -14.260046 22.731724 6.717462
5263 6 1 -14.429304 23.330655 7.500171
5264 6 1 -13.960670 22.683780 8.101782
5265 6 1 -14.164388 22.483095 9.060022
5266 6 1 -13.696569 22.973673 8.324850
5267 6 1 -13.076553 22.250345 8.628784
5268 6 1 -13.675560 22.548788 9.371834
5269 6 1 -13.251742 22.503038 8.467243
5270 6 1 -13.971831 21.867690 8.746177
5271 6 1 -13.273196 21.465290 9.337770
5272 6 1 -13.978117 21.019356 9.889340
5273 6 1 -13.351127 21.756228 9.636548
5274 6 1 -13.025217 21.421652 10.520767
5275 6 1 -12.249477 21.682447 9.946125
5276 6 1 -12.753357 22.212609 9.264192
5277 6 1 -12.435999 21.440899 8.713060
5278 6 1 -11.579773 20.943297 8.574250
5279 6 1 -12.135942 21.539194 7.994954
5280 6 1 -12.545840 22.376656 7.633513
5281 6 1 -11.749828 22.848086 8.013141
5282 6 1 -12.223880 22.792463 7.134403
5283 6 1 -12.507027 22.377378 7.999002
5284 6 1 -11.744699 21.733670 8.066055
5285 6 1 -11.253725 21.751778 8.937040
5286 6 1 -11.703606 21.896740 8.055796
5287 6 1 -10.787928 21.582403 8.306247
5288 6 1 -9.814431 21.646079 8.086593
5289 6 1 -10.015661 22.301304 8.814731
5290 6 1 -10.193264 23.253945 8.567888
5291 6 1 -11.123421 23.030727 8.276372
5292 6 1 -10.662024 23.580863 7.580338
5293 6 1 -10.936016 23.543119 6.619347
5294 6 1 -10.409228 24.388730 6.705580
5295 6 1 -11.270718 24.306623 6.204489
5296 6 1 -11.620916 25.233563 6.069789
5297 6 1 -12.018888 25.610738 5.233513
5298 6 1 -11.053640 25.830023 5.375675
5299 6 1 -10.831092 24.922218 5.731152
5300 6 1 -10.323926 24.965349 4.870383
5301 6 1 -10.385803 25.849165 4.406658
5302 6 1 -10.126603 26.415720 3.624462
5303 6 1 -10.460038 26.639268 4.540348
5304 6 1 -9.994632 25.755955 4.484168
5305 6 1 -10.957404 26.021121 4.431666
5306 6 1 -11.806427 26.165370 4.939951
5307 6 1 -12.212216 26.973875 4.513742
5308 6 1 -12.157801 26.974930 3.515224
5309 6 1 -12.333363 26.394603 2.719989
5310 6 1 -13.239775 26.316122 3.135030
5311 6 1 -12.357092 26.041714 3.516570
5312 6 1 -13.313208 26.134177 3.238552
5313 6 1 -12.661215 26.889352 3.170605
5314 6 1 -12.866626 26.680707 4.126782
5315 6 1 -13.367889 26.954981 4.947458
5316 6 1 -12.726823 26.187595 4.959819
5317 6 1 -13.585590 25.880994 5.370324
5318 6 1 -14.578083 25.913687 5.252470
5319 6 1 -13.597783 25.793865 5.409485
5320 6 1 -13.902635 26.607060 5.905246
5321 6 1 -13.841327 25.623391 6.074467
5322 6 1 -14.620881 26.186031 6.349662
5323 6 1 -13.890059 25.525091 6.520128
5324 6 1 -14.048549 24.554979 6.703874
5325 6 1 -14.757033 24.528280 7.409096
5326 6 1 -13.823106 24.855166 7.553757
5327 6 1 -13.935939 23.939533 7.939614
5328 6 1 -13.627574 23.144656 8.462186
5329 6 1 -14.467193 23.351930 7.960112
5330 6 1 -15.115532 22.711493 7.548414
5331 6 1 -16.114057 22.689175 7.597926
5332 6 1 -15.271747 22.166914 7.464667
5333 6 1 -14.810947 23.053826 7.432232
5334 6 1 -14.095236 22.690319 8.028571
5335 6 1 -14.498144 21.776259 8.075056
5336 6 1 -14.989533 21.643705 7.214262
5337 6 1 -15.869021 21.364269 6.829014
5338 6 1 -16.668767 20.779685 6.692387
5339 6 1 -16.747549 20.138700 5.928888
5340 6 1 -16.171816 19.936040 5.136764
5341 6 1 -15.277062 19.786344 4.716042
5342 6 1 -15.101065 19.378027 5.611756
5343 6 1 -15.451150 19.057799 4.731475
5344 6 1 -15.175887 18.488890 3.956509
5345 6 1 -15.454472 17.658094 4.438348
5346 6 1 -14.816677 16.970104 4.092098
5347 6 1 -14.664753 16.138227 3.558339
5348 6 1 -13.759304 15.872183 3.889071
5349 6 1 -14.668613 16.287848 3.869575
5350 6 1 -14.821413 17.180705 4.293199
5351 6 1 -15.482395 17.869539 3.995523
5352 6 1 -15.641827 17.183612 4.705513
5353 6 1 -15.780570 17.610289 5.599211
5354 6 1 -15.788576 16.806719 6.194368
5355 6 1 -16.017178 15.866397 5.942306
5356 6 1 -15.813411 16.743362 6.377520
5357 6 1 -15.757231 17.741352 6.406854
5358 6 1 -14.940995 17.760703 5.829460
5359 6 1 -13.969113 17.639249 5.627731
5360 6 1 -14.148498 17.790862 6.599757
5361 6 1 -14.209053 16.837479 6.895380
5362 6 1 -13.474557 16.381836 7.398277
5363 6 1 -13.236505 15.730643 6.677666
5364 6 1 -13.646333 16.185748 5.887147
5365 6 1 -12.800125 15.769705 6.220076
5366 6 1 -13.392475 15.087367 5.791664
5367 6 1 -13.918586 14.414112 5.272110
5368 6 1 -14.195495 14.143132 4.350215
5369 6 1 -14.836274 13.747677 5.008255
5370 6 1 -13.896814 13.918289 5.305421
5371 6 1 -14.705279 13.568191 5.778513
5372 6 1 -14.565996 14.134927 6.590555
5373 6 1 -13.670607 13.824569 6.271247
5374 6 1 -13.929918 14.762229 6.502661
5375 6 1 -14.186272 13.799400 6.417555
5376 6 1 -14.290518 14.245539 7.306426
5377 6 1 -14.912535 13.553057 7.671887
5378 6 1 -14.205995 12.931620 8.010438
5379 6 1 -13.938458 12.127408 8.541162
5380 6 1 -14.582137 12.693897 9.055718
5381 6 1 -15.315470 12.687995 9.735562
5382 6 1 -14.469881 12.992552 9.297127
5383 6 1 -15.377232 13.228257 8.949049
5384 6 1 -14.395811 13.388787 9.054141
5385 6 1 -13.634584 12.744892 8.977116
5386 6 1 -13.225700 13.510521 8.480501
5387 6 1 -13.815681 14.191874 8.047280
5388 6 1 -14.758930 13.866415 8.113295
5389 6 1 -14.265467 13.645854 8.954632
5390 6 1 -13.657943 13.843865 8.185407
5391 6 1 -12.981264 13.575967 8.871218
5392 6 1 -13.527670 12.959912 8.303840
5393 6 1 -13.832117 13.849382 7.963026
5394 6 1 -14.237156 13.911712 7.050854
5395 6 1 -14.653745 13.194312 7.609236
5396 6 1 -15.641591 13.055176 7.678526
5397 6 1 -14.810035 13.589648 7.829704
5398 6 1 -15.171415 14.399085 8.292539
5399 6 1 -14.932404 13.490936 7.948826
5400 6 1 -15.541502 12.851705 7.479374
5401 6 1 -16.258069 12.222787 7.177723
5402 6 1 -16.477350 11.272058 6.958564
5403 6 1 -15.639603 11.006755 6.481286
5404 6 1 -16.000644 11.898517 6.754069
5405 6 1 -15.157602 12.393451 6.543543
5406 6 1 -14.558810 12.258963 5.754011
5407 6 1 -14.123244 13.149739 5.883632
5408 6 1 -13.387259 13.693059 6.287525
5409 6 1 -12.595182 14.263185 6.505631
5410 6 1 -12.479559 13.890889 5.584747
5411 6 1 -13.198922 13.216513 5.418216
5412 6 1 -13.672124 14.088713 5.542101
5413 6 1 -14.402231 13.458510 5.277928
5414 6 1 -13.441383 13.263182 5.474443
5415 6 1 -14.172123 12.886669 4.905007
5416 6 1 -14.028686 13.843145 4.650884
5417 6 1 -14.739234 13.142540 4.585500
5418 6 1 -15.080620 13.446894 3.696218
5419 6 1 -15.541542 14.033462 4.362168
5420 6 1 -15.179145 13.435939 5.077455
5421 6 1 -14.253361 13.135731 5.307235
5422 6 1 -14.674623 13.913369 5.773944
5423 6 1 -14.008272 13.188934 5.950497
5424 6 1 -14.925816 13.583028 6.003442
5425 6 1 -15.722432 13.446136 5.414660
5426 6 1 -15.058032 13.883337 6.020819
5427 6 1 -16.003535 13.774788 5.713834
5428 6 1 -16.516087 14.443536 6.252413
5429 6 1 -16.514434 15.197982 6.908773
5430 6 1 -16.364937 15.668092 7.778628
5431 6 1 -16.917238 15.018044 7.256707
5432 6 1 -16.046407 15.053251 6.766388
5433 6 1 -15.121081 15.408562 6.634000
5434 6 1 -14.363459 15.734814 6.068696
5435 6 1 -13.468089 16.096635 5.809086
5436 6 1 -12.953449 15.244882 5.907379
5437 6 1 -13.509211 16.062840 6.055946
5438 6 1 -13.691067 16.891443 5.526469
5439 6 1 -14.157404 17.576534 4.966844
5440 6 1 -13.354435 18.146699 4.793198
5441 6 1 -13.640850 19.103112 4.850119
5442 6 1 -13.914269 18.640010 4.007042
5443 6 1 -12.966859 18.947395 4.096081
5444 6 1 -13.314675 18.717643 5.005057
5445 6 1 -14.227895 18.470035 4.681453
5446 6 1 -15.001675 19.051892 4.431040
5447 6 1 -14.341456 19.694309 4.041924
5448 6 1 -13.411791 20.062711 4.040283
5449 6 1 -12.491997 20.360561 4.295752
5450 6 1 -13.207963 21.058696 4.295285
5451 6 1 -12.438966 21.063412 4.934520
5452 6 1 -12.253349 21.496402 4.052439
5453 6 1 -11.268523 21.448173 3.885730
5454 6 1 -11.712788 20.643334 4.279255
5455 6 1 -11.598097 20.913108 5.235324
5456 6 1 -11.839701 21.762795 5.704001
5457 6 1 -11.617641 21.901027 6.669186
5458 6 1 -11.141859 22.559184 6.085696
5459 6 1 -10.633772 21.819403 5.644593
5460 6 1 -10.324336 21.747707 4.696380
5461 6 1 -11.068983 21.378038 5.252117
5462 6 1 -11.401106 22.303592 5.433900
5463 6 1 -11.849731 23.197291 5.440044
5464 6 1 -12.381896 22.355748 5.532813
5465 6 1 -12.674912 22.722153 6.415926
5466 6 1 -12.467927 22.295933 7.296547
5467 6 1 -12.519176 22.552160 6.331290
5468 6 1 -11.775582 22.242285 6.923782
5469 6 1 -12.350556 22.208201 7.741243
5470 6 1 -11.549051 22.478824 8.274490
5471 6 1 -12.512657 22.213436 8.242339
5472 6 1 -13.474785 21.993751 8.403731
5473 6 1 -12.878003 21.923627 9.203064
5474 6 1 -11.917387 21.924643 9.480942
5475 6 1 -11.624177 22.496437 8.714731
5476 6 1 -11.262196 22.172968 7.840466
5477 6 1 -12.148289 21.918945 8.228165
5478 6 1 -12.496819 20.988483 8.115170
5479 6 1 -11.726748 20.474651 8.493281
5480 6 1 -12.226798 21.238341 8.901603
5481 6 1 -12.225271 21.652422 7.991365
5482 6 1 -12.292273 22.579877 8.359248
5483 6 1 -11.757853 23.288632 7.898746
5484 6 1 -11.623370 22.866341 7.002317
5485 6 1 -11.723937 22.263289 6.210980
5486 6 1 -12.674099 22.031678 6.002295
5487 6 1 -13.192197 21.585185 5.272761
5488 6 1 -13.658477 22.044071 4.516450
5489 6 1 -13.271758 21.246330 4.053789
5490 6 1 -12.418814 20.789296 4.305995
5491 6 1 -13.306807 20.980570 4.724184
5492 6 1 -12.538902 20.827812 4.102102
5493 6 1 -11.597216 21.065767 4.340020
5494 6 1 -12.157361 20.316770 4.693914
5495 6 1 -11.427920 20.003609 4.085763
5496 6 1 -10.664780 19.456249 4.429296
5497 6 1 -11.459372 19.405914 3.824243
5498 6 1 -11.916135 18.542661 4.039098
5499 6 1 -12.454535 18.857930 3.257605
5500 6 1 -11.663982 18.311034 2.982050
5501 6 1 -10.868080 18.382556 2.380863
5502 6 1 -11.282242 17.793743 3.074960
5503 6 1 -11.297824 17.749411 2.076064
5504 6 1 -10.809499 18.255354 2.787092
5505 6 1 -11.467073 18.913323 2.420113
5506 6 1 -11.072283 19.037346 3.330475
5507 6 1 -11.968575 19.057234 3.773493
5508 6 1 -11.004739 18.936011 4.010819
5509 6 1 -10.061798 18.672741 3.806975
5510 6 1 -10.060004 19.645443 3.574925
5511 6 1 -9.538680 18.889213 3.970321
5512 6 1 -8.654724 19.249311 4.268567
5513 6 1 -8.966157 18.741985 5.072077
5514 6 1 -8.100632 18.267592 4.911398
5515 6 1 -8.496311 17.980853 5.783876
5516 6 1 -8.983609 18.491732 6.492074
5517 6 1 -9.968245 18.599971 6.355045
5518 6 1 -10.331062 19.335601 6.927071
5519 6 1 -11.021769 18.707737 7.285833
5520 6 1 -10.275977 19.350916 7.459367
5521 6 1 -10.833775 18.520963 7.453143
5522 6 1 -10.485403 19.005207 8.255730
5523 6 1 -10.503637 19.381269 7.329314
5524 6 1 -9.593562 19.655301 7.640232
5525 6 1 -9.015798 19.755256 6.830171
5526 6 1 -9.212402 20.734968 6.791299
5527 6 1 -9.062845 19.769416 6.578359
5528 6 1 -9.529897 18.886307 6.622850
5529 6 1 -9.880133 18.261371 7.320553
5530 6 1 -9.969312 18.495827 8.288580
5531 6 1 -9.031004 18.267606 8.548378
5532 6 1 -8.947609 17.386218 9.013352
5533 6 1 -9.532192 16.577799 9.082060
5534 6 1 -9.089519 17.472597 9.023959
5535 6 1 -8.180347 17.174888 8.732795
5536 6 1 -7.544208 16.564435 9.204680
5537 6 1 -6.791377 16.145661 8.696869
5538 6 1 -6.600520 16.954397 8.140524
5539 6 1 -6.809260 16.000515 8.356245
5540 6 1 -6.151381 16.753062 8.326808
5541 6 1 -5.830504 17.582107 8.784764
5542 6 1 -5.444248 17.801448 9.680697
5543 6 1 -5.053377 17.708866 10.596474
5544 6 1 -4.947828 18.653514 10.285829
5545 6 1 -4.013455 18.864214 9.998511
5546 6 1 -4.282232 19.777955 10.303202
5547 6 1 -3.312258 19.536199 10.276661
5548 6 1 -3.714364 20.449145 10.207089
5549 6 1 -2.957286 20.546249 10.853156
5550 6 1 -2.517976 19.843453 10.293616
5551 6 1 -2.162412 20.755602 10.497477
5552 6 1 -2.045963 20.167268 9.697288
5553 6 1 -1.263984 20.754416 9.906496
5554 6 1 -0.579153 21.296958 10.392966
5555 6 1 0.018072 20.529914 10.627413
5556 6 1 -0.829053 20.921484 10.986650
5557 6 1 -0.812990 21.051464 11.978036
5558 6 1 -1.065352 21.050595 12.945669
5559 6 1 -2.009764 21.260878 13.198387
5560 6 1 -1.504952 21.588223 12.399632
5561 6 1 -1.037539 21.277058 11.572165
5562 6 1 -0.460843 21.573368 12.333494
5563 6 1 -0.111843 22.360905 12.841416
5564 6 1 -0.962456 22.742701 13.202926
5565 6 1 -1.086788 23.722546 13.046577
5566 6 1 -0.752446 23.421457 12.153515
5567 6 1 -0.792383 22.459181 11.884388
5568 6 1 -0.193844 21.667031 12.003761
5569 6 1 -0.881482 21.050545 11.620224
5570 6 1 -1.134586 20.720689 10.710756
5571 6 1 -0.624161 21.452023 11.163101
5572 6 1 0.090931 21.507308 11.859942
5573 6 1 0.684711 21.612539 12.657658
5574 6 1 0.217832 21.064032 11.963999
5575 6 1 0.497068 20.310443 12.559089
5576 6 1 -0.471273 20.063048 12.592439
5577 6 1 0.046360 19.471441 13.210546
5578 6 1 0.507745 19.484132 12.323437
5579 6 1 1.335890 19.226030 11.825883
5580 6 1 1.419449 18.322296 12.245744
5581 6 1 0.496615 18.696101 12.338733
5582 6 1 -0.294814 19.126929 12.772354
5583 6 1 -0.626715 19.496761 13.640148
5584 6 1 -1.166905 18.655787 13.609190
5585 6 1 -1.968724 18.150363 13.927989
5586 6 1 -1.237247 17.999762 14.593016
5587 6 1 -1.398191 17.229196 15.209722
5588 6 1 -1.455230 17.461914 14.238852
5589 6 1 -0.559848 17.697817 14.616529
5590 6 1 -0.736024 18.351139 13.880233
5591 6 1 -1.638963 17.924065 13.832193
5592 6 1 -0.812345 17.590783 14.285653
5593 6 1 -0.667299 17.675336 15.271458
5594 6 1 -0.732306 16.860540 15.847550
5595 6 1 -0.337286 16.017298 16.212106
5596 6 1 -0.925017 15.969692 17.019761
5597 6 1 -1.490414 15.861763 17.837488
5598 6 1 -1.514982 15.458941 18.752436
5599 6 1 -1.152011 15.843232 19.601302
5600 6 1 -1.847447 15.162186 19.372075
5601 6 1 -2.562803 14.781470 18.786139
5602 6 1 -2.077714 15.530282 18.334509
5603 6 1 -1.309195 16.120030 18.086363
5604 6 1 -1.747514 15.855446 18.945358
5605 6 1 -0.844707 16.016486 19.344113
5606 6 1 -0.582146 16.719295 18.682962
5607 6 1 -0.447509 15.731365 18.759557
5608 6 1 -0.594849 15.813351 17.773875
5609 6 1 -1.209631 16.586571 17.929357
5610 6 1 -1.531955 16.809628 18.849331
5611 6 1 -0.815230 16.230783 18.460430
5612 6 1 -1.598900 15.799417 18.907404
5613 6 1 -0.859788 15.870327 18.237564
5614 6 1 -1.855522 15.962207 18.229088
5615 6 1 -1.910700 15.970129 19.227533
5616 6 1 -2.246073 16.378116 20.076692
5617 6 1 -1.251434 16.323493 19.988886
5618 6 1 -0.700589 16.339854 19.154439
5619 6 1 -0.732878 16.170512 18.169410
5620 6 1 -1.569046 15.710682 17.870446
5621 6 1 -1.313412 16.095983 16.983770
5622 6 1 -0.667210 15.489054 17.446436
5623 6 1 -0.449595 15.197542 16.514951
5624 6 1 0.030946 14.984656 17.365692
5625 6 1 0.555569 14.617942 18.133996
5626 6 1 0.282555 15.037341 17.268221
5627 6 1 0.646665 15.437539 16.427230
5628 6 1 0.673451 16.405765 16.178590
5629 6 1 0.244392 16.931445 16.913144
5630 6 1 0.511714 17.465238 17.715393
5631 6 1 0.206623 18.387861 17.479415
5632 6 1 -0.772492 18.229402 17.606789
5633 6 1 0.165421 18.164351 17.266073
5634 6 1 0.280108 17.961899 16.293519
5635 6 1 1.083451 18.244659 15.769415
5636 6 1 1.164683 18.756929 14.914440
5637 6 1 0.232089 18.602190 14.588366
5638 6 1 -0.328855 18.322229 13.809287
5639 6 1 0.615626 18.445351 14.113913
5640 6 1 0.383437 18.631617 13.159244
5641 6 1 -0.327377 18.952830 12.533491
5642 6 1 -0.350383 17.963597 12.388957
5643 6 1 0.146348 18.818276 12.238018
5644 6 1 -0.269017 19.544382 11.690075
5645 6 1 -1.184106 19.238166 11.952454
5646 6 1 -0.738682 18.491944 12.447177
5647 6 1 -0.417968 17.599946 12.765740
5648 6 1 -0.813029 18.178585 13.479254
5649 6 1 -1.306174 17.377783 13.139366
5650 6 1 -1.912974 17.136192 12.382116
5651 6 1 -1.002338 17.309280 12.757326
5652 6 1 -1.959953 17.502798 12.543962
5653 6 1 -1.911659 17.426465 13.539874
5654 6 1 -2.473486 17.638542 12.740266
5655 6 1 -2.211643 17.609901 13.704951
5656 6 1 -2.348106 18.061351 12.823152
5657 6 1 -1.665100 18.198738 12.105777
5658 6 1 -1.953645 18.376882 11.165029
5659 6 1 -1.974308 19.192259 11.743591
5660 6 1 -1.766674 18.386189 11.189389
5661 6 1 -2.685415 18.023852 11.032456
5662 6 1 -2.083719 17.493615 10.435119
5663 6 1 -1.631434 17.302751 9.563908
5664 6 1 -1.401912 16.329941 9.594904
5665 6 1 -0.662942 16.736573 9.057713
5666 6 1 -0.850986 16.113045 9.816562
5667 6 1 -0.109477 16.233676 10.476571
5668 6 1 0.727380 15.891425 10.903812
5669 6 1 1.501857 15.734332 11.516598
5670 6 1 1.955352 14.851728 11.392693
5671 6 1 1.168111 15.201788 10.885041
5672 6 1 1.102635 15.073403 11.874602
5673 6 1 1.461947 15.148509 12.804792
5674 6 1 0.827630 15.820007 13.187851
5675 6 1 1.075460 16.560712 12.563402
5676 6 1 1.975417 16.849805 12.889748
5677 6 1 2.129005 16.946902 13.873101
5678 6 1 2.206788 16.027380 13.487834
5679 6 1 1.234204 16.210760 13.344827
5680 6 1 1.153138 15.535509 14.077947
5681 6 1 1.990899 15.200241 14.508936
5682 6 1 2.647746 15.909668 14.764408
5683 6 1 3.241156 16.689819 14.566340
5684 6 1 2.279963 16.900532 14.388269
5685 6 1 3.213202 16.607480 14.596083
5686 6 1 2.231801 16.772406 14.694331
5687 6 1 3.112569 17.067237 15.064901
5688 6 1 3.329887 16.220064 15.549742
5689 6 1 3.735397 16.672405 16.344065
5690 6 1 2.806576 16.422426 16.617566
5691 6 1 3.141218 17.324004 16.891741
5692 6 1 3.430166 17.005124 17.794417
5693 6 1 4.132069 17.468122 17.253154
5694 6 1 4.655261 16.643321 17.038742
5695 6 1 4.202152 15.797534 17.320413
5696 6 1 5.041198 15.540977 17.800185
5697 6 1 5.207364 15.105647 18.684988
5698 6 1 5.594509 14.654556 17.880851
5699 6 1 5.455455 13.973124 17.162301
5700 6 1 4.533072 14.192042 16.844049
5701 6 1 4.147682 13.566603 16.165595
5702 6 1 3.684161 13.401809 15.294968
5703 6 1 3.758584 13.909407 14.436594
5704 6 1 3.070804 14.463900 13.968091
5705 6 1 2.255897 14.956184 13.662177
5706 6 1 3.070306 14.944190 14.242344
5707 6 1 3.385126 15.703654 13.673044
5708 6 1 2.892955 15.917266 12.829161
5709 6 1 3.865193 15.872682 12.599452
5710 6 1 4.741796 15.573779 12.222326
5711 6 1 5.702560 15.304750 12.289830
5712 6 1 5.966081 16.191983 11.911183
5713 6 1 6.831988 15.720602 12.078528
5714 6 1 6.646931 16.598046 11.635983
5715 6 1 7.589190 16.317247 11.818468
5716 6 1 7.966129 17.021007 12.420663
5717 6 1 7.291924 16.283585 12.379968
5718 6 1 7.552100 15.398098 12.764963
5719 6 1 8.434545 15.549626 13.210305
5720 6 1 8.185596 16.517468 13.246458
5721 6 1 8.765497 17.156192 12.740746
5722 6 1 8.903677 17.490899 11.808610
5723 6 1 9.670545 18.087089 11.570974
5724 6 1 8.920543 17.907034 10.934517
5725 6 1 9.744106 18.459392 11.063530
5726 6 1 9.624604 19.268975 11.638243
5727 6 1 10.346201 18.624786 11.891856
5728 6 1 9.930585 19.313694 11.297996
5729 6 1 9.182095 18.682956 11.093226
5730 6 1 8.974204 19.659813 11.042918
5731 6 1 9.114927 19.925400 10.089156
5732 6 1 9.812335 19.317665 10.468998
5733 6 1 10.236738 18.715559 11.145275
5734 6 1 10.976517 19.282784 11.507190
5735 6 1 11.220069 19.778784 12.340656
5736 6 1 10.524785 20.482528 12.486683
5737 6 1 11.294612 19.961693 12.117771
5738 6 1 11.743471 19.462975 11.376282
5739 6 1 12.619186 19.840513 11.075302
5740 6 1 13.559485 20.033644 11.355548
5741 6 1 13.701926 20.382736 10.429349
5742 6 1 14.437108 19.737365 10.221975
5743 6 1 13.462622 19.621431 10.414163
5744 6 1 13.681169 20.473471 9.938488
5745 6 1 14.216659 19.928069 9.293673
5746 6 1 14.234692 20.398517 8.411429
5747 6 1 13.589366 19.771272 8.847454
5748 6 1 13.359594 20.054628 9.778536
5749 6 1 13.875775 20.263373 8.947885
5750 6 1 13.255754 20.144667 9.723438
5751 6 1 12.512289 20.171270 9.055193
5752 6 1 12.820211 20.832540 8.371156
5753 6 1 13.046299 20.484257 7.461440
5754 6 1 12.185925 20.849027 7.817390
5755 6 1 13.117962 20.493644 7.888174
5756 6 1 12.816420 20.281759 8.817786
5757 6 1 13.798996 20.127430 8.714215
5758 6 1 13.903995 20.934791 9.294857
5759 6 1 13.951959 19.964212 9.058898
5760 6 1 14.854203 19.545963 8.953902
5761 6 1 13.902296 19.838582 9.044719
5762 6 1 14.550463 19.163603 8.692182
5763 6 1 13.777542 19.795545 8.749120
5764 6 1 13.396144 19.979399 7.843176
5765 6 1 13.990530 20.412779 7.165764
5766 6 1 13.518352 19.540384 7.292158
5767 6 1 13.775016 19.075926 8.139744
5768 6 1 13.413302 19.831180 8.686328
5769 6 1 14.005049 20.583638 8.397117
5770 6 1 13.443717 19.781476 8.193540
5771 6 1 13.821642 20.692971 8.355866
5772 6 1 13.170679 19.938557 8.440157
5773 6 1 12.427132 19.316519 8.685528
5774 6 1 12.985492 20.071534 9.029311
5775 6 1 12.613253 20.940744 9.354752
5776 6 1 12.525199 21.936675 9.373917
5777 6 1 13.512643 21.792336 9.438107
5778 6 1 14.221269 22.417722 9.764820
5779 6 1 14.478195 23.373302 9.909237
5780 6 1 14.173390 22.499600 10.288366
5781 6 1 15.021440 22.011925 10.495692
5782 6 1 15.983965 21.785127 10.346999
5783 6 1 16.620030 21.437890 9.657907
5784 6 1 16.574061 20.485756 9.355702
5785 6 1 17.427487 20.099297 9.005971
5786 6 1 17.382452 19.597796 8.141987
5787 6 1 17.220991 18.634949 8.358453
5788 6 1 17.030801 19.417326 7.765397
5789 6 1 17.985562 19.392176 7.469089
5790 6 1 18.482939 18.913829 8.192830
5791 6 1 19.252543 18.519183 7.690871
5792 6 1 19.611756 19.209492 8.318914
5793 6 1 19.244651 18.719602 7.528192
5794 6 1 19.372448 18.364248 6.602238
5795 6 1 19.700301 19.248609 6.934531
5796 6 1 19.475124 19.498333 5.992760
5797 6 1 19.695399 20.349381 5.516108
5798 6 1 19.184360 19.998204 6.300655
5799 6 1 18.857558 19.053441 6.325608
5800 6 1 17.965294 18.904320 5.899430
5801 6 1 17.851322 17.982568 6.270082
5802 6 1 18.710068 18.298295 6.673657
5803 6 1 19.206154 17.462002 6.440180
5804 6 1 19.562396 17.181647 5.548837
5805 6 1 18.660067 17.282888 5.967826
5806 6 1 18.779909 17.130153 4.986852
5807 6 1 18.636332 17.480374 5.912450
5808 6 1 19.036053 17.576379 6.824045
5809 6 1 19.518441 16.734692 6.581425
5810 6 1 18.887593 15.959757 6.620230
5811 6 1 18.608045 15.569477 7.497461
5812 6 1 18.467740 16.141692 8.305474
5813 6 1 18.123839 17.006374 8.671612
5814 6 1 18.007252 17.565579 7.850821
5815 6 1 18.359743 18.018473 7.031897
5816 6 1 18.086829 18.943369 6.767159
5817 6 1 18.908575 18.469291 6.450955
5818 6 1 19.196618 17.916122 7.232642
5819 6 1 19.559186 17.916775 8.164599
5820 6 1 19.187983 18.841141 8.252669
5821 6 1 19.948926 18.717947 7.615652
5822 6 1 19.618948 19.661856 7.627931
5823 6 1 19.449552 19.355627 6.691166
5824 6 1 20.130573 19.475791 5.968829
5825 6 1 19.715771 19.803892 5.120131
5826 6 1 19.243658 19.487104 5.942782
5827 6 1 19.263946 20.161611 6.680772
5828 6 1 19.832259 20.838047 6.212313
5829 6 1 20.281605 21.697226 6.457055
5830 6 1 20.744395 22.483582 6.047825
5831 6 1 20.749172 23.434319 6.357788
5832 6 1 21.294594 23.525158 7.191013
5833 6 1 21.917230 23.308439 6.439110
5834 6 1 22.874732 23.109069 6.230685
5835 6 1 22.474634 22.391412 6.800676
5836 6 1 22.049539 22.493066 5.901253
5837 6 1 21.080077 22.542346 5.661014
5838 6 1 21.831994 23.068302 6.058496
5839 6 1 22.761388 23.268026 5.748115
5840 6 1 23.256183 24.134721 5.684725
5841 6 1 24.161459 24.558213 5.718353
5842 6 1 23.295793 24.253125 5.321434
5843 6 1 23.950296 23.813206 5.936331
5844 6 1 24.922458 23.744518 5.712319
5845 6 1 23.990239 24.032969 5.493772
5846 6 1 23.872705 23.040773 5.535391
5847 6 1 24.817656 23.068964 5.209395
5848 6 1 24.049967 23.612620 4.870143
5849 6 1 24.438268 23.813297 3.970725
5850 6 1 23.773868 23.793115 3.223621
5851 6 1 24.338201 23.027921 2.913773
5852 6 1 24.215084 22.361157 3.648802
5853 6 1 23.334351 22.516101 4.096352
5854 6 1 23.974952 22.912610 4.753932
5855 6 1 24.373429 22.026835 4.991879
5856 6 1 23.620768 22.587851 5.336497
5857 6 1 24.195636 21.796860 5.545926
5858 6 1 24.081049 20.822590 5.351846
5859 6 1 25.065590 20.650935 5.386664
5860 6 1 24.177131 21.089708 5.252061
5861 6 1 23.741578 21.796385 4.694476
5862 6 1 24.477693 21.364312 4.173468
5863 6 1 24.814149 20.852675 3.382883
5864 6 1 24.453586 21.367117 2.604845
5865 6 1 25.227945 21.815004 3.051795
5866 6 1 25.709958 21.017181 2.689660
5867 6 1 26.110736 21.695278 3.305746
5868 6 1 26.127804 21.551431 4.295199
5869 6 1 25.426683 21.620806 3.585540
5870 6 1 26.264911 21.332929 4.048682
5871 6 1 26.763702 20.532359 3.716572
5872 6 1 26.050407 20.038946 3.218823
5873 6 1 25.462544 20.843944 3.138838
5874 6 1 25.709641 21.807280 3.243362
5875 6 1 25.567595 22.765799 3.490477
5876 6 1 25.161969 21.904859 3.183475
5877 6 1 25.154904 21.089603 3.762532
5878 6 1 25.695573 21.368777 2.968971
5879 6 1 25.390897 20.665214 3.610977
5880 6 1 26.374298 20.678777 3.430038
5881 6 1 26.061017 19.729137 3.423804
5882 6 1 25.460807 19.516170 4.194773
5883 6 1 25.240966 20.428473 4.540280
5884 6 1 24.562625 21.109579 4.264696
5885 6 1 24.968511 21.121861 5.178537
5886 6 1 25.689059 21.144255 4.485494
5887 6 1 26.679942 21.116900 4.617417
5888 6 1 26.817324 20.950934 3.640902
5889 6 1 26.581538 20.353451 4.407334
5890 6 1 27.552257 20.128191 4.490777
5891 6 1 28.214516 19.504439 4.075633
5892 6 1 27.866813 20.363045 4.452326
5893 6 1 26.888942 20.523909 4.586084
5894 6 1 26.942878 19.525367 4.583792
5895 6 1 27.335586 20.393925 4.886095
5896 6 1 26.871671 20.103042 5.722857
5897 6 1 27.779873 19.878493 6.076054
5898 6 1 28.148714 19.853397 5.146900
5899 6 1 28.769215 19.388636 4.515255
5900 6 1 29.148028 18.776818 3.820863
5901 6 1 29.690145 19.338676 4.445703
5902 6 1 30.292805 19.547889 5.215788
5903 6 1 30.850541 20.304886 5.556209
5904 6 1 31.475883 20.195425 6.328845
5905 6 1 32.188251 20.888380 6.439951
5906 6 1 31.300372 20.516929 6.711417
5907 6 1 30.896764 20.281808 7.595623
5908 6 1 30.194519 19.575373 7.683948
5909 6 1 30.247751 20.546442 7.916740
5910 6 1 30.704985 20.880837 7.092655
5911 6 1 29.928629 20.251268 7.062407
5912 6 1 29.067361 20.756688 7.115012
5913 6 1 29.719950 21.494787 7.286295
5914 6 1 28.828124 21.058842 7.407123
5915 6 1 28.073872 20.927063 6.763898
5916 6 1 28.867186 21.521618 6.894884
5917 6 1 29.307718 22.418715 6.928783
5918 6 1 29.589714 23.336802 7.207340
5919 6 1 29.819115 23.011820 6.289864
5920 6 1 29.073916 23.618269 6.567169
5921 6 1 28.856250 24.263409 7.299574
5922 6 1 29.041644 23.395830 7.761023
5923 6 1 29.161599 24.373419 7.934024
5924 6 1 29.878633 23.676654 7.953517
5925 6 1 29.577099 24.196653 7.154343
5926 6 1 29.121352 23.307386 7.193050
5927 6 1 29.837056 23.989485 7.043024
5928 6 1 29.848153 24.242004 6.075496
5929 6 1 30.296661 25.133643 6.013683
5930 6 1 29.541802 24.525006 6.258118
5931 6 1 29.108592 24.396274 7.150170
5932 6 1 29.255429 23.697077 6.450484
5933 6 1 28.555682 24.188250 6.969234
5934 6 1 28.124729 24.596997 6.164744
5935 6 1 28.968674 24.639856 5.630030
5936 6 1 28.523392 25.534268 5.671867
5937 6 1 28.721378 25.276762 6.617643
5938 6 1 28.955996 24.643222 7.354923
5939 6 1 28.417202 25.277116 7.909792
5940 6 1 29.222689 25.203228 7.321803
5941 6 1 29.732770 25.997052 7.652953
5942 6 1 29.821099 26.831783 8.196481
5943 6 1 29.292422 27.166543 7.416458
5944 6 1 29.199767 26.268726 6.985946
5945 6 1 28.687789 25.409771 6.977331
5946 6 1 28.872409 25.078199 6.052141
5947 6 1 29.837193 25.012396 5.797461
5948 6 1 29.511136 25.660317 5.109068
5949 6 1 29.541874 24.879427 5.732979
5950 6 1 28.930453 24.182178 6.107158
5951 6 1 29.305923 24.926519 6.659408
5952 6 1 30.197801 24.529125 6.875349
5953 6 1 30.648517 24.762616 7.736939
5954 6 1 31.231256 25.025281 8.505979
5955 6 1 30.586481 25.357252 7.817459
5956 6 1 31.354836 24.924462 7.345947
5957 6 1 31.717008 25.003848 6.417223
5958 6 1 31.760711 26.001644 6.467169
5959 6 1 31.017439 25.869744 5.811311
5960 6 1 30.323178 26.496128 6.165775
5961 6 1 31.163953 25.974763 6.019912
5962 6 1 30.511889 26.496802 5.470105
5963 6 1 29.902402 25.779439 5.807617
5964 6 1 30.136789 25.871577 6.775384
5965 6 1 30.187147 25.553113 7.721981
5966 6 1 29.793671 25.200393 8.570960
5967 6 1 29.858197 25.421350 7.597813
5968 6 1 29.273712 24.703704 7.976446
5969 6 1 29.017812 25.270475 7.193320
5970 6 1 28.840650 25.594468 6.263996
5971 6 1 28.249187 26.334098 5.942876
5972 6 1 29.149320 26.657780 6.234406
5973 6 1 28.956086 27.584402 6.556946
5974 6 1 28.031265 27.271346 6.340838
5975 6 1 28.361038 27.193103 5.400025
5976 6 1 28.698319 26.835190 6.270738
5977 6 1 28.832193 26.196200 5.513262
5978 6 1 28.262749 25.377931 5.434709
5979 6 1 27.537131 25.136267 6.078974
5980 6 1 27.165735 24.508808 6.763343
5981 6 1 27.664205 24.814131 5.951983
5982 6 1 27.808021 24.584172 6.914498
5983 6 1 26.808534 24.557533 6.932289
5984 6 1 27.463388 24.046447 6.375551
5985 6 1 27.531159 23.051705 6.452326
5986 6 1 26.731084 22.625924 6.874927
5987 6 1 27.048148 22.950486 7.766067
5988 6 1 27.523561 23.336846 6.975682
5989 6 1 27.155293 24.168155 6.559384
5990 6 1 27.659466 24.395127 7.392626
5991 6 1 27.185298 25.195867 7.026593
5992 6 1 27.064928 25.917994 7.707800
5993 6 1 27.227452 26.832910 8.077279
5994 6 1 27.220897 27.507105 7.338755
5995 6 1 26.822536 26.596004 7.444597
5996 6 1 25.924770 26.169686 7.555370
5997 6 1 25.960628 27.168040 7.600123
5998 6 1 26.509852 26.450973 8.029272
5999 6 1 27.076573 26.297360 8.838734
6000 6 1 27.018963 27.140983 9.372570
6001 7 1 -17.138476 -21.184181 -18.378110
6002 7 1 -16.513759 -20.988144 -17.622267
6003 7 1 -15.635760 -21.044215 -18.097634
6004 7 1 -14.698245 -20.910778 -17.776292
6005 7 1 -14.712041 -21.334874 -16.870780
6006 7 1 -13.825283 -21.572864 -17.267039
6007 7 1 -13.414281 -20.860062 -17.835361
6008 7 1 -12.652161 -20.614698 -18.434502
6009 7 1 -12.837201 -19.995389 -17.671471
6010 7 1 -13.189304 -19.386322 -18.382147
6011 7 1 -12.669402 -19.406903 -19.236125
6012 7 1 -12.961881 -20.075197 -19.920113
6013 7 1 -13.944962 -19.907637 -19.994103
6014 7 1 -14.618697 -20.282847 -20.630733
6015 7 1 -13.925596 -21.002053 -20.582224
6016 7 1 -13.623005 -20.550402 -19.742909
6017 7 1 -13.773656 -21.492042 -19.441880
6018 7 1 -13.457166 -22.438342 -19.507833
6019 7 1 -12.851950 -23.228729 -19.602715
6020 7 1 -13.530690 -23.687018 -20.176547
6021 7 1 -12.559780 -23.684640 -20.415978
6022 7 1 -13.546737 -23.591838 -20.284439
6023 7 1 -13.707221 -24.355001 -20.910400
6024 7 1 -14.345456 -25.110236 -20.761148
6025 7 1 -15.109845 -24.492162 -20.944708
6026 7 1 -15.722729 -25.282188 -20.959901
6027 7 1 -14.828409 -24.996321 -21.304097
6028 7 1 -14.172305 -25.221025 -22.024538
6029 7 1 -14.894048 -25.876750 -21.802922
6030 7 1 -14.316085 -26.677881 -21.958315
6031 7 1 -15.140806 -26.764157 -21.399395
6032 7 1 -14.795331 -27.140751 -22.258944
6033 7 1 -14.544047 -26.490311 -22.975731
6034 7 1 -14.722205 -25.514152 -22.851741
6035 7 1 -15.454327 -24.836002 -22.915844
6036 7 1 -16.164078 -24.406706 -22.357311
6037 7 1 -15.867883 -24.857823 -23.199191
6038 7 1 -16.083344 -25.802900 -22.953415
6039 7 1 -15.825764 -26.303396 -22.126882
6040 7 1 -15.358929 -25.475396 -21.816270
6041 7 1 -14.596436 -25.231631 -22.415588
6042 7 1 -14.521303 -26.038818 -23.001082
6043 7 1 -14.569948 -26.669494 -23.775603
6044 7 1 -13.641049 -26.948417 -24.019219
6045 7 1 -13.512403 -27.936200 -23.931277
6046 7 1 -14.388437 -27.557645 -23.632513
6047 7 1 -14.362544 -26.562109 -23.541751
6048 7 1 -13.560261 -26.308658 -23.001284
6049 7 1 -13.047060 -25.457153 -22.893749
6050 7 1 -13.677478 -26.165950 -23.210260
6051 7 1 -13.002173 -26.451108 -23.890442
6052 7 1 -13.997398 -26.548317 -23.899330
6053 7 1 -14.856620 -27.056696 -23.956665
6054 7 1 -15.467980 -27.086847 -24.747444
6055 7 1 -15.602942 -26.114450 -24.557105
6056 7 1 -14.914557 -26.832063 -24.451478
6057 7 1 -14.067127 -27.362955 -24.455595
6058 7 1 -14.294397 -26.485569 -24.033051
6059 7 1 -14.618342 -27.376950 -23.716034
6060 7 1 -13.986717 -27.685126 -23.004642
6061 7 1 -14.527346 -28.195285 -23.673565
6062 7 1 -13.968425 -28.694209 -23.011235
6063 7 1 -14.950218 -28.504327 -23.005854
6064 7 1 -14.247984 -28.290043 -23.684787
6065 7 1 -13.453778 -28.260319 -23.077866
6066 7 1 -14.156169 -28.008843 -22.411978
6067 7 1 -13.580848 -27.574914 -23.105311
6068 7 1 -13.885901 -28.494483 -22.857654
6069 7 1 -14.585635 -27.865225 -23.195896
6070 7 1 -14.305079 -28.273316 -22.327132
6071 7 1 -13.718823 -28.853431 -22.892613
6072 7 1 -13.521455 -29.824947 -23.023769
6073 7 1 -12.889092 -30.502590 -23.399159
6074 7 1 -13.378199 -30.449028 -22.528581
6075 7 1 -13.073889 -31.160237 -23.162282
6076 7 1 -12.932665 -30.262023 -23.578535
6077 7 1 -13.828025 -30.596231 -23.872874
6078 7 1 -13.398844 -31.315697 -23.326823
6079 7 1 -13.923427 -30.655601 -22.789157
6080 7 1 -13.423931 -30.573399 -23.651564
6081 7 1 -14.384841 -30.364383 -23.833126
6082 7 1 -14.588356 -29.403990 -24.023456
6083 7 1 -14.076190 -28.671678 -23.574675
6084 7 1 -14.501922 -27.848830 -23.951070
6085 7 1 -14.318508 -27.598967 -24.901821
6086 7 1 -14.390878 -27.187536 -23.993258
6087 7 1 -13.599767 -26.842400 -24.498257
6088 7 1 -12.737519 -27.177703 -24.877862
6089 7 1 -12.668124 -27.324872 -25.864536
6090 7 1 -12.130036 -26.500842 -25.687236
6091 7 1 -12.044449 -26.226639 -24.729381
6092 7 1 -12.633294 -26.111913 -23.929319
6093 7 1 -12.983110 -25.754900 -24.795443
6094 7 1 -12.530967 -24.961764 -24.387396
6095 7 1 -12.093175 -25.605814 -25.014722
6096 7 1 -12.920732 -25.052982 -25.112327
6097 7 1 -12.101880 -25.173292 -24.551072
6098 7 1 -11.344381 -25.139637 -25.203040
6099 7 1 -11.106803 -25.803152 -24.493601
6100 7 1 -11.305555 -25.540433 -23.549421
6101 7 1 -11.965951 -25.998749 -22.954589
6102 7 1 -12.957479 -26.042069 -23.077043
6103 7 1 -12.538502 -26.214912 -22.185648
6104 7 1 -13.007911 -26.219337 -23.068619
6105 7 1 -12.697998 -27.138651 -22.826097
6106 7 1 -13.047302 -26.226583 -22.611346
6107 7 1 -12.499900 -26.900977 -22.115823
6108 7 1 -12.056116 -26.623985 -21.263572
6109 7 1 -12.022401 -25.786647 -21.809216
6110 7 1 -12.962370 -25.925565 -22.120922
6111 7 1 -12.527306 -26.143290 -22.994602
6112 7 1 -12.798956 -27.105597 -23.007676
6113 7 1 -12.736898 -28.075074 -22.770478
6114 7 1 -13.694386 -28.222466 -22.522501
6115 7 1 -13.747089 -27.613264 -21.731240
6116 7 1 -14.499843 -26.960339 -21.815214
6117 7 1 -14.334348 -27.168878 -22.779124
6118 7 1 -15.200658 -27.132324 -22.280956
6119 7 1 -14.477028 -26.705806 -22.823581
6120 7 1 -13.645052 -26.302157 -23.204218
6121 7 1 -13.118947 -25.460074 -23.322995
6122 7 1 -13.126809 -26.247982 -23.938738
6123 7 1 -13.581399 -26.492771 -23.082335
6124 7 1 -14.432576 -27.008880 -23.177884
6125 7 1 -15.025958 -27.617118 -22.650681
6126 7 1 -15.033788 -26.837833 -23.277302
6127 7 1 -14.673795 -26.463766 -22.422621
6128 7 1 -14.592030 -25.686762 -21.798458
6129 7 1 -14.595392 -26.542547 -22.315779
6130 7 1 -15.316450 -26.888430 -21.715413
6131 7 1 -14.701548 -27.634286 -21.459299
6132 7 1 -14.374822 -27.170882 -22.283015
6133 7 1 -15.275159 -26.771515 -22.455931
6134 7 1 -15.416936 -25.910787 -22.944856
6135 7 1 -16.115659 -26.268189 -22.325139
6136 7 1 -16.519336 -25.593512 -21.707195
6137 7 1 -15.601473 -25.958114 -21.550373
6138 7 1 -15.024562 -26.644737 -21.107969
6139 7 1 -15.800737 -26.470991 -21.714074
6140 7 1 -15.318285 -26.549303 -22.586489
6141 7 1 -15.756891 -26.036083 -23.324209
6142 7 1 -16.745236 -26.180457 -23.372469
6143 7 1 -16.903818 -26.069568 -22.391370
6144 7 1 -16.260296 -25.327067 -22.577302
6145 7 1 -15.641000 -25.907183 -23.106394
6146 7 1 -16.605058 -26.159245 -23.022383
6147 7 1 -17.414042 -26.232645 -22.439153
6148 7 1 -17.090785 -25.982896 -21.526393
6149 7 1 -16.290318 -26.551623 -21.715609
6150 7 1 -17.066327 -26.989216 -22.169836
6151 7 1 -17.360099 -27.925270 -22.363492
6152 7 1 -17.447565 -28.806729 -22.827582
6153 7 1 -16.999430 -28.417460 -23.632346
6154 7 1 -17.772868 -28.830599 -23.151606
6155 7 1 -17.106540 -29.380607 -23.655092
6156 7 1 -17.009085 -30.346529 -23.415305
6157 7 1 -17.670312 -30.738514 -22.775675
6158 7 1 -17.716277 -31.555297 -22.200564
6159 7 1 -18.119539 -32.468010 -22.266404
6160 7 1 -17.277969 -32.720129 -22.744103
6161 7 1 -16.916762 -32.275696 -23.563865
6162 7 1 -17.221632 -31.393986 -23.203807
6163 7 1 -16.261971 -31.673223 -23.236640
6164 7 1 -16.705145 -32.519194 -22.940111
6165 7 1 -17.481202 -32.641777 -23.558745
6166 7 1 -17.605948 -33.069347 -22.663412
6167 7 1 -17.757772 -34.027683 -22.905364
6168 7 1 -18.691977 -33.898823 -23.238017
6169 7 1 -18.244621 -34.575239 -22.652923
6170 7 1 -19.146206 -34.893081 -22.359459
6171 7 1 -18.760573 -35.546555 -21.708107
6172 7 1 -19.326796 -35.123815 -21.000518
6173 7 1 -18.684443 -35.636552 -20.430885
6174 7 1 -17.696892 -35.541127 -20.305837
6175 7 1 -17.287304 -36.284829 -20.834179
6176 7 1 -16.822509 -35.407504 -20.953623
6177 7 1 -17.475137 -35.251243 -21.695014
6178 7 1 -16.801895 -34.889436 -22.339871
6179 7 1 -16.161450 -34.285459 -22.814258
6180 7 1 -17.016292 -33.767913 -22.776961
6181 7 1 -17.485034 -33.170598 -23.427727
6182 7 1 -16.990778 -32.394761 -23.819886
6183 7 1 -17.711681 -31.702690 -23.856458
6184 7 1 -18.572504 -31.259501 -24.106594
6185 7 1 -17.982332 -32.054846 -23.968300
6186 7 1 -17.660446 -31.662967 -24.830170
6187 7 1 -18.479074 -31.360921 -24.341688
6188 7 1 -18.397274 -30.875454 -25.212108
6189 7 1 -18.907811 -30.345042 -24.535341
6190 7 1 -18.031198 -30.176954 -24.986224
6191 7 1 -18.955155 -30.079886 -24.616250
6192 7 1 -18.520836 -29.628654 -25.395838
6193 7 1 -18.153275 -29.181884 -24.580181
6194 7 1 -17.672478 -28.595565 -25.232151
6195 7 1 -18.335957 -29.215323 -24.812990
6196 7 1 -18.304261 -29.960424 -25.479188
6197 7 1 -17.974357 -30.869730 -25.225562
6198 7 1 -17.756441 -29.894682 -25.183216
6199 7 1 -18.530761 -29.270790 -25.077448
6200 7 1 -18.589095 -30.174820 -24.653980
6201 7 1 -19.325422 -30.617351 -25.165829
6202 7 1 -18.681447 -30.206129 -25.810959
6203 7 1 -18.543678 -31.069649 -25.325827
6204 7 1 -18.145119 -31.211529 -24.419725
6205 7 1 -17.339500 -31.803216 -24.390006
6206 7 1 -17.788903 -32.466013 -24.988953
6207 7 1 -18.494304 -33.113623 -24.700836
6208 7 1 -18.237967 -33.682708 -25.482138
6209 7 1 -18.095669 -33.339236 -24.553818
6210 7 1 -17.970255 -33.062634 -25.506584
6211 7 1 -18.360128 -32.578517 -26.289929
6212 7 1 -18.682607 -31.709704 -25.914202
6213 7 1 -18.721769 -30.745271 -25.652793
6214 7 1 -19.633643 -30.978121 -25.990829
6215 7 1 -18.679501 -31.251033 -26.113844
6216 7 1 -19.393231 -31.935032 -26.264626
6217 7 1 -19.672914 -31.237827 -25.604563
6218 7 1 -19.539720 -32.157069 -25.234086
6219 7 1 -20.489671 -32.078093 -24.931833
6220 7 1 -19.550794 -32.416116 -24.866625
6221 7 1 -19.584666 -33.298993 -24.398244
6222 7 1 -19.925984 -32.884541 -25.241886
6223 7 1 -19.362475 -32.058933 -25.270692
6224 7 1 -18.433077 -31.957034 -24.915959
6225 7 1 -19.175059 -31.675547 -25.524422
6226 7 1 -19.909845 -32.262017 -25.865221
6227 7 1 -18.922967 -32.423179 -25.855290
6228 7 1 -19.274731 -32.521125 -26.786240
6229 7 1 -19.142900 -32.393352 -27.769243
6230 7 1 -20.069530 -32.769307 -27.772945
6231 7 1 -20.576119 -33.622591 -27.649351
6232 7 1 -21.403325 -33.347646 -27.159316
6233 7 1 -22.351385 -33.129098 -26.928187
6234 7 1 -22.122537 -32.499758 -26.185517
6235 7 1 -21.424624 -31.783888 -26.206668
6236 7 1 -21.558470 -30.989930 -25.613612
6237 7 1 -21.451532 -30.265531 -24.932575
6238 7 1 -20.532389 -30.038169 -24.610890
6239 7 1 -19.781150 -29.470167 -24.274714
6240 7 1 -20.477440 -29.600696 -23.568922
6241 7 1 -20.373478 -28.827749 -22.943027
6242 7 1 -21.244306 -28.589921 -22.512798
6243 7 1 -21.800460 -29.418952 -22.454492
6244 7 1 -21.797866 -28.427540 -22.323744
6245 7 1 -21.317006 -27.766512 -21.747710
6246 7 1 -21.947589 -27.251897 -22.328689
6247 7 1 -22.362288 -26.618907 -22.982407
6248 7 1 -23.084625 -27.307690 -22.920713
6249 7 1 -23.151651 -26.658063 -22.163420
6250 7 1 -24.099076 -26.976186 -22.197822
6251 7 1 -23.694565 -26.529647 -22.995929
6252 7 1 -23.984576 -27.417970 -22.639873
6253 7 1 -24.280595 -26.506903 -22.926805
6254 7 1 -24.664804 -27.166969 -22.281284
6255 7 1 -25.357596 -27.721985 -21.820853
6256 7 1 -25.994874 -27.466684 -21.093736
6257 7 1 -25.138523 -26.997827 -20.877320
6258 7 1 -24.288255 -26.738930 -20.419045
6259 7 1 -24.413620 -26.980989 -21.381173
6260 7 1 -23.803951 -26.885950 -20.594235
6261 7 1 -24.509202 -27.573754 -20.766126
6262 7 1 -25.306408 -27.775989 -21.334952
6263 7 1 -25.627679 -27.764178 -20.388039
6264 7 1 -25.036063 -28.564392 -20.486258
6265 7 1 -25.122948 -27.948951 -21.269638
6266 7 1 -25.842493 -27.625069 -21.883930
6267 7 1 -25.029025 -28.206432 -21.900877
6268 7 1 -24.661785 -27.448214 -21.362137
6269 7 1 -24.902823 -26.667408 -21.938542
6270 7 1 -25.060647 -26.013723 -22.678670
6271 7 1 -24.367591 -26.600432 -22.259808
6272 7 1 -24.159858 -25.788175 -21.714754
6273 7 1 -25.033256 -25.773103 -21.227980
6274 7 1 -25.157592 -25.263454 -22.079331
6275 7 1 -25.594658 -24.375748 -21.934580
6276 7 1 -25.495241 -24.129101 -20.970588
6277 7 1 -26.112291 -23.342901 -20.936830
6278 7 1 -26.131475 -23.881998 -20.094805
6279 7 1 -25.488086 -24.587379 -20.392274
6280 7 1 -25.852881 -24.063818 -21.162214
6281 7 1 -26.774420 -24.367561 -20.920334
6282 7 1 -27.345029 -24.965552 -20.357474
6283 7 1 -26.483090 -25.432259 -20.555583
6284 7 1 -26.887459 -26.103457 -19.934312
6285 7 1 -27.731325 -26.614544 -20.097658
6286 7 1 -27.485210 -26.151419 -19.246222
6287 7 1 -26.650580 -26.592853 -19.575659
6288 7 1 -26.385148 -25.898074 -18.907208
6289 7 1 -26.588708 -26.221609 -17.983147
6290 7 1 -26.161268 -25.318362 -17.945192
6291 7 1 -26.314897 -24.948873 -18.861640
6292 7 1 -25.553764 -25.372784 -19.352533
6293 7 1 -25.531756 -26.279059 -19.774648
6294 7 1 -24.764062 -26.915320 -19.698375
6295 7 1 -25.174531 -26.427977 -18.927653
6296 7 1 -26.144411 -26.236280 -18.777368
6297 7 1 -25.565222 -25.493424 -18.441651
6298 7 1 -25.202007 -25.762340 -17.549598
6299 7 1 -24.592092 -26.543786 -17.681301
6300 7 1 -24.613042 -27.429813 -18.144461
6301 7 1 -24.990188 -26.985906 -17.331621
6302 7 1 -24.794916 -26.174919 -17.883137
6303 7 1 -24.618374 -26.515473 -16.959635
6304 7 1 -25.603257 -26.634343 -17.085632
6305 7 1 -25.902309 -27.413534 -16.534788
6306 7 1 -26.472913 -27.300466 -17.348193
6307 7 1 -27.195411 -27.823746 -17.800050
6308 7 1 -26.530023 -28.446550 -18.211601
6309 7 1 -27.083814 -28.149484 -17.433740
6310 7 1 -27.548378 -28.371252 -16.576419
6311 7 1 -26.554604 -28.271114 -16.625259
6312 7 1 -27.416129 -28.498703 -16.171412
6313 7 1 -27.634017 -29.465123 -16.307636
6314 7 1 -28.299585 -28.721894 -16.375669
6315 7 1 -28.169178 -27.753339 -16.587553
6316 7 1 -29.078166 -27.626652 -16.190450
6317 7 1 -29.624959 -27.320888 -16.969890
6318 7 1 -30.162989 -27.024632 -16.180741
6319 7 1 -30.422942 -26.072441 -16.341229
6320 7 1 -31.194439 -26.378981 -15.783712
6321 7 1 -30.857009 -25.470045 -15.538812
6322 7 1 -30.249961 -24.806545 -15.976144
6323 7 1 -30.924229 -24.915597 -15.245754
6324 7 1 -30.034676 -25.309999 -15.476280
6325 7 1 -30.385610 -25.520384 -14.563820
6326 7 1 -30.372313 -26.304398 -15.184420
6327 7 1 -31.249559 -25.824395 -15.178433
6328 7 1 -30.499597 -25.232217 -15.473191
6329 7 1 -31.111344 -25.839770 -14.966591
6330 7 1 -30.126236 -25.929122 -15.113484
6331 7 1 -30.215718 -26.339527 -16.020987
6332 7 1 -30.631064 -27.247775 -16.071714
6333 7 1 -31.075502 -27.832094 -15.392711
6334 7 1 -31.788590 -27.258241 -14.989972
6335 7 1 -30.993625 -27.864059 -14.958098
6336 7 1 -30.390647 -27.665125 -15.730654
6337 7 1 -29.701569 -28.279110 -16.115613
6338 7 1 -29.768838 -29.164096 -16.576347
6339 7 1 -30.526274 -29.751182 -16.290656
6340 7 1 -29.823146 -29.396074 -15.674613
6341 7 1 -29.954474 -29.730611 -16.607800
6342 7 1 -29.073557 -29.763890 -16.135701
6343 7 1 -28.952372 -28.869916 -16.567122
6344 7 1 -29.181949 -29.715851 -17.048461
6345 7 1 -28.906942 -29.804587 -18.005800
6346 7 1 -29.887968 -29.611946 -17.983934
6347 7 1 -30.542014 -28.893896 -18.221898
6348 7 1 -30.547870 -28.142014 -17.562626
6349 7 1 -31.340478 -28.295014 -16.972401
6350 7 1 -31.193043 -27.371007 -17.325208
6351 7 1 -30.229433 -27.436973 -17.584252
6352 7 1 -30.087007 -26.598306 -18.109945
6353 7 1 -30.247173 -27.465562 -18.581340
6354 7 1 -30.585752 -28.402289 -18.492421
6355 7 1 -30.131902 -28.746423 -19.314365
6356 7 1 -29.555982 -28.068316 -19.770968
6357 7 1 -30.027995 -27.200109 -19.924003
6358 7 1 -30.289460 -27.655250 -20.775169
6359 7 1 -29.721933 -27.715209 -21.596337
6360 7 1 -29.272176 -26.830301 -21.475277
6361 7 1 -29.033145 -27.747008 -21.155100
6362 7 1 -29.309885 -28.242941 -21.978182
6363 7 1 -29.242852 -27.248685 -22.061629
6364 7 1 -28.911847 -28.057761 -22.547254
6365 7 1 -28.317284 -27.730495 -21.812821
6366 7 1 -27.647444 -28.319039 -21.360129
6367 7 1 -27.628692 -29.073123 -22.016639
6368 7 1 -27.700643 -28.247431 -21.457125
6369 7 1 -27.312627 -29.168351 -21.493867
6370 7 1 -26.791142 -28.404863 -21.874839
6371 7 1 -27.656112 -28.816063 -21.587190
6372 7 1 -27.654429 -28.088694 -20.900946
6373 7 1 -28.156394 -27.755088 -20.102987
6374 7 1 -28.686185 -28.209376 -19.386786
6375 7 1 -29.568450 -27.831374 -19.667363
6376 7 1 -29.564753 -27.906236 -18.670176
6377 7 1 -29.041714 -27.701087 -17.842926
6378 7 1 -29.193482 -28.271501 -18.650140
6379 7 1 -28.301552 -28.500331 -19.040136
6380 7 1 -27.731941 -27.894080 -18.485156
6381 7 1 -27.397711 -28.252532 -17.613489
6382 7 1 -26.404845 -28.297291 -17.724009
6383 7 1 -27.269194 -28.595884 -17.319357
6384 7 1 -26.443161 -28.770216 -17.855340
6385 7 1 -25.890573 -29.597364 -17.753000
6386 7 1 -25.566461 -30.542644 -17.715635
6387 7 1 -26.387689 -30.174243 -18.151371
6388 7 1 -27.240780 -29.873327 -17.725126
6389 7 1 -27.603038 -28.969943 -17.954620
6390 7 1 -28.536234 -28.714242 -18.207134
6391 7 1 -28.871113 -27.780825 -18.335926
6392 7 1 -28.237577 -28.236961 -18.960882
6393 7 1 -28.565273 -28.924111 -18.312468
6394 7 1 -29.523613 -28.887466 -18.029196
6395 7 1 -30.388274 -28.637994 -18.465228
6396 7 1 -30.761834 -29.419775 -17.965956
6397 7 1 -31.559010 -30.011739 -17.847259
6398 7 1 -30.759437 -29.618998 -17.392906
6399 7 1 -31.384345 -28.849388 -17.524022
6400 7 1 -31.461531 -27.988206 -17.021620
6401 7 1 -31.110186 -28.863877 -16.690324
6402 7 1 -30.542313 -28.646567 -15.896411
6403 7 1 -30.743071 -28.121860 -15.069140
6404 7 1 -30.685876 -28.309359 -14.088542
6405 7 1 -30.297725 -27.614499 -14.693941
6406 7 1 -29.772577 -27.020249 -14.084773
6407 7 1 -29.211053 -26.193029 -14.064802
6408 7 1 -28.355939 -26.453790 -14.512891
6409 7 1 -27.828024 -27.175328 -14.960874
6410 7 1 -27.778674 -27.295848 -13.969391
6411 7 1 -27.245819 -26.495974 -14.245558
6412 7 1 -27.432953 -27.426320 -14.560896
6413 7 1 -26.836903 -27.875500 -13.895343
6414 7 1 -26.575117 -28.652912 -14.467267
6415 7 1 -26.811005 -27.931612 -15.118484
6416 7 1 -27.788864 -28.094687 -14.987339
6417 7 1 -27.675650 -27.665067 -15.883224
6418 7 1 -27.802731 -27.328601 -14.950142
6419 7 1 -26.884897 -27.315531 -14.553395
6420 7 1 -27.382089 -26.798667 -15.250281
6421 7 1 -28.192316 -27.353587 -15.061614
6422 7 1 -27.621389 -27.348791 -14.240628
6423 7 1 -27.036821 -26.647469 -13.832673
6424 7 1 -26.613097 -26.510990 -12.937222
6425 7 1 -26.296244 -26.856358 -12.053862
6426 7 1 -25.411345 -26.874695 -12.519284
6427 7 1 -25.387714 -27.689421 -11.939919
6428 7 1 -25.497443 -26.879049 -11.364371
6429 7 1 -25.556394 -26.775292 -12.357225
6430 7 1 -25.544625 -27.521202 -11.691283
6431 7 1 -25.714595 -26.673541 -12.193858
6432 7 1 -26.187446 -27.109364 -11.428044
6433 7 1 -25.323212 -27.067174 -10.926726
6434 7 1 -26.177852 -26.775220 -11.356090
6435 7 1 -25.251619 -27.143859 -11.277362
6436 7 1 -25.752929 -27.690982 -11.947695
6437 7 1 -25.034108 -27.345637 -11.344342
6438 7 1 -24.352649 -27.466892 -12.066083
6439 7 1 -24.839972 -28.324982 -12.227940
6440 7 1 -25.101517 -28.591757 -11.300349
6441 7 1 -25.957465 -28.505348 -11.810139
6442 7 1 -26.205039 -28.716222 -10.864497
6443 7 1 -26.499728 -28.624029 -9.913361
6444 7 1 -25.607752 -28.315720 -9.582721
6445 7 1 -24.699022 -27.900648 -9.626607
6446 7 1 -25.269347 -28.566680 -9.145847
6447 7 1 -25.235281 -27.586830 -9.342652
6448 7 1 -24.345571 -27.211134 -9.083289
6449 7 1 -23.374476 -26.998466 -8.974907
6450 7 1 -24.180981 -27.056912 -9.563238
6451 7 1 -23.300032 -26.964037 -10.027247
6452 7 1 -23.838406 -27.263923 -9.239705
6453 7 1 -23.271839 -27.416976 -8.430028
6454 7 1 -23.376439 -28.398591 -8.589681
6455 7 1 -23.514361 -29.213682 -9.152358
6456 7 1 -23.158961 -30.143633 -9.246597
6457 7 1 -22.807347 -30.986615 -9.653721
6458 7 1 -23.354122 -30.709844 -8.863509
6459 7 1 -23.051761 -31.565400 -8.443270
6460 7 1 -23.661825 -31.478836 -9.230880
6461 7 1 -22.709420 -31.321826 -9.492170
6462 7 1 -22.621031 -30.660652 -10.237178
6463 7 1 -22.203002 -30.654599 -11.145591
6464 7 1 -21.939055 -29.875907 -11.714775
6465 7 1 -22.758086 -30.449633 -11.719801
6466 7 1 -22.035735 -30.318736 -11.040777
6467 7 1 -22.561234 -30.937622 -10.456970
6468 7 1 -21.592160 -31.181984 -10.422571
6469 7 1 -21.622934 -30.370354 -9.839210
6470 7 1 -21.504043 -30.432023 -10.830200
6471 7 1 -20.861585 -31.041893 -11.294210
6472 7 1 -21.653224 -31.366253 -11.811993
6473 7 1 -22.160364 -32.201526 -11.599561
6474 7 1 -22.100331 -33.070542 -11.108432
6475 7 1 -22.570460 -32.188781 -11.146876
6476 7 1 -22.360816 -32.710439 -10.319880
6477 7 1 -21.364332 -32.637741 -10.278232
6478 7 1 -21.769319 -33.259879 -9.608210
6479 7 1 -21.026280 -33.890585 -9.832047
6480 7 1 -21.558758 -34.728174 -9.954159
6481 7 1 -21.876705 -35.102769 -9.083189
6482 7 1 -22.846361 -35.310950 -8.955015
6483 7 1 -23.392820 -36.146443 -8.897268
6484 7 1 -23.242515 -35.750409 -9.803119
6485 7 1 -23.403352 -35.427367 -8.870502
6486 7 1 -22.866554 -36.270796 -8.848710
6487 7 1 -23.191883 -35.867693 -7.993334
6488 7 1 -22.389509 -36.291562 -7.573177
6489 7 1 -22.728586 -36.956194 -8.238979
6490 7 1 -23.441726 -36.377654 -7.843097
6491 7 1 -24.417864 -36.412149 -7.628701
6492 7 1 -23.906695 -35.625891 -7.975840
6493 7 1 -23.698974 -36.594674 -8.111167
6494 7 1 -24.093988 -37.250749 -8.754230
6495 7 1 -24.345374 -37.162744 -9.718108
6496 7 1 -24.782932 -36.814398 -10.547081
6497 7 1 -24.121058 -37.434908 -10.126499
6498 7 1 -24.034246 -36.756572 -9.396894
6499 7 1 -24.588614 -36.271352 -8.720701
6500 7 1 -25.382686 -35.696752 -8.522496
6501 7 1 -25.947308 -34.912384 -8.265651
6502 7 1 -26.733747 -35.436457 -8.592549
6503 7 1 -26.762083 -35.653866 -9.568219
6504 7 1 -27.621053 -35.644388 -9.056279
6505 7 1 -26.880245 -36.012555 -9.618113
6506 7 1 -27.514009 -35.390425 -9.158442
6507 7 1 -28.068273 -36.221657 -9.201397
6508 7 1 -28.487199 -36.009319 -8.318554
6509 7 1 -28.588342 -36.819921 -7.741757
6510 7 1 -27.733470 -36.318033 -7.610217
6511 7 1 -27.853805 -36.116216 -8.582220
6512 7 1 -27.483269 -36.188971 -7.656256
6513 7 1 -28.471010 -36.103200 -7.525830
6514 7 1 -29.123458 -35.921444 -8.261545
6515 7 1 -29.064357 -36.862274 -8.595231
6516 7 1 -29.047168 -37.469216 -7.800671
6517 7 1 -28.890005 -38.385071 -8.170144
6518 7 1 -28.285890 -38.175595 -7.401272
6519 7 1 -28.885554 -38.005941 -6.619209
6520 7 1 -29.539414 -38.006075 -7.375825
6521 7 1 -29.598958 -37.047505 -7.097260
6522 7 1 -29.525424 -37.285057 -6.128672
6523 7 1 -29.918481 -36.401536 -5.873924
6524 7 1 -29.373009 -35.727187 -6.371634
6525 7 1 -28.558590 -35.248757 -6.700001
6526 7 1 -28.753794 -35.540561 -7.636348
6527 7 1 -29.736761 -35.650931 -7.489394
6528 7 1 -29.147929 -35.456858 -6.704784
6529 7 1 -29.568756 -35.312937 -5.809133
6530 7 1 -29.774428 -34.530149 -6.396451
6531 7 1 -29.201742 -33.793256 -6.755643
6532 7 1 -28.229834 -33.581946 -6.859287
6533 7 1 -27.326592 -33.475842 -6.443478
6534 7 1 -27.529383 -34.100030 -5.688982
6535 7 1 -27.093855 -34.358949 -6.551117
6536 7 1 -27.896364 -34.907214 -6.786459
6537 7 1 -28.703141 -35.145559 -6.245809
6538 7 1 -28.318259 -34.261327 -5.981233
6539 7 1 -28.670563 -33.363829 -6.246525
6540 7 1 -28.130535 -32.665405 -5.776871
6541 7 1 -28.868539 -32.082665 -6.117113
6542 7 1 -28.283754 -32.888935 -6.027915
6543 7 1 -27.948338 -33.589610 -6.657638
6544 7 1 -27.326717 -34.166202 -7.187852
6545 7 1 -26.459845 -33.681314 -7.072024
6546 7 1 -25.709597 -33.943601 -6.465119
6547 7 1 -24.983485 -33.259290 -6.532045
6548 7 1 -24.546393 -32.705109 -5.823642
6549 7 1 -24.779974 -32.949294 -4.882465
6550 7 1 -24.714869 -31.974537 -4.668899
6551 7 1 -24.567231 -32.777229 -4.091068
6552 7 1 -24.754384 -31.907496 -3.634409
6553 7 1 -24.085935 -31.607402 -4.314938
6554 7 1 -23.664129 -32.313104 -3.745670
6555 7 1 -23.783027 -31.595718 -3.059215
6556 7 1 -23.654258 -30.604044 -3.058301
6557 7 1 -23.450182 -29.626349 -3.008641
6558 7 1 -24.352195 -29.199987 -2.940905
6559 7 1 -24.733256 -29.815632 -2.251141
6560 7 1 -25.159451 -28.962120 -1.951350
6561 7 1 -25.804499 -28.795707 -1.205550
6562 7 1 -26.099497 -29.738023 -1.047385
6563 7 1 -25.122166 -29.886003 -1.198801
6564 7 1 -25.588974 -29.001646 -1.200729
6565 7 1 -25.347153 -28.268302 -0.565332
6566 7 1 -26.091636 -27.817222 -1.057544
6567 7 1 -27.033289 -27.999687 -0.774708
6568 7 1 -27.123300 -28.691556 -1.491098
6569 7 1 -26.880828 -28.913270 -2.435582
6570 7 1 -27.822705 -29.151475 -2.672490
6571 7 1 -28.782858 -29.236234 -2.406175
6572 7 1 -28.015548 -28.716956 -2.782457
6573 7 1 -28.592338 -28.398942 -3.534907
6574 7 1 -28.911532 -27.658026 -4.125803
6575 7 1 -28.947585 -28.619806 -3.854361
6576 7 1 -29.813793 -28.422636 -3.395223
6577 7 1 -29.605357 -27.831751 -2.615858
6578 7 1 -30.278824 -28.259986 -2.013316
6579 7 1 -29.936387 -27.356682 -1.754898
6580 7 1 -29.419286 -27.577099 -0.927842
6581 7 1 -29.199249 -26.731859 -1.414827
6582 7 1 -29.780760 -26.847112 -2.220161
6583 7 1 -30.575631 -27.204618 -2.710435
6584 7 1 -29.691017 -27.665870 -2.641834
6585 7 1 -30.137592 -28.547274 -2.487893
6586 7 1 -29.522181 -27.783904 -2.684198
6587 7 1 -28.611470 -27.439827 -2.912710
6588 7 1 -28.133966 -27.807391 -2.114658
6589 7 1 -28.579793 -28.210458 -2.913891
6590 7 1 -28.373513 -28.976617 -3.522537
6591 7 1 -28.101878 -28.017232 -3.598658
6592 7 1 -28.725470 -27.378121 -4.048847
6593 7 1 -28.568628 -26.943627 -3.161934
6594 7 1 -28.503675 -26.108394 -2.615887
6595 7 1 -27.714134 -26.262678 -2.021899
6596 7 1 -28.386156 -26.930987 -1.702918
6597 7 1 -27.605046 -27.554744 -1.674743
6598 7 1 -26.966895 -28.260029 -1.983509
6599 7 1 -26.485138 -29.070634 -1.650600
6600 7 1 -25.974929 -28.949470 -0.799127
6601 7 1 -25.020737 -29.001357 -0.504467
6602 7 1 -25.710509 -29.534105 -0.014167
6603 7 1 -25.518420 -28.986726 0.800375
6604 7 1 -25.717057 -28.062204 0.475102
6605 7 1 -25.038357 -28.695074 0.847716
6606 7 1 -25.052230 -29.664746 0.603700
6607 7 1 -25.453449 -30.579325 0.654385
6608 7 1 -25.748701 -30.314928 1.572492
6609 7 1 -25.947030 -30.702276 2.472840
6610 7 1 -26.406956 -31.371428 3.056539
6611 7 1 -27.284711 -30.953906 2.821545
6612 7 1 -27.838010 -30.571734 2.081407
6613 7 1 -27.484230 -31.492427 2.246222
6614 7 1 -27.488128 -31.846899 1.311164
6615 7 1 -28.485419 -31.854907 1.384287
6616 7 1 -27.816809 -31.304878 0.883859
6617 7 1 -28.299777 -32.165848 0.724262
6618 7 1 -28.238245 -31.760084 -0.187642
6619 7 1 -27.626456 -32.547770 -0.115084
6620 7 1 -26.725201 -32.957042 -0.257342
6621 7 1 -27.584126 -32.611515 0.120627
6622 7 1 -27.401197 -32.251901 -0.794367
6623 7 1 -26.988304 -31.886003 0.039682
6624 7 1 -27.348848 -31.959252 -0.890179
6625 7 1 -28.310610 -31.685366 -0.891549
6626 7 1 -28.858989 -31.364003 -0.119535
6627 7 1 -29.627805 -30.737474 0.008465
6628 7 1 -29.426665 -29.811689 -0.311636
6629 7 1 -29.167457 -30.761438 -0.136173
6630 7 1 -28.434094 -30.154459 0.170023
6631 7 1 -29.288075 -29.634933 0.141548
6632 7 1 -30.100279 -29.273536 0.599496
6633 7 1 -29.609105 -29.309417 -0.270826
6634 7 1 -29.832678 -28.334735 -0.273855
6635 7 1 -29.026273 -27.746555 -0.335141
6636 7 1 -28.546133 -27.148777 0.306830
6637 7 1 -29.504899 -26.976926 0.533183
6638 7 1 -29.228018 -27.832484 0.095738
6639 7 1 -28.758925 -26.950214 0.135106
6640 7 1 -29.188545 -26.104256 0.450990
6641 7 1 -28.199825 -26.249661 0.486923
6642 7 1 -28.007185 -25.878303 -0.421363
6643 7 1 -28.076123 -26.865969 -0.280783
6644 7 1 -28.604745 -26.114166 0.113362
6645 7 1 -27.995295 -25.463972 0.567035
6646 7 1 -28.615359 -25.617200 1.336477
6647 7 1 -29.101139 -26.223545 1.966052
6648 7 1 -28.190640 -26.095388 1.572900
6649 7 1 -28.857010 -26.767373 1.249808
6650 7 1 -28.428669 -26.980327 0.371643
6651 7 1 -28.509267 -27.232921 1.335852
6652 7 1 -28.107388 -27.226792 0.420180
6653 7 1 -28.986483 -27.384047 -0.029778
6654 7 1 -28.445122 -26.863772 -0.690264
6655 7 1 -27.686437 -27.515216 -0.685925
6656 7 1 -27.179456 -28.376929 -0.665429
6657 7 1 -27.482663 -27.500055 -1.038467
6658 7 1 -28.154931 -26.849380 -0.685368
6659 7 1 -27.595821 -27.002800 -1.500143
6660 7 1 -27.186613 -26.854524 -0.599830
6661 7 1 -27.161182 -27.833803 -0.800744
6662 7 1 -26.947588 -28.666869 -1.311016
6663 7 1 -26.934494 -29.338343 -0.570103
6664 7 1 -27.179348 -28.400312 -0.815348
6665 7 1 -27.046544 -29.391324 -0.799280
6666 7 1 -26.954160 -29.897576 -1.656703
6667 7 1 -25.970231 -30.046463 -1.755266
6668 7 1 -26.473788 -29.276140 -2.146460
6669 7 1 -26.442518 -29.215044 -1.148818
6670 7 1 -27.306412 -28.824021 -0.831349
6671 7 1 -27.515414 -29.436926 -1.593364
6672 7 1 -27.832418 -30.288533 -1.175904
6673 7 1 -26.995716 -30.039117 -0.688337
6674 7 1 -27.453518 -30.928066 -0.702003
6675 7 1 -27.023152 -31.273467 -1.535959
6676 7 1 -27.627782 -31.442382 -0.757570
6677 7 1 -28.351040 -31.257075 -1.422821
6678 7 1 -29.271744 -30.963278 -1.679701
6679 7 1 -28.572509 -30.278453 -1.884845
6680 7 1 -29.004226 -29.387459 -1.744309
6681 7 1 -28.437356 -28.789125 -2.310574
6682 7 1 -29.192114 -28.461005 -1.742526
6683 7 1 -29.499321 -29.361835 -1.435720
6684 7 1 -29.691268 -30.154551 -2.014303
6685 7 1 -30.300180 -29.553735 -2.532227
6686 7 1 -30.415173 -30.444599 -2.092753
6687 7 1 -31.393963 -30.239882 -2.084837
6688 7 1 -31.740435 -30.921505 -2.729312
6689 7 1 -32.005690 -30.820015 -1.770490
6690 7 1 -31.907831 -31.752511 -2.118161
6691 7 1 -31.077020 -31.304068 -1.788537
6692 7 1 -31.396201 -31.797182 -2.597834
6693 7 1 -32.310787 -31.534829 -2.290096
6694 7 1 -31.356295 -31.256863 -2.398167
6695 7 1 -30.872183 -30.832847 -3.163573
6696 7 1 -30.725474 -30.343625 -4.023305
6697 7 1 -31.249558 -30.772981 -3.287785
6698 7 1 -31.625062 -30.543548 -4.185758
6699 7 1 -31.130136 -30.100711 -3.438133
6700 7 1 -31.140573 -30.359034 -4.404135
6701 7 1 -30.611235 -29.510627 -4.401623
6702 7 1 -30.677956 -30.059457 -3.568356
6703 7 1 -30.910259 -29.762535 -4.494570
6704 7 1 -30.765935 -29.604966 -3.517666
6705 7 1 -30.006167 -30.048033 -3.993528
6706 7 1 -29.775017 -29.590020 -4.851895
6707 7 1 -30.262421 -28.779241 -5.176049
6708 7 1 -30.792417 -29.327239 -4.528900
6709 7 1 -30.612419 -29.580245 -3.578327
6710 7 1 -29.631427 -29.439225 -3.711627
6711 7 1 -30.165478 -29.191236 -4.519891
6712 7 1 -31.074056 -29.599061 -4.610244
6713 7 1 -31.380063 -28.662421 -4.780725
6714 7 1 -30.578294 -28.256652 -5.219494
6715 7 1 -30.252093 -28.547096 -6.119069
6716 7 1 -31.029798 -28.374548 -6.723554
6717 7 1 -30.641662 -28.471667 -5.807083
6718 7 1 -30.341413 -29.101290 -5.090547
6719 7 1 -30.434293 -28.124765 -5.284895
6720 7 1 -30.973587 -28.698106 -5.901694
6721 7 1 -31.207331 -29.651246 -5.709632
6722 7 1 -31.311307 -29.963797 -6.653825
6723 7 1 -30.722083 -29.311893 -6.176503
6724 7 1 -31.028342 -29.236447 -5.227549
6725 7 1 -30.375938 -28.743627 -4.651790
6726 7 1 -29.648324 -28.697777 -5.336242
6727 7 1 -29.432033 -28.579635 -4.367087
6728 7 1 -29.567606 -28.432985 -3.387233
6729 7 1 -30.066667 -28.914333 -4.107818
6730 7 1 -30.759892 -28.485956 -3.528221
6731 7 1 -31.745805 -28.420515 -3.374296
6732 7 1 -31.617656 -28.057983 -4.297414
6733 7 1 -31.198627 -28.390820 -5.142183
6734 7 1 -30.723072 -28.237623 -6.008426
6735 7 1 -31.607759 -28.324950 -5.550493
6736 7 1 -30.889858 -28.866294 -5.988175
6737 7 1 -30.162843 -29.154665 -6.611306
6738 7 1 -30.211972 -29.526089 -7.538468
6739 7 1 -30.346942 -30.279287 -6.894671
6740 7 1 -30.304921 -30.724921 -7.788899
6741 7 1 -30.923391 -30.888859 -8.557416
6742 7 1 -30.377740 -30.096660 -8.284130
6743 7 1 -30.863401 -30.464281 -9.077218
6744 7 1 -31.425005 -31.291682 -9.080162
6745 7 1 -31.906003 -32.151416 -8.908413
6746 7 1 -32.283215 -31.969145 -8.000400
6747 7 1 -32.726098 -31.131053 -8.318922
6748 7 1 -32.827522 -30.882924 -9.282325
6749 7 1 -32.469247 -30.549276 -8.410363
6750 7 1 -31.490695 -30.345262 -8.438908
6751 7 1 -31.104679 -30.090379 -7.552327
6752 7 1 -31.421496 -29.450739 -6.851979
6753 7 1 -30.424846 -29.477781 -6.929166
6754 7 1 -31.105327 -29.514262 -7.661023
6755 7 1 -31.582069 -30.211973 -8.195734
6756 7 1 -31.957331 -30.074431 -7.279077
6757 7 1 -31.482109 -30.673491 -7.923507
6758 7 1 -31.558334 -30.151924 -8.773306
6759 7 1 -31.306447 -29.184380 -8.753034
6760 7 1 -31.854750 -28.435713 -8.380394
6761 7 1 -32.035410 -28.756743 -7.450715
6762 7 1 -31.417916 -29.426915 -7.038926
6763 7 1 -32.296293 -29.565291 -7.496427
6764 7 1 -32.178196 -29.168059 -6.586339
6765 7 1 -31.563891 -29.950724 -6.486009
6766 7 1 -30.771891 -30.560139 -6.522741
6767 7 1 -29.943875 -30.534517 -7.082860
6768 7 1 -29.457882 -31.190579 -6.505459
6769 7 1 -30.290509 -31.191657 -7.059292
6770 7 1 -30.661969 -31.284716 -6.135518
6771 7 1 -30.373641 -30.368206 -6.412784
6772 7 1 -30.066487 -29.916444 -7.250380
6773 7 1 -30.204400 -29.711009 -6.281476
6774 7 1 -30.218096 -30.561516 -5.755690
6775 7 1 -29.222977 -30.658353 -5.774704
6776 7 1 -29.171398 -31.399845 -6.443679
6777 7 1 -29.151933 -30.559435 -5.902078
6778 7 1 -29.535690 -30.618444 -4.980531
6779 7 1 -29.258358 -30.867337 -4.052555
6780 7 1 -28.315676 -31.005453 -4.356323
6781 7 1 -28.525767 -31.809612 -4.912372
6782 7 1 -29.037982 -32.362776 -5.569369
6783 7 1 -29.339383 -33.277763 -5.301123
6784 7 1 -29.817137 -33.916862 -4.698376
6785 7 1 -29.992691 -33.802840 -3.720532
6786 7 1 -30.606326 -34.502044 -4.087365
6787 7 1 -30.436908 -35.484916 -4.014826
6788 7 1 -30.229949 -35.302764 -4.976070
6789 7 1 -31.012407 -34.906655 -4.495593
6790 7 1 -31.727706 -34.694786 -5.161520
6791 7 1 -31.413317 -35.641291 -5.234246
6792 7 1 -32.040612 -35.365740 -5.962651
6793 7 1 -31.190470 -35.609651 -5.495995
6794 7 1 -31.140956 -35.602966 -4.497244
6795 7 1 -30.742218 -36.519876 -4.514109
6796 7 1 -31.590551 -36.046255 -4.750784
6797 7 1 -32.448016 -36.540859 -4.892629
6798 7 1 -32.227130 -36.284831 -5.833723
6799 7 1 -32.206394 -37.063087 -6.461327
6800 7 1 -32.392750 -37.624855 -7.267359
6801 7 1 -33.230184 -37.099743 -7.418892
6802 7 1 -33.220488 -36.228478 -6.928176
6803 7 1 -32.569471 -35.941388 -7.630854
6804 7 1 -32.894578 -35.919775 -6.685424
6805 7 1 -32.324209 -35.285820 -6.163140
6806 7 1 -32.197082 -35.052613 -7.127222
6807 7 1 -32.937868 -35.720870 -7.195551
6808 7 1 -32.310248 -35.419377 -6.477779
6809 7 1 -32.294131 -35.067371 -7.413638
6810 7 1 -31.639477 -35.783157 -7.656699
6811 7 1 -31.955178 -35.663030 -8.597923
6812 7 1 -32.492529 -35.054349 -9.181670
6813 7 1 -31.524269 -35.016659 -9.428754
6814 7 1 -31.549433 -34.020718 -9.515170
6815 7 1 -31.527601 -33.337382 -10.244948
6816 7 1 -31.194273 -32.865175 -11.060983
6817 7 1 -30.239776 -33.162375 -11.085657
6818 7 1 -29.297890 -33.157055 -10.749767
6819 7 1 -29.648257 -32.675481 -9.946443
6820 7 1 -29.006526 -32.490154 -9.202242
6821 7 1 -28.051219 -32.781769 -9.250713
6822 7 1 -27.285904 -32.523280 -9.840184
6823 7 1 -27.209067 -31.526275 -9.831376
6824 7 1 -27.317181 -31.341412 -10.808175
6825 7 1 -27.038548 -30.381090 -10.820196
6826 7 1 -28.021103 -30.198134 -10.853549
6827 7 1 -28.848807 -30.648224 -10.518400
6828 7 1 -27.855391 -30.534196 -10.529471
6829 7 1 -27.221780 -31.243786 -10.837722
6830 7 1 -27.562018 -31.604888 -11.705963
6831 7 1 -27.420348 -30.841690 -12.336407
6832 7 1 -27.386861 -31.818554 -12.547630
6833 7 1 -26.791250 -31.829834 -11.744437
6834 7 1 -26.659837 -32.821159 -11.742152
6835 7 1 -26.972281 -32.218375 -12.476339
6836 7 1 -27.036213 -33.215411 -12.519145
6837 7 1 -27.858396 -32.717802 -12.242740
6838 7 1 -27.889395 -32.164461 -13.075118
6839 7 1 -28.209780 -33.051929 -12.743826
6840 7 1 -28.954765 -32.411186 -12.929421
6841 7 1 -29.265214 -31.798625 -12.202516
6842 7 1 -28.959597 -32.746997 -12.117722
6843 7 1 -29.359287 -33.149050 -12.941495
6844 7 1 -29.430127 -33.798650 -12.184526
6845 7 1 -30.248100 -33.299984 -11.897729
6846 7 1 -29.638305 -34.066479 -12.099310
6847 7 1 -30.354436 -33.374504 -12.190557
6848 7 1 -31.154696 -33.748076 -11.721486
6849 7 1 -31.387853 -33.734016 -12.693823
6850 7 1 -31.472818 -33.030914 -11.987828
6851 7 1 -31.922842 -33.902358 -11.792729
6852 7 1 -32.165990 -34.792784 -11.407994
6853 7 1 -32.108737 -34.577848 -10.433045
6854 7 1 -32.437013 -33.829675 -9.856442
6855 7 1 -31.788557 -33.084480 -9.700915
6856 7 1 -32.611088 -33.529808 -10.054645
6857 7 1 -31.762189 -33.995723 -9.805060
6858 7 1 -32.302618 -34.809604 -9.591673
6859 7 1 -32.832005 -34.392103 -10.330214
6860 7 1 -32.335308 -33.599041 -10.682840
6861 7 1 -32.115286 -33.952993 -11.591855
6862 7 1 -32.772839 -33.204268 -11.675737
6863 7 1 -33.760494 -33.050325 -11.646766
6864 7 1 -34.472170 -33.003876 -12.347737
6865 7 1 -34.826462 -32.823997 -11.430065
6866 7 1 -34.080031 -32.355711 -10.957256
6867 7 1 -33.823122 -31.727650 -10.222725
6868 7 1 -34.361850 -32.537914 -10.453472
6869 7 1 -33.711297 -31.787960 -10.333676
6870 7 1 -32.869230 -32.222559 -10.014229
6871 7 1 -33.291649 -31.911588 -10.865615
6872 7 1 -34.102189 -32.489402 -10.961293
6873 7 1 -33.933538 -31.527042 -11.174410
6874 7 1 -33.065293 -31.928661 -11.465706
6875 7 1 -32.717832 -32.776575 -11.866096
6876 7 1 -33.016187 -33.519327 -12.465516
6877 7 1 -33.350247 -33.514131 -13.408053
6878 7 1 -32.763436 -34.013782 -12.770872
6879 7 1 -32.979758 -33.894839 -13.739921
6880 7 1 -33.113816 -34.882015 -13.653250
6881 7 1 -32.291550 -35.450196 -13.620856
6882 7 1 -33.167454 -35.918998 -13.506762
6883 7 1 -34.022157 -36.022913 -12.998153
6884 7 1 -34.330871 -35.511078 -13.799851
6885 7 1 -35.181828 -36.035830 -13.777337
6886 7 1 -36.057081 -35.552521 -13.795930
6887 7 1 -36.346284 -34.773343 -14.352027
6888 7 1 -35.559197 -34.869707 -14.961296
6889 7 1 -35.914038 -34.221136 -15.634679
6890 7 1 -36.830719 -34.326224 -16.020233
6891 7 1 -36.033460 -33.726867 -15.948476
6892 7 1 -36.706840 -33.268753 -16.528728
6893 7 1 -35.911916 -33.178762 -15.928729
6894 7 1 -35.175743 -33.195138 -15.252134
6895 7 1 -36.089348 -32.820349 -15.094469
6896 7 1 -35.905456 -32.929972 -14.117655
6897 7 1 -36.353752 -32.408092 -14.843377
6898 7 1 -35.477592 -31.953990 -14.681713
6899 7 1 -35.700094 -31.638619 -15.604228
6900 7 1 -36.265030 -32.252106 -15.052429
6901 7 1 -36.865905 -31.544581 -15.424393
6902 7 1 -36.762196 -31.172849 -16.346922
6903 7 1 -37.335001 -31.140318 -15.527877
6904 7 1 -38.304732 -31.088192 -15.766425
6905 7 1 -38.366951 -31.281237 -16.745641
6906 7 1 -37.994402 -30.556267 -16.166309
6907 7 1 -38.924938 -30.230493 -16.333562
6908 7 1 -39.537374 -29.467573 -16.126499
6909 7 1 -38.881668 -30.097289 -15.709958
6910 7 1 -39.506464 -29.384881 -16.029496
6911 7 1 -39.662685 -30.022803 -16.783585
6912 7 1 -38.852252 -30.044547 -16.198158
6913 7 1 -39.173729 -29.107240 -16.063592
6914 7 1 -39.208935 -29.590518 -15.188833
6915 7 1 -39.697880 -29.992358 -14.414587
6916 7 1 -39.616343 -29.989627 -15.411254
6917 7 1 -40.144937 -29.251572 -15.830613
6918 7 1 -40.884760 -28.956859 -16.435432
6919 7 1 -40.717841 -28.116326 -15.920028
6920 7 1 -40.801162 -28.722695 -16.710834
6921 7 1 -40.659999 -28.771877 -15.722071
6922 7 1 -40.663755 -27.851872 -15.330182
6923 7 1 -40.078314 -28.657865 -15.242803
6924 7 1 -40.465856 -28.866381 -16.140763
6925 7 1 -40.349125 -29.632027 -15.508181
6926 7 1 -39.703789 -29.141310 -16.093619
6927 7 1 -39.807151 -28.543532 -16.888589
6928 7 1 -39.255475 -27.953060 -17.477653
6929 7 1 -38.368884 -27.628285 -17.148292
6930 7 1 -37.524307 -27.693489 -16.616844
6931 7 1 -37.636029 -28.102367 -17.522568
6932 7 1 -37.218895 -28.415126 -16.669233
6933 7 1 -37.247571 -29.214356 -17.269574
6934 7 1 -36.778571 -28.431759 -17.678941
6935 7 1 -37.775286 -28.351543 -17.690114
6936 7 1 -37.313930 -28.942706 -17.028543
6937 7 1 -37.992498 -29.430474 -16.479337
6938 7 1 -37.013212 -29.601888 -16.587119
6939 7 1 -36.783265 -30.564744 -16.728653
6940 7 1 -36.128317 -29.811341 -16.670105
6941 7 1 -35.974265 -29.676832 -15.691241
6942 7 1 -36.949418 -29.466574 -15.621475
6943 7 1 -37.120767 -29.527948 -16.604772
6944 7 1 -37.002224 -29.064046 -17.482691
6945 7 1 -36.572414 -28.295858 -17.008192
6946 7 1 -36.529458 -29.213440 -17.403410
6947 7 1 -37.328886 -29.193938 -16.802964
6948 7 1 -37.593138 -28.811539 -17.688369
6949 7 1 -37.364375 -27.890199 -17.374045
6950 7 1 -38.311007 -28.182235 -17.510435
6951 7 1 -38.977393 -27.522812 -17.858415
6952 7 1 -39.855062 -27.734493 -18.288401
6953 7 1 -39.034437 -27.227327 -18.025045
6954 7 1 -38.052613 -27.090789 -18.156880
6955 7 1 -38.769818 -26.408101 -18.296718
6956 7 1 -38.526796 -27.163035 -17.687609
6957 7 1 -38.012508 -26.364573 -18.000603
6958 7 1 -38.967491 -26.297616 -18.289607
6959 7 1 -39.622906 -26.885822 -17.815851
6960 7 1 -39.770103 -27.836525 -17.542911
6961 7 1 -39.306768 -27.421370 -18.325833
6962 7 1 -39.834504 -27.489152 -17.479133
6963 7 1 -40.481540 -28.195147 -17.767083
6964 7 1 -41.073676 -27.474560 -18.127815
6965 7 1 -40.773212 -27.813618 -17.236321
6966 7 1 -40.136598 -27.490950 -16.535888
6967 7 1 -39.543097 -28.222390 -16.200101
6968 7 1 -39.400351 -27.273449 -15.918795
6969 7 1 -39.772745 -26.351219 -15.814795
6970 7 1 -40.216379 -27.106567 -15.332470
6971 7 1 -41.186566 -27.109948 -15.090135
6972 7 1 -41.791386 -27.529807 -15.766827
6973 7 1 -40.865603 -27.888046 -15.887616
6974 7 1 -40.919638 -27.712016 -14.904716
6975 7 1 -39.970948 -27.448844 -14.729422
6976 7 1 -39.157583 -28.030137 -14.706251
6977 7 1 -38.491154 -28.422720 -14.072412
6978 7 1 -39.314986 -28.476579 -14.636682
6979 7 1 -39.282103 -29.470396 -14.742727
6980 7 1 -39.337838 -29.793059 -13.797856
6981 7 1 -38.770720 -30.190203 -13.076292
6982 7 1 -39.617729 -30.333195 -12.564306
6983 7 1 -39.537333 -29.338043 -12.620948
6984 7 1 -39.917592 -28.482113 -12.270539
6985 7 1 -39.664926 -27.571722 -11.942898
6986 7 1 -39.520819 -27.419864 -12.920739
6987 7 1 -39.370803 -28.021861 -12.136460
6988 7 1 -39.424414 -28.976604 -11.843897
6989 7 1 -38.627332 -28.483641 -11.495116
6990 7 1 -37.707120 -28.818478 -11.292398
6991 7 1 -37.766370 -28.325980 -12.160693
6992 7 1 -37.002816 -28.552194 -11.555868
6993 7 1 -36.498205 -28.415916 -10.703344
6994 7 1 -37.155577 -28.891278 -11.288060
6995 7 1 -37.309319 -28.386885 -10.438383
6996 7 1 -36.956749 -29.079054 -11.068143
6997 7 1 -37.679877 -29.011721 -11.755567
6998 7 1 -37.244799 -29.434621 -10.960669
6999 7 1 -37.999039 -29.130890 -11.542794
7000 7 1 -38.401953 -29.778484 -10.896048
7001 8 1 -40.634446 -42.998316 18.785027
7002 8 1 -40.074417 -43.758664 18.456030
7003 8 1 -39.355669 -44.369840 18.124571
7004 8 1 -39.352054 -45.302179 18.486136
7005 8 1 -40.187703 -44.766677 18.608312
7006 8 1 -40.241677 -44.034485 17.929356
7007 8 1 -39.447833 -43.442387 17.790680
7008 8 1 -39.336255 -43.763690 16.850300
7009 8 1 -40.215865 -43.488072 17.238010
7010 8 1 -40.254900 -43.671414 16.255736
7011 8 1 -39.365909 -43.885422 16.660575
7012 8 1 -38.725825 -44.642728 16.790119
7013 8 1 -37.801567 -44.964071 16.996239
7014 8 1 -37.587754 -45.928551 17.151357
7015 8 1 -37.715362 -45.983135 16.161036
7016 8 1 -38.395851 -46.316157 15.508325
7017 8 1 -38.393056 -47.223208 15.087314
7018 8 1 -38.586737 -46.248390 14.976783
7019 8 1 -39.341134 -46.879075 15.158779
7020 8 1 -38.786126 -47.357228 14.478091
7021 8 1 -38.675225 -47.219866 13.493797
7022 8 1 -38.357351 -46.345136 13.128008
7023 8 1 -38.923389 -47.149663 12.948184
7024 8 1 -38.089622 -46.935236 13.456961
7025 8 1 -37.510124 -47.218867 12.692936
7026 8 1 -38.493366 -47.395623 12.648296
7027 8 1 -38.476114 -46.557903 12.102469
7028 8 1 -38.561096 -47.295886 11.433021
7029 8 1 -38.529791 -47.139825 10.445770
7030 8 1 -38.720121 -46.548393 9.662200
7031 8 1 -38.787052 -46.264446 10.618701
7032 8 1 -38.038422 -46.705925 11.113321
7033 8 1 -38.631622 -47.066641 10.393601
7034 8 1 -38.918821 -47.019007 9.436915
7035 8 1 -38.978318 -46.022054 9.386462
7036 8 1 -38.663152 -46.540897 8.591810
7037 8 1 -39.242015 -47.181895 9.095834
7038 8 1 -38.690419 -46.418967 9.433004
7039 8 1 -38.987192 -47.100137 10.102283
7040 8 1 -39.373963 -46.380109 9.526116
7041 8 1 -38.979402 -46.226331 10.432027
7042 8 1 -38.846287 -46.657091 11.324622
7043 8 1 -39.527974 -46.849045 10.618607
7044 8 1 -38.613983 -46.705086 10.239271
7045 8 1 -37.721037 -46.304631 10.033642
7046 8 1 -38.130607 -45.486027 9.630975
7047 8 1 -37.257592 -45.032059 9.809181
7048 8 1 -36.749390 -45.348454 10.610196
7049 8 1 -35.832535 -44.995038 10.424528
7050 8 1 -35.763921 -45.339371 11.360865
7051 8 1 -34.825929 -45.578776 11.611576
7052 8 1 -35.523613 -45.315562 10.945276
7053 8 1 -34.804760 -45.641121 11.559494
7054 8 1 -35.418717 -44.851963 11.576447
7055 8 1 -35.991417 -45.572743 11.966947
7056 8 1 -35.340794 -45.068470 12.534748
7057 8 1 -35.437200 -44.081037 12.409521
7058 8 1 -35.551743 -44.214658 13.393912
7059 8 1 -36.455821 -43.847492 13.612621
7060 8 1 -36.274879 -42.867669 13.697513
7061 8 1 -36.979819 -43.412839 14.151220
7062 8 1 -37.297659 -42.672916 14.744088
7063 8 1 -37.392831 -43.572108 14.317011
7064 8 1 -38.040233 -43.316031 13.599170
7065 8 1 -37.945877 -42.396877 13.216740
7066 8 1 -38.650589 -43.102880 13.287031
7067 8 1 -38.783236 -42.232118 12.813557
7068 8 1 -39.719759 -42.345569 13.145303
7069 8 1 -39.123402 -41.656029 13.556269
7070 8 1 -39.088006 -42.096466 12.659184
7071 8 1 -38.664512 -42.002995 11.758120
7072 8 1 -38.900104 -42.906147 12.117024
7073 8 1 -38.513335 -42.331887 11.395474
7074 8 1 -38.851854 -42.463313 10.463738
7075 8 1 -39.740046 -42.826492 10.745194
7076 8 1 -40.067479 -41.972311 11.149127
7077 8 1 -40.660200 -42.732311 10.882516
7078 8 1 -40.199767 -42.103141 11.508732
7079 8 1 -39.726027 -41.707301 10.722042
7080 8 1 -40.263168 -41.451835 11.525918
7081 8 1 -40.859850 -40.980217 12.175185
7082 8 1 -41.470054 -41.639989 11.736606
7083 8 1 -42.063330 -41.422422 12.511647
7084 8 1 -41.177043 -41.602452 12.084933
7085 8 1 -40.306411 -41.173970 12.326601
7086 8 1 -40.716031 -41.749935 13.034044
7087 8 1 -40.559457 -42.183977 12.146862
7088 8 1 -40.091827 -41.441765 12.626907
7089 8 1 -40.006146 -42.401510 12.894393
7090 8 1 -40.011951 -43.374275 12.662674
7091 8 1 -41.011180 -43.372100 12.701866
7092 8 1 -40.745186 -42.619513 12.099487
7093 8 1 -40.179303 -43.251590 12.628879
7094 8 1 -40.133376 -43.254035 11.629937
7095 8 1 -39.711331 -42.358851 11.773202
7096 8 1 -39.318302 -41.446415 11.887168
7097 8 1 -38.976852 -41.451455 10.947281
7098 8 1 -38.202891 -40.882846 10.668592
7099 8 1 -38.662741 -40.020999 10.882503
7100 8 1 -39.135177 -40.378966 11.687900
7101 8 1 -39.763797 -40.650821 12.416550
7102 8 1 -39.143159 -39.913157 12.150731
7103 8 1 -39.385085 -39.759588 11.192666
7104 8 1 -38.517528 -39.811837 11.687252
7105 8 1 -39.169553 -40.365721 11.169491
7106 8 1 -39.511973 -41.237237 10.818481
7107 8 1 -39.193868 -40.501105 11.415907
7108 8 1 -38.652172 -39.674001 11.565790
7109 8 1 -37.999002 -38.929442 11.427945
7110 8 1 -37.898679 -38.413357 12.278587
7111 8 1 -38.365762 -37.544747 12.113207
7112 8 1 -38.812587 -37.900233 11.292246
7113 8 1 -38.919777 -37.841407 12.284742
7114 8 1 -38.659630 -37.340544 13.110249
7115 8 1 -37.720969 -37.503163 12.806159
7116 8 1 -37.429467 -37.536695 13.762141
7117 8 1 -37.615098 -37.914859 14.669077
7118 8 1 -37.325491 -37.248442 15.356111
7119 8 1 -37.669643 -36.471700 15.883587
7120 8 1 -37.024834 -35.812482 15.496738
7121 8 1 -37.238647 -36.421962 14.733313
7122 8 1 -37.648636 -37.200019 15.209272
7123 8 1 -37.178401 -37.096575 16.085729
7124 8 1 -37.758957 -36.344714 15.773225
7125 8 1 -37.262987 -36.152421 14.926445
7126 8 1 -36.719110 -36.317357 15.749241
7127 8 1 -36.268392 -36.360385 16.640870
7128 8 1 -35.454580 -36.727821 16.190646
7129 8 1 -35.150982 -37.615984 15.845690
7130 8 1 -34.839777 -36.699786 16.098144
7131 8 1 -34.715823 -37.348521 15.347293
7132 8 1 -33.745315 -37.508216 15.527881
7133 8 1 -33.772136 -36.902335 14.732777
7134 8 1 -33.828261 -37.873447 14.500850
7135 8 1 -33.575459 -38.421516 15.298165
7136 8 1 -34.064725 -37.549461 15.286413
7137 8 1 -33.878327 -36.569907 15.362112
7138 8 1 -33.149998 -36.492442 16.042948
7139 8 1 -33.846063 -37.179084 16.252748
7140 8 1 -33.901039 -37.473450 15.298637
7141 8 1 -34.786649 -37.189600 15.666229
7142 8 1 -34.948579 -37.913755 14.995872
7143 8 1 -34.065285 -38.376685 15.069956
7144 8 1 -34.653108 -37.579335 15.206699
7145 8 1 -35.169142 -38.373351 14.885379
7146 8 1 -35.746535 -38.980669 15.431074
7147 8 1 -34.840518 -38.559662 15.474497
7148 8 1 -33.899751 -38.898598 15.483490
7149 8 1 -34.232837 -39.519191 16.193362
7150 8 1 -34.350709 -40.170915 15.444121
7151 8 1 -34.516037 -40.579935 14.546698
7152 8 1 -34.994888 -40.418301 13.683809
7153 8 1 -35.256271 -39.465866 13.840482
7154 8 1 -36.089394 -39.199160 13.355946
7155 8 1 -36.333684 -38.249306 13.551134
7156 8 1 -35.531285 -38.715691 13.178788
7157 8 1 -35.125045 -37.845922 13.458916
7158 8 1 -35.534228 -37.040905 13.888470
7159 8 1 -36.078412 -37.862959 14.056075
7160 8 1 -36.730740 -38.003355 13.311255
7161 8 1 -35.881525 -37.746209 13.772460
7162 8 1 -36.534891 -37.125204 14.205433
7163 8 1 -36.990530 -36.236298 14.158120
7164 8 1 -36.716189 -35.735966 13.336898
7165 8 1 -37.560740 -35.896040 13.847887
7166 8 1 -37.853332 -35.167106 13.228980
7167 8 1 -38.813636 -34.982410 13.019925
7168 8 1 -38.677311 -34.140845 13.542594
7169 8 1 -37.707349 -33.994797 13.737128
7170 8 1 -37.864713 -33.745149 14.692592
7171 8 1 -37.071998 -33.543809 14.117209
7172 8 1 -36.583574 -34.379115 13.864808
7173 8 1 -36.439001 -33.482950 14.284315
7174 8 1 -35.645681 -33.237761 13.727067
7175 8 1 -35.852824 -34.205357 13.871460
7176 8 1 -36.249221 -34.499328 14.741202
7177 8 1 -35.876752 -33.571730 14.712409
7178 8 1 -35.626680 -32.655048 15.024110
7179 8 1 -35.839066 -32.706089 14.048258
7180 8 1 -36.728466 -32.302558 14.263037
7181 8 1 -36.948212 -32.350876 15.237397
7182 8 1 -36.137232 -32.148141 14.688570
7183 8 1 -35.701784 -32.464773 13.845878
7184 8 1 -35.459005 -31.696598 13.253454
7185 8 1 -36.353039 -31.995333 13.587313
7186 8 1 -36.715804 -32.451584 12.774764
7187 8 1 -36.248450 -31.570820 12.698373
7188 8 1 -35.317110 -31.653617 13.052986
7189 8 1 -34.990939 -32.571431 12.826650
7190 8 1 -35.728455 -32.499542 13.498143
7191 8 1 -34.899277 -32.024464 13.792702
7192 8 1 -35.538914 -31.631324 13.132168
7193 8 1 -35.269596 -31.061358 12.355891
7194 8 1 -35.557018 -30.164852 12.693031
7195 8 1 -35.536682 -29.493842 13.434201
7196 8 1 -35.758968 -30.443666 13.214149
7197 8 1 -35.662292 -29.563148 13.678200
7198 8 1 -35.980251 -28.671309 13.356447
7199 8 1 -36.688674 -29.373778 13.424817
7200 8 1 -36.063682 -28.912787 12.794839
7201 8 1 -36.013686 -29.863349 12.488356
7202 8 1 -36.752847 -29.946040 13.156789
7203 8 1 -36.190006 -30.642155 13.602472
7204 8 1 -35.506546 -31.354130 13.441306
7205 8 1 -36.148887 -30.588578 13.404864
7206 8 1 -36.642683 -31.259060 13.958597
7207 8 1 -37.510182 -31.447188 13.498105
7208 8 1 -38.184166 -31.244100 14.208387
7209 8 1 -38.774360 -31.761159 14.828324
7210 8 1 -38.623226 -31.203171 14.012353
7211 8 1 -38.092559 -30.596547 13.420406
7212 8 1 -38.095716 -29.714758 13.892039
7213 8 1 -37.620705 -29.065851 14.486415
7214 8 1 -38.094481 -28.332615 14.974167
7215 8 1 -38.637460 -28.992347 15.493713
7216 8 1 -39.057489 -29.412436 14.689288
7217 8 1 -38.368163 -29.610223 15.386217
7218 8 1 -39.221378 -30.085488 15.601036
7219 8 1 -38.830695 -29.171041 15.706648
7220 8 1 -38.955346 -29.750167 16.512300
7221 8 1 -38.528361 -29.050516 17.085164
7222 8 1 -37.766500 -28.976084 17.728613
7223 8 1 -37.416464 -28.688391 18.620076
7224 8 1 -37.112773 -29.403865 17.990895
7225 8 1 -37.731541 -29.198553 18.749165
7226 8 1 -36.878558 -28.683635 18.834488
7227 8 1 -37.708038 -28.349869 19.282332
7228 8 1 -38.414309 -27.785431 19.709639
7229 8 1 -39.119049 -27.270060 20.197219
7230 8 1 -40.039290 -27.258590 20.588402
7231 8 1 -40.127393 -28.235867 20.781191
7232 8 1 -40.949945 -27.730807 21.042577
7233 8 1 -40.010576 -27.523468 20.769454
7234 8 1 -39.982894 -28.274108 21.429585
7235 8 1 -39.620603 -28.210385 22.359469
7236 8 1 -40.416899 -28.036453 21.780106
7237 8 1 -41.302227 -28.195121 21.343050
7238 8 1 -40.586945 -28.398433 20.674443
7239 8 1 -39.767982 -28.058052 21.136438
7240 8 1 -39.438278 -27.687323 22.004686
7241 8 1 -38.734474 -27.839250 22.698644
7242 8 1 -39.727455 -27.906639 22.601443
7243 8 1 -39.868757 -27.006300 23.013053
7244 8 1 -39.235182 -27.738703 22.763718
7245 8 1 -38.783472 -27.371100 21.950806
7246 8 1 -39.280624 -28.234496 22.036747
7247 8 1 -39.323922 -29.090753 21.522014
7248 8 1 -40.049623 -29.103022 22.209914
7249 8 1 -39.226057 -28.554386 22.353921
7250 8 1 -39.975348 -28.449931 21.699969
7251 8 1 -40.795901 -29.014595 21.788552
7252 8 1 -40.770795 -29.593716 20.973697
7253 8 1 -40.595793 -29.646180 19.990528
7254 8 1 -40.280395 -30.458677 20.480805
7255 8 1 -39.812318 -29.582853 20.598429
7256 8 1 -40.252119 -28.891742 20.024894
7257 8 1 -40.477767 -29.858087 20.148427
7258 8 1 -40.016666 -29.272698 19.481565
7259 8 1 -40.917979 -29.015188 19.829877
7260 8 1 -40.645560 -28.156253 19.396266
7261 8 1 -40.871647 -29.104699 19.618379
7262 8 1 -41.533405 -28.719168 18.975386
7263 8 1 -41.988914 -29.597389 18.829652
7264 8 1 -42.425371 -29.452511 17.941668
7265 8 1 -42.344290 -30.324464 17.458839
7266 8 1 -43.203715 -30.820195 17.583898
7267 8 1 -42.367130 -31.366540 17.543481
7268 8 1 -41.865748 -31.649756 18.361042
7269 8 1 -42.465801 -31.738302 19.156087
7270 8 1 -42.365002 -31.115759 19.932154
7271 8 1 -41.899989 -31.034938 19.050548
7272 8 1 -42.116015 -30.601207 18.175785
7273 8 1 -41.136009 -30.424749 18.267709
7274 8 1 -42.010313 -30.372561 18.750273
7275 8 1 -42.262201 -30.123907 17.815007
7276 8 1 -42.294793 -29.896910 16.841657
7277 8 1 -42.694936 -29.979157 15.928902
7278 8 1 -42.431208 -29.209913 16.510891
7279 8 1 -42.324182 -28.845383 17.435911
7280 8 1 -42.610971 -28.511771 18.333940
7281 8 1 -41.826376 -28.945318 18.777164
7282 8 1 -42.772633 -28.722083 18.543147
7283 8 1 -42.833280 -27.726024 18.478435
7284 8 1 -43.762344 -27.586043 18.820848
7285 8 1 -44.364849 -27.855697 19.572030
7286 8 1 -44.192699 -28.690353 19.048853
7287 8 1 -43.494958 -27.975516 19.095395
7288 8 1 -42.710565 -27.459161 18.751730
7289 8 1 -42.365803 -26.918088 17.984671
7290 8 1 -42.617307 -26.939273 17.017047
7291 8 1 -42.239531 -26.543291 16.180097
7292 8 1 -42.664433 -26.049467 16.938778
7293 8 1 -42.419186 -25.117128 17.204481
7294 8 1 -42.324208 -24.203916 16.808220
7295 8 1 -43.174133 -24.433083 16.333761
7296 8 1 -43.692005 -24.878918 17.063857
7297 8 1 -43.719774 -25.297328 16.156023
7298 8 1 -44.303213 -25.482932 15.365359
7299 8 1 -43.510098 -25.971760 15.728698
7300 8 1 -43.919648 -26.067709 14.821470
7301 8 1 -44.654221 -26.626103 15.206954
7302 8 1 -45.256942 -26.057525 14.647090
7303 8 1 -45.646437 -25.739835 13.782586
7304 8 1 -46.331052 -26.468407 13.804592
7305 8 1 -46.862283 -25.656793 14.047648
7306 8 1 -47.152878 -26.502824 14.494621
7307 8 1 -46.498430 -26.880208 13.839426
7308 8 1 -46.189392 -25.957241 14.068831
7309 8 1 -46.999728 -26.409519 14.441390
7310 8 1 -46.366528 -27.183340 14.425339
7311 8 1 -45.737440 -27.490115 15.139579
7312 8 1 -45.950182 -28.063448 14.348358
7313 8 1 -46.474652 -28.343460 15.152425
7314 8 1 -46.420751 -29.307656 15.412082
7315 8 1 -45.549234 -29.794733 15.468774
7316 8 1 -46.221865 -29.092078 15.700817
7317 8 1 -45.239046 -29.078704 15.884902
7318 8 1 -45.386394 -29.476004 16.790685
7319 8 1 -44.602015 -29.985114 16.436345
7320 8 1 -44.578616 -29.804650 17.419649
7321 8 1 -45.196816 -30.095000 16.689221
7322 8 1 -45.616598 -30.129780 17.596179
7323 8 1 -44.928078 -29.492589 17.249874
7324 8 1 -44.084206 -28.975527 17.106599
7325 8 1 -44.473939 -28.488245 16.325148
7326 8 1 -45.284403 -27.904941 16.379042
7327 8 1 -46.217948 -27.971307 16.026779
7328 8 1 -46.349720 -27.820559 15.047028
7329 8 1 -45.412038 -28.097604 14.837270
7330 8 1 -45.396442 -27.875292 15.812120
7331 8 1 -46.049235 -28.614258 15.645414
7332 8 1 -46.321221 -29.550044 15.421077
7333 8 1 -46.614703 -28.723218 15.900897
7334 8 1 -47.184916 -29.354679 16.426363
7335 8 1 -47.323307 -30.303857 16.143680
7336 8 1 -46.785227 -30.134227 16.969328
7337 8 1 -45.947807 -30.276390 17.497075
7338 8 1 -46.809412 -29.882844 17.817634
7339 8 1 -46.664709 -29.642223 18.777406
7340 8 1 -47.488360 -30.181267 18.953566
7341 8 1 -47.495100 -29.341818 18.410169
7342 8 1 -46.713852 -28.942015 18.889554
7343 8 1 -46.667214 -29.927342 18.725372
7344 8 1 -46.163847 -29.119055 18.419932
7345 8 1 -46.141864 -28.636249 19.295383
7346 8 1 -45.928844 -29.371987 18.652490
7347 8 1 -45.837222 -29.539395 19.634111
7348 8 1 -46.703822 -29.363975 19.166958
7349 8 1 -46.507096 -28.671654 18.472702
7350 8 1 -46.766728 -29.230151 19.260530
7351 8 1 -47.241875 -29.018060 18.406567
7352 8 1 -46.553250 -28.343098 18.141573
7353 8 1 -46.972822 -27.715975 17.485314
7354 8 1 -46.052993 -27.570436 17.849639
7355 8 1 -46.640541 -28.318278 18.158702
7356 8 1 -45.834851 -28.375846 18.748235
7357 8 1 -45.371386 -29.051803 19.321195
7358 8 1 -44.591981 -29.044700 19.947675
7359 8 1 -44.271758 -28.108005 19.806043
7360 8 1 -44.402650 -27.601994 18.953505
7361 8 1 -44.268994 -28.319846 18.270259
7362 8 1 -43.324950 -27.996242 18.333983
7363 8 1 -42.741435 -28.645363 18.821990
7364 8 1 -43.012016 -28.362100 19.742070
7365 8 1 -42.877921 -28.825501 18.866126
7366 8 1 -43.313582 -29.323359 18.116235
7367 8 1 -44.068624 -29.753589 17.621448
7368 8 1 -44.167972 -29.963519 18.594103
7369 8 1 -44.784822 -30.518397 19.152320
7370 8 1 -44.533060 -31.103840 18.381689
7371 8 1 -44.849116 -31.553037 19.217350
7372 8 1 -45.766700 -31.940658 19.305613
7373 8 1 -45.449883 -31.010422 19.120438
7374 8 1 -45.545929 -30.279926 19.796566
7375 8 1 -45.608815 -31.162620 20.262288
7376 8 1 -46.237846 -30.490909 20.653600
7377 8 1 -46.906950 -29.938889 20.156032
7378 8 1 -47.114501 -29.225268 19.486952
7379 8 1 -47.030949 -29.593626 18.561030
7380 8 1 -47.339173 -30.376050 19.102151
7381 8 1 -47.029068 -29.731372 19.800882
7382 8 1 -46.192361 -29.692472 19.254614
7383 8 1 -46.172507 -28.838975 19.775334
7384 8 1 -45.223187 -28.561969 19.626812
7385 8 1 -44.328683 -28.807861 19.253449
7386 8 1 -43.998999 -28.129981 19.910554
7387 8 1 -43.383709 -27.394287 19.627405
7388 8 1 -42.693324 -28.049491 19.934123
7389 8 1 -43.399141 -27.650930 20.519760
7390 8 1 -42.631807 -27.805007 19.897298
7391 8 1 -42.016563 -27.022488 19.801706
7392 8 1 -42.858402 -26.943874 20.335678
7393 8 1 -42.983515 -27.222962 21.287758
7394 8 1 -42.219073 -27.621303 20.780852
7395 8 1 -42.385069 -28.515454 21.196712
7396 8 1 -43.022245 -27.759992 21.044120
7397 8 1 -43.180073 -26.975385 21.643687
7398 8 1 -42.719297 -26.251895 21.129636
7399 8 1 -41.874546 -26.758776 20.957973
7400 8 1 -42.374849 -27.264601 21.660709
7401 8 1 -41.678510 -26.586191 21.894956
7402 8 1 -42.347934 -27.205393 21.484518
7403 8 1 -43.089185 -26.743105 21.971177
7404 8 1 -43.108161 -27.645748 22.401149
7405 8 1 -43.064876 -28.610021 22.662501
7406 8 1 -43.363320 -27.807045 22.146593
7407 8 1 -43.043055 -27.942087 21.208940
7408 8 1 -43.749827 -28.633619 21.059758
7409 8 1 -43.161910 -28.411492 21.837584
7410 8 1 -42.658599 -27.557358 21.968477
7411 8 1 -42.014947 -26.846574 21.684754
7412 8 1 -41.693978 -27.756095 21.420648
7413 8 1 -42.586712 -28.020309 21.055660
7414 8 1 -41.869887 -28.467319 20.520549
7415 8 1 -41.475835 -29.102628 19.856392
7416 8 1 -41.085752 -28.234627 20.163653
7417 8 1 -40.613959 -27.493870 20.641869
7418 8 1 -40.748254 -28.225583 19.973616
7419 8 1 -40.676024 -29.198874 20.191532
7420 8 1 -41.362539 -29.302964 20.911159
7421 8 1 -41.295939 -30.073134 20.276807
7422 8 1 -40.586068 -30.179652 20.973039
7423 8 1 -40.869321 -29.808348 20.088787
7424 8 1 -40.383700 -28.958569 20.293840
7425 8 1 -39.994572 -28.861896 19.377743
7426 8 1 -39.542926 -28.215816 18.762441
7427 8 1 -38.937424 -28.998764 18.619751
7428 8 1 -38.779511 -29.965498 18.820968
7429 8 1 -38.788892 -29.113581 18.297375
7430 8 1 -39.689443 -29.530470 18.174040
7431 8 1 -40.156603 -28.926755 17.528061
7432 8 1 -40.580006 -28.610255 16.679204
7433 8 1 -39.849055 -29.024033 16.136526
7434 8 1 -39.616544 -28.054989 16.053506
7435 8 1 -38.744308 -28.540958 15.998393
7436 8 1 -38.695240 -27.708348 16.550075
7437 8 1 -39.476966 -28.305061 16.368865
7438 8 1 -39.280701 -27.324512 16.366937
7439 8 1 -38.637640 -26.573205 16.218578
7440 8 1 -39.077632 -26.027557 15.505364
7441 8 1 -38.200313 -26.071113 15.983291
7442 8 1 -38.003135 -26.911655 16.487880
7443 8 1 -37.873375 -27.696699 15.882182
7444 8 1 -37.034440 -27.269571 15.544914
7445 8 1 -36.961024 -28.156448 15.088780
7446 8 1 -36.630388 -28.777679 14.378321
7447 8 1 -36.032704 -28.537505 15.143233
7448 8 1 -35.454816 -27.754062 15.371841
7449 8 1 -36.165376 -28.256014 15.864941
7450 8 1 -36.044480 -27.803474 16.748452
7451 8 1 -36.057852 -26.829058 16.524096
7452 8 1 -36.065626 -26.172270 17.278132
7453 8 1 -36.192851 -25.673309 16.420897
7454 8 1 -35.822181 -24.760254 16.590994
7455 8 1 -35.767630 -24.505547 15.625515
7456 8 1 -34.779521 -24.363049 15.567765
7457 8 1 -34.651466 -23.637355 14.891770
7458 8 1 -35.355752 -23.000255 14.578586
7459 8 1 -35.544788 -23.941128 14.859698
7460 8 1 -34.804041 -23.392605 15.247534
7461 8 1 -35.483841 -22.709029 15.513232
7462 8 1 -35.835550 -21.840467 15.862376
7463 8 1 -35.147110 -22.516535 16.125021
7464 8 1 -35.518897 -21.612649 15.913446
7465 8 1 -34.997281 -21.533564 16.762953
7466 8 1 -34.391651 -21.335378 17.533624
7467 8 1 -34.339120 -20.419439 17.931488
7468 8 1 -33.613158 -21.091409 17.785078
7469 8 1 -33.380510 -20.336159 18.397836
7470 8 1 -33.113800 -20.713495 19.284675
7471 8 1 -32.617649 -19.883048 19.538037
7472 8 1 -32.489117 -19.809299 20.526996
7473 8 1 -32.656729 -19.382198 21.415530
7474 8 1 -33.355249 -19.825374 20.853688
7475 8 1 -33.011086 -20.751737 20.700710
7476 8 1 -32.995968 -20.933652 19.717512
7477 8 1 -32.123627 -21.305906 19.400578
7478 8 1 -31.288695 -21.689911 19.006334
7479 8 1 -32.184936 -22.082278 19.213216
7480 8 1 -31.200507 -22.168634 19.366322
7481 8 1 -32.118641 -22.073791 19.751074
7482 8 1 -31.665561 -22.851978 19.316167
7483 8 1 -32.480301 -22.940083 19.889260
7484 8 1 -33.377855 -22.740872 19.495927
7485 8 1 -32.932792 -23.041512 18.652402
7486 8 1 -33.614474 -23.401152 18.015245
7487 8 1 -34.484313 -23.011671 18.318038
7488 8 1 -35.133812 -22.294462 18.570549
7489 8 1 -34.688112 -21.681398 19.222856
7490 8 1 -35.281345 -20.922958 18.952963
7491 8 1 -34.680287 -20.134586 18.821819
7492 8 1 -34.844131 -19.266726 18.352804
7493 8 1 -35.210744 -19.873757 17.647746
7494 8 1 -34.651321 -19.066469 17.459779
7495 8 1 -35.093890 -18.191020 17.265560
7496 8 1 -35.740676 -18.606034 17.905428
7497 8 1 -35.707891 -17.741417 18.406788
7498 8 1 -35.610076 -18.620033 17.939385
7499 8 1 -34.885276 -18.017040 18.272650
7500 8 1 -33.907194 -17.809504 18.289499
7501 8 1 -34.651022 -17.253028 18.659707
7502 8 1 -35.304389 -17.981879 18.864378
7503 8 1 -35.706278 -17.067689 18.916743
7504 8 1 -36.476819 -17.422521 18.387253
7505 8 1 -37.076813 -16.913256 17.770279
7506 8 1 -37.498586 -17.796803 17.973877
7507 8 1 -37.407000 -18.679841 18.434154
7508 8 1 -37.651060 -17.712526 18.502974
7509 8 1 -38.108033 -17.260404 19.268978
7510 8 1 -39.004509 -17.081299 19.674258
7511 8 1 -39.254538 -17.921338 19.192782
7512 8 1 -38.543615 -17.248097 19.396093
7513 8 1 -37.715871 -16.933849 19.860946
7514 8 1 -36.790887 -16.553845 19.862022
7515 8 1 -35.895530 -16.997965 19.895081
7516 8 1 -36.715770 -17.370819 19.461276
7517 8 1 -36.040598 -18.104214 19.540483
7518 8 1 -35.127173 -18.454713 19.333587
7519 8 1 -35.023864 -19.447335 19.270120
7520 8 1 -34.172691 -18.922455 19.268183
7521 8 1 -34.201302 -18.157672 18.624530
7522 8 1 -34.036158 -17.481655 17.906388
7523 8 1 -34.126110 -17.130079 18.838215
7524 8 1 -34.582649 -16.714138 19.624705
7525 8 1 -33.586953 -16.622093 19.613882
7526 8 1 -34.111192 -16.029430 19.002389
7527 8 1 -34.315166 -16.787818 19.621455
7528 8 1 -34.521820 -16.227429 18.819421
7529 8 1 -35.338446 -16.268288 18.243702
7530 8 1 -34.797924 -15.737897 18.896788
7531 8 1 -35.558186 -16.275788 18.532542
7532 8 1 -35.402916 -16.352979 19.517394
7533 8 1 -35.690663 -15.403011 19.638899
7534 8 1 -35.530332 -16.318729 19.270451
7535 8 1 -34.809986 -16.800052 18.771021
7536 8 1 -35.657107 -16.984331 19.269446
7537 8 1 -35.666774 -16.220002 18.624692
7538 8 1 -34.718877 -16.003861 18.858730
7539 8 1 -35.708582 -16.038260 18.997658
7540 8 1 -36.386513 -15.303673 18.969543
7541 8 1 -37.025615 -14.765224 18.420343
7542 8 1 -36.873847 -15.594516 18.958154
7543 8 1 -36.531523 -15.727003 18.027960
7544 8 1 -37.173004 -14.976775 17.867773
7545 8 1 -36.439536 -15.656236 17.848886
7546 8 1 -36.933001 -15.493939 16.994397
7547 8 1 -36.467172 -16.349258 17.221188
7548 8 1 -36.139065 -17.100906 16.649025
7549 8 1 -35.373085 -17.627712 16.280582
7550 8 1 -34.777244 -17.292978 17.010599
7551 8 1 -34.284083 -18.139308 16.809305
7552 8 1 -33.792193 -17.302729 17.050511
7553 8 1 -34.253435 -17.443840 17.926492
7554 8 1 -34.635613 -16.815565 17.248841
7555 8 1 -35.103973 -17.576703 17.697514
7556 8 1 -35.453506 -17.734872 18.620991
7557 8 1 -35.236664 -18.507413 18.024200
7558 8 1 -36.153662 -18.119311 17.932053
7559 8 1 -37.026709 -18.212723 18.410658
7560 8 1 -36.673117 -17.326090 18.112575
7561 8 1 -36.031003 -16.600964 18.361336
7562 8 1 -36.782560 -16.997234 18.888719
7563 8 1 -37.475770 -16.839801 18.185387
7564 8 1 -36.628467 -16.451914 17.822591
7565 8 1 -37.281120 -16.052855 18.466637
7566 8 1 -37.624868 -15.133988 18.660341
7567 8 1 -37.500548 -14.950314 17.685247
7568 8 1 -38.396143 -14.506061 17.708656
7569 8 1 -37.666719 -15.155120 17.924669
7570 8 1 -36.746897 -14.933842 18.248648
7571 8 1 -37.276592 -15.385764 18.966416
7572 8 1 -37.685333 -15.982172 18.275599
7573 8 1 -38.372990 -15.402767 18.713111
7574 8 1 -37.438858 -15.195763 19.003880
7575 8 1 -38.287649 -15.298239 19.522582
7576 8 1 -38.636547 -16.191927 19.804703
7577 8 1 -39.462802 -15.688337 19.552316
7578 8 1 -40.103843 -16.293674 19.080475
7579 8 1 -39.633626 -15.805714 19.815860
7580 8 1 -39.190124 -15.823943 20.711948
7581 8 1 -39.655735 -16.661896 20.427271
7582 8 1 -39.891425 -17.451807 19.861151
7583 8 1 -39.224728 -17.624817 19.136181
7584 8 1 -39.060651 -17.364190 20.087577
7585 8 1 -38.159137 -17.350746 20.520117
7586 8 1 -38.075864 -18.096167 21.181489
7587 8 1 -38.875167 -17.622845 20.811245
7588 8 1 -39.369480 -16.937106 20.277000
7589 8 1 -39.567216 -17.898291 20.469416
7590 8 1 -39.980649 -18.584606 21.067784
7591 8 1 -40.071916 -19.564024 21.247816
7592 8 1 -40.729866 -20.081674 20.700879
7593 8 1 -41.644082 -20.466597 20.574219
7594 8 1 -41.161585 -19.721443 20.113847
7595 8 1 -40.373387 -19.849197 20.715861
7596 8 1 -40.281672 -19.837810 19.720141
7597 8 1 -39.727156 -20.622880 19.996145
7598 8 1 -40.288753 -21.263322 19.472273
7599 8 1 -41.057944 -21.894704 19.570778
7600 8 1 -40.709396 -21.536496 20.436920
7601 8 1 -39.883494 -20.974323 20.479905
7602 8 1 -39.344623 -21.007945 19.638188
7603 8 1 -39.930214 -20.222070 19.439481
7604 8 1 -40.397536 -19.340730 19.509118
7605 8 1 -40.350009 -19.352324 20.507921
7606 8 1 -39.609982 -18.992130 21.075918
7607 8 1 -39.901019 -19.096331 22.026938
7608 8 1 -39.855399 -18.190795 21.605130
7609 8 1 -40.280070 -19.094175 21.664772
7610 8 1 -39.378615 -19.434651 21.397464
7611 8 1 -40.154249 -18.967077 21.821452
7612 8 1 -40.029312 -18.105094 22.312753
7613 8 1 -40.137480 -19.093943 22.210390
7614 8 1 -40.848379 -18.849452 22.869819
7615 8 1 -41.038872 -19.678692 23.395247
7616 8 1 -40.595885 -19.176478 22.652586
7617 8 1 -40.903599 -18.575464 23.390214
7618 8 1 -40.597972 -19.322953 23.980004
7619 8 1 -41.158240 -19.873375 24.598983
7620 8 1 -41.816020 -20.616904 24.719357
7621 8 1 -42.122628 -20.706349 23.771733
7622 8 1 -42.981518 -21.139097 23.497805
7623 8 1 -43.176949 -20.877772 24.443065
7624 8 1 -44.141857 -20.794273 24.692021
7625 8 1 -45.000466 -21.186252 24.361650
7626 8 1 -45.343378 -21.792427 23.644042
7627 8 1 -44.896562 -22.634811 23.945281
7628 8 1 -44.446103 -22.332179 23.105340
7629 8 1 -45.311213 -22.577441 22.667811
7630 8 1 -45.824950 -21.917092 22.120076
7631 8 1 -45.449510 -21.289832 22.802416
7632 8 1 -44.571654 -20.818901 22.889551
7633 8 1 -45.520645 -20.960590 22.607878
7634 8 1 -44.609116 -20.549894 22.628936
7635 8 1 -45.340112 -21.204660 22.436774
7636 8 1 -45.108489 -20.319870 22.841122
7637 8 1 -45.041429 -19.699268 22.059869
7638 8 1 -45.722941 -20.413830 22.217801
7639 8 1 -45.444997 -20.618388 21.279236
7640 8 1 -45.394379 -21.548319 21.643471
7641 8 1 -46.119942 -20.946798 21.309208
7642 8 1 -45.372413 -20.664778 21.910594
7643 8 1 -44.646553 -21.189460 21.465807
7644 8 1 -45.114300 -21.799892 22.105015
7645 8 1 -45.563038 -22.020328 21.238965
7646 8 1 -45.490044 -22.594208 22.054645
7647 8 1 -45.912031 -23.215414 22.714970
7648 8 1 -46.756404 -23.743097 22.622309
7649 8 1 -46.587441 -22.788715 22.376125
7650 8 1 -47.487837 -22.986774 21.988749
7651 8 1 -46.616985 -23.199284 21.545516
7652 8 1 -46.717140 -23.195529 22.540480
7653 8 1 -46.139172 -23.011594 23.335540
7654 8 1 -47.025425 -23.468928 23.409023
7655 8 1 -46.161740 -22.977022 23.518918
7656 8 1 -45.817774 -22.565661 24.362997
7657 8 1 -45.381609 -23.437506 24.140181
7658 8 1 -44.447080 -23.105852 24.011098
7659 8 1 -44.868873 -23.112711 23.104432
7660 8 1 -45.447922 -22.561972 23.705587
7661 8 1 -44.878704 -22.297178 22.927207
7662 8 1 -45.625622 -22.860186 22.573461
7663 8 1 -45.735902 -23.583890 21.892219
7664 8 1 -44.928264 -23.775754 22.449811
7665 8 1 -45.012663 -24.685356 22.042994
7666 8 1 -45.784239 -24.220020 22.476735
7667 8 1 -44.961537 -23.993926 21.955157
7668 8 1 -45.705445 -23.353397 21.764572
7669 8 1 -46.440378 -24.031136 21.741247
7670 8 1 -47.085325 -24.067660 22.504601
7671 8 1 -46.308830 -24.637488 22.773583
7672 8 1 -46.436611 -25.201440 21.957722
7673 8 1 -46.179553 -24.278327 22.243699
7674 8 1 -45.695964 -23.587607 22.781330
7675 8 1 -46.561135 -23.289484 22.378090
7676 8 1 -47.409274 -22.841036 22.096037
7677 8 1 -46.443404 -23.098556 22.068119
7678 8 1 -46.926631 -23.182136 22.939615
7679 8 1 -46.359499 -22.539597 22.424342
7680 8 1 -45.878328 -23.401789 22.582768
7681 8 1 -45.557924 -23.795704 23.444262
7682 8 1 -45.482839 -24.771682 23.239742
7683 8 1 -45.179924 -24.737683 22.287331
7684 8 1 -44.624448 -25.569215 22.287295
7685 8 1 -45.318591 -25.059135 22.795215
7686 8 1 -45.352805 -26.041405 22.979534
7687 8 1 -44.739449 -25.686869 23.685296
7688 8 1 -45.473794 -25.038169 23.485482
7689 8 1 -45.983828 -24.189645 23.626452
7690 8 1 -46.448228 -25.058767 23.456279
7691 8 1 -46.755007 -24.169528 23.116955
7692 8 1 -46.085499 -24.459834 23.800681
7693 8 1 -45.630150 -23.604691 24.048446
7694 8 1 -44.989562 -23.772373 23.299093
7695 8 1 -44.361212 -23.028763 23.527614
7696 8 1 -43.445771 -23.430995 23.514333
7697 8 1 -43.864333 -22.992091 22.719242
7698 8 1 -43.703928 -22.570814 23.611877
7699 8 1 -43.608544 -21.657169 23.216714
7700 8 1 -43.368803 -20.868517 22.650540
7701 8 1 -43.470811 -20.712508 23.633014
7702 8 1 -42.873338 -21.428660 23.272249
7703 8 1 -43.015169 -20.893559 24.105046
7704 8 1 -42.989691 -21.497840 23.308682
7705 8 1 -42.541460 -20.655211 23.010242
7706 8 1 -43.277732 -21.324725 23.108498
7707 8 1 -44.205446 -21.695009 23.061191
7708 8 1 -45.083187 -21.558082 22.602037
7709 8 1 -44.733299 -22.404897 23.002639
7710 8 1 -45.652944 -22.375473 23.394286
7711 8 1 -46.567505 -21.984982 23.288949
7712 8 1 -46.707592 -21.271883 22.602025
7713 8 1 -46.339150 -20.428820 22.993809
7714 8 1 -47.099950 -20.110602 23.559424
7715 8 1 -46.833718 -20.760701 22.847741
7716 8 1 -45.935427 -20.355669 23.018101
7717 8 1 -46.071411 -19.871440 23.882410
7718 8 1 -45.356948 -20.525747 24.130251
7719 8 1 -44.437289 -20.539998 23.737791
7720 8 1 -43.525397 -20.936252 23.844732
7721 8 1 -42.764870 -20.417416 23.454337
7722 8 1 -42.325982 -19.858748 24.158090
7723 8 1 -42.272890 -19.740268 25.149626
7724 8 1 -43.069679 -20.182935 24.738319
7725 8 1 -42.368227 -19.490063 24.905333
7726 8 1 -41.574850 -19.844221 24.410233
7727 8 1 -41.655780 -20.660438 23.838184
7728 8 1 -41.284139 -20.866234 22.932904
7729 8 1 -40.405432 -20.397130 23.021308
7730 8 1 -40.372719 -19.962690 23.921415
7731 8 1 -41.225406 -20.072162 23.410590
7732 8 1 -40.862618 -20.999551 23.319299
7733 8 1 -40.013140 -21.100601 22.801441
7734 8 1 -39.519405 -20.391537 22.297999
7735 8 1 -38.810379 -20.305268 22.997884
7736 8 1 -37.878625 -20.244186 22.639966
7737 8 1 -37.410196 -20.708254 21.888158
7738 8 1 -36.598774 -21.259309 21.693395
7739 8 1 -36.897810 -21.274054 20.739267
7740 8 1 -37.680577 -20.708006 20.997851
7741 8 1 -38.541134 -20.304863 21.309166
7742 8 1 -38.614726 -20.931748 22.084795
7743 8 1 -37.817252 -21.091189 21.502889
7744 8 1 -36.853741 -20.987144 21.749507
7745 8 1 -36.333791 -21.784853 21.444037
7746 8 1 -36.996502 -21.313288 20.862280
7747 8 1 -36.271770 -21.364880 21.549377
7748 8 1 -37.247841 -21.270615 21.745334
7749 8 1 -38.092549 -20.747174 21.633626
7750 8 1 -37.305848 -20.137255 21.729024
7751 8 1 -37.610045 -20.082471 22.680057
7752 8 1 -36.945244 -20.330948 21.975572
7753 8 1 -37.784792 -19.859232 21.706048
7754 8 1 -37.607564 -19.378490 20.847283
7755 8 1 -37.793351 -19.161682 21.805655
7756 8 1 -38.276146 -20.030974 21.699644
7757 8 1 -38.533147 -19.420495 20.950467
7758 8 1 -38.651628 -19.405831 21.943315
7759 8 1 -38.080397 -20.116791 21.533154
7760 8 1 -39.066513 -20.227281 21.409187
7761 8 1 -39.602628 -20.155322 22.250258
7762 8 1 -39.233004 -20.743547 21.530975
7763 8 1 -38.347331 -20.776461 21.067834
7764 8 1 -38.875415 -20.453832 20.282316
7765 8 1 -38.663173 -21.037833 21.065832
7766 8 1 -38.766206 -21.463712 21.964726
7767 8 1 -39.551418 -21.003835 22.379401
7768 8 1 -40.406191 -21.379051 22.020826
7769 8 1 -41.294865 -21.284503 21.572140
7770 8 1 -40.966589 -21.590671 20.678554
7771 8 1 -41.825256 -22.017048 20.394138
7772 8 1 -42.706747 -21.572628 20.234556
7773 8 1 -43.560125 -22.018060 19.963752
7774 8 1 -42.602542 -21.779328 19.802381
7775 8 1 -42.369564 -21.163206 19.049975
7776 8 1 -41.554294 -21.613787 19.413723
7777 8 1 -40.625074 -21.564354 19.779927
7778 8 1 -41.155223 -20.866315 20.261261
7779 8 1 -40.286695 -20.442618 20.004084
7780 8 1 -40.874862 -21.056075 19.477083
7781 8 1 -40.371229 -21.714168 18.917380
7782 8 1 -40.814322 -22.453865 18.410905
7783 8 1 -39.979783 -23.003245 18.452436
7784 8 1 -40.339010 -22.679543 19.327749
7785 8 1 -39.892262 -22.595632 18.437032
7786 8 1 -40.844825 -22.484575 18.720389
7787 8 1 -40.177299 -22.397398 17.980923
7788 8 1 -40.934146 -21.989179 17.470492
7789 8 1 -41.439843 -22.715310 17.004654
7790 8 1 -41.065457 -22.454331 17.894444
7791 8 1 -40.705914 -22.265693 18.808306
7792 8 1 -40.337384 -22.354850 17.882976
7793 8 1 -40.537135 -22.963240 18.651065
7794 8 1 -40.482670 -23.450859 17.779709
7795 8 1 -40.309416 -22.967139 16.921806
7796 8 1 -40.137186 -23.948656 17.005241
7797 8 1 -39.359048 -24.561669 17.142049
7798 8 1 -38.610393 -24.684491 16.490566
7799 8 1 -39.541898 -25.045676 16.533499
7800 8 1 -39.935479 -24.659068 15.699455
7801 8 1 -40.915193 -24.500897 15.576399
7802 8 1 -40.540152 -24.368271 14.658927
7803 8 1 -41.063014 -23.515866 14.654521
7804 8 1 -40.394210 -23.424717 15.392350
7805 8 1 -40.192993 -23.798386 14.486876
7806 8 1 -39.802329 -24.112985 13.621769
7807 8 1 -38.806355 -24.024722 13.606151
7808 8 1 -39.728298 -23.693940 13.404648
7809 8 1 -40.412373 -24.076105 12.783366
7810 8 1 -39.523536 -24.512449 12.923265
7811 8 1 -39.059477 -23.691860 12.589673
7812 8 1 -39.842629 -23.209807 12.982480
7813 8 1 -39.016361 -23.381967 13.518802
7814 8 1 -38.718302 -23.361906 12.564466
7815 8 1 -38.716133 -23.541607 11.580747
7816 8 1 -38.290243 -24.084779 10.857157
7817 8 1 -38.468726 -23.604027 11.715656
7818 8 1 -37.560402 -23.220069 11.881558
7819 8 1 -38.384013 -23.774591 11.762522
7820 8 1 -38.473314 -24.231359 12.647614
7821 8 1 -37.786374 -24.712549 13.192196
7822 8 1 -37.751989 -23.801585 13.603245
7823 8 1 -37.159636 -23.415504 14.310394
7824 8 1 -37.137026 -22.417058 14.259459
7825 8 1 -38.049589 -22.461849 14.665937
7826 8 1 -38.711526 -23.199807 14.534568
7827 8 1 -38.318603 -22.980902 13.641432
7828 8 1 -37.800015 -23.382273 12.886470
7829 8 1 -37.805305 -22.523580 12.374007
7830 8 1 -37.934079 -23.493885 12.578764
7831 8 1 -37.384354 -23.067422 13.297048
7832 8 1 -38.348371 -23.200208 13.066747
7833 8 1 -39.102044 -22.681384 13.470230
7834 8 1 -40.050546 -22.678599 13.786990
7835 8 1 -39.755707 -21.729120 13.679469
7836 8 1 -39.963547 -22.547754 13.144081
7837 8 1 -39.977876 -22.564398 12.144322
7838 8 1 -40.201804 -22.252662 13.067727
7839 8 1 -39.658239 -22.425861 13.889030
7840 8 1 -40.533956 -22.348591 13.412428
7841 8 1 -39.758708 -22.924470 13.671956
7842 8 1 -38.871348 -23.199540 13.301917
7843 8 1 -38.994343 -23.553907 12.374935
7844 8 1 -39.698175 -22.989591 12.806407
7845 8 1 -40.370670 -23.729544 12.821208
7846 8 1 -39.386579 -23.873570 12.925236
7847 8 1 -38.550347 -23.399698 13.201208
7848 8 1 -38.929318 -22.482620 13.077321
7849 8 1 -38.862909 -23.431682 13.385332
7850 8 1 -39.679325 -23.756353 13.862883
7851 8 1 -39.952179 -24.498566 14.474986
7852 8 1 -39.128490 -24.343423 15.020391
7853 8 1 -40.029069 -24.267530 14.592375
7854 8 1 -40.988694 -24.166054 14.330034
7855 8 1 -41.814928 -24.205206 13.768070
7856 8 1 -41.150155 -24.785766 14.238205
7857 8 1 -41.988893 -24.258171 14.103435
7858 8 1 -41.697137 -23.301700 14.097062
7859 8 1 -41.213801 -24.077384 13.691230
7860 8 1 -41.052493 -23.391473 12.981648
7861 8 1 -41.166321 -22.831204 12.161196
7862 8 1 -40.936745 -22.988564 13.121681
7863 8 1 -41.097558 -23.574441 13.915965
7864 8 1 -40.487485 -23.385195 14.685379
7865 8 1 -40.953317 -23.247859 13.811228
7866 8 1 -41.852135 -22.966845 13.474839
7867 8 1 -40.933896 -23.355259 13.552123
7868 8 1 -41.901424 -23.300803 13.305293
7869 8 1 -42.775903 -23.117560 12.856175
7870 8 1 -43.667220 -22.664735 12.878650
7871 8 1 -44.093048 -21.763329 12.800310
7872 8 1 -43.440991 -21.092379 12.447256
7873 8 1 -43.178565 -21.332776 11.512728
7874 8 1 -43.439973 -20.367747 11.532351
7875 8 1 -42.751544 -20.058215 10.876413
7876 8 1 -43.040769 -19.101772 10.915996
7877 8 1 -42.646345 -18.812963 10.043632
7878 8 1 -42.230030 -17.933218 9.814002
7879 8 1 -42.594972 -17.746954 10.726209
7880 8 1 -42.874360 -16.830776 10.438875
7881 8 1 -43.193938 -17.756657 10.640404
7882 8 1 -42.454871 -18.427376 10.702981
7883 8 1 -42.853337 -18.863097 11.510058
7884 8 1 -42.433659 -19.703915 11.851958
7885 8 1 -42.286284 -18.729543 12.021898
7886 8 1 -42.070451 -19.669046 11.755907
7887 8 1 -42.280615 -20.558202 12.162395
7888 8 1 -42.994200 -20.440007 12.852922
7889 8 1 -43.872547 -20.678396 12.438583
7890 8 1 -44.353195 -21.553933 12.389460
7891 8 1 -45.161079 -21.969720 11.971796
7892 8 1 -45.992483 -22.442701 11.680151
7893 8 1 -45.970229 -21.545256 11.239587
7894 8 1 -46.206857 -22.035843 12.078235
7895 8 1 -47.010627 -22.573248 12.333481
7896 8 1 -46.941757 -23.449196 12.810945
7897 8 1 -46.103492 -22.905215 12.848323
7898 8 1 -45.812257 -23.352530 13.693954
7899 8 1 -46.637092 -23.152371 14.222711
7900 8 1 -45.874929 -22.733824 14.716600
7901 8 1 -46.101858 -22.102280 15.457987
7902 8 1 -45.399283 -22.812853 15.496369
7903 8 1 -45.481889 -23.080307 16.456392
7904 8 1 -46.331967 -22.566030 16.569907
7905 8 1 -45.989476 -23.075462 15.780490
7906 8 1 -45.099651 -22.628269 15.689777
7907 8 1 -46.088564 -22.572261 15.552251
7908 8 1 -46.634283 -21.770444 15.795726
7909 8 1 -46.932903 -21.506005 14.878721
7910 8 1 -46.687742 -21.385281 13.916785
7911 8 1 -45.964735 -22.014902 13.632462
7912 8 1 -45.105763 -22.132341 14.130833
7913 8 1 -45.881988 -21.525291 13.960644
7914 8 1 -44.904533 -21.414518 14.140399
7915 8 1 -44.071437 -20.861745 14.160236
7916 8 1 -43.830633 -19.891880 14.197317
7917 8 1 -44.042642 -19.420878 13.341041
7918 8 1 -43.355988 -19.773130 13.976985
7919 8 1 -44.269519 -19.378364 14.075077
7920 8 1 -44.846938 -18.654173 13.698070
7921 8 1 -45.588020 -19.309658 13.552686
7922 8 1 -46.230972 -19.493778 12.809240
7923 8 1 -45.916807 -18.962292 12.022587
7924 8 1 -45.216709 -19.535148 12.448848
7925 8 1 -44.378527 -19.624718 11.910864
7926 8 1 -44.778093 -18.911539 11.334911
7927 8 1 -44.929308 -19.007646 12.318729
7928 8 1 -44.237702 -19.226027 11.630259
7929 8 1 -43.313586 -19.331751 11.263064
7930 8 1 -42.513467 -19.484202 10.682919
7931 8 1 -42.295612 -19.667682 9.724339
7932 8 1 -42.533393 -19.499868 8.767627
7933 8 1 -42.713140 -18.588167 8.398178
7934 8 1 -43.427633 -19.142114 8.825546
7935 8 1 -44.246906 -18.639172 8.550153
7936 8 1 -44.682394 -18.238790 9.356407
7937 8 1 -45.625710 -18.032723 9.616582
7938 8 1 -45.480688 -17.965876 10.603749
7939 8 1 -44.486998 -17.854841 10.587882
7940 8 1 -43.765688 -18.346431 10.099977
7941 8 1 -43.277209 -17.509898 10.348172
7942 8 1 -43.027771 -18.400745 9.968471
7943 8 1 -43.103617 -17.827556 9.152566
7944 8 1 -42.406828 -17.873240 9.868386
7945 8 1 -42.603730 -17.031804 9.365181
7946 8 1 -41.692528 -17.278425 9.695163
7947 8 1 -42.510425 -17.782131 9.973235
7948 8 1 -43.509163 -17.740488 10.001321
7949 8 1 -42.632553 -17.735496 10.482497
7950 8 1 -42.632120 -18.094603 11.415793
7951 8 1 -42.358036 -17.280932 10.903136
7952 8 1 -42.957976 -16.756334 11.507180
7953 8 1 -42.250641 -16.736745 12.213787
7954 8 1 -41.892835 -17.658077 12.365845
7955 8 1 -42.648013 -17.186610 12.821285
7956 8 1 -43.057548 -18.038947 13.146560
7957 8 1 -42.530112 -18.886734 13.091165
7958 8 1 -42.717460 -18.215841 13.808663
7959 8 1 -43.270748 -18.462802 13.013125
7960 8 1 -43.189108 -18.172084 13.966444
7961 8 1 -43.918792 -18.842106 14.102943
7962 8 1 -43.508553 -19.753688 14.129836
7963 8 1 -43.222931 -19.834277 15.084784
7964 8 1 -42.265269 -19.556452 15.009306
7965 8 1 -43.182068 -19.806031 14.697553
7966 8 1 -44.175727 -19.845794 14.802726
7967 8 1 -44.199102 -20.572183 14.115839
7968 8 1 -43.849221 -19.941419 13.423221
7969 8 1 -44.761394 -20.350990 13.437087
7970 8 1 -43.858054 -19.964614 13.623342
7971 8 1 -44.338388 -20.008471 12.747353
7972 8 1 -43.651580 -19.893220 12.029710
7973 8 1 -43.589612 -18.961930 11.670740
7974 8 1 -44.556707 -19.215411 11.648919
7975 8 1 -44.148310 -19.261488 12.560560
7976 8 1 -44.114261 -19.030626 13.532951
7977 8 1 -44.875600 -19.666744 13.658318
7978 8 1 -45.223494 -19.886801 14.569660
7979 8 1 -45.910590 -20.488150 14.977433
7980 8 1 -45.850390 -21.465842 15.178666
7981 8 1 -44.912137 -21.552823 15.513503
7982 8 1 -44.970471 -22.286128 14.836110
7983 8 1 -44.607826 -22.040609 13.937105
7984 8 1 -43.800630 -21.742725 14.446712
7985 8 1 -43.298498 -22.584720 14.249461
7986 8 1 -43.946607 -23.336641 14.128755
7987 8 1 -43.728502 -23.442741 15.098895
7988 8 1 -44.087477 -22.512455 15.174426
7989 8 1 -43.189481 -22.280975 14.800233
7990 8 1 -43.350136 -22.841097 15.612916
7991 8 1 -43.236797 -23.283343 16.502620
7992 8 1 -42.738551 -24.053535 16.104431
7993 8 1 -43.610731 -23.758755 16.494823
7994 8 1 -43.787587 -23.016065 15.848964
7995 8 1 -43.418356 -22.902273 16.771309
7996 8 1 -43.613544 -22.950538 17.750886
7997 8 1 -42.788782 -23.035607 17.191842
7998 8 1 -42.988878 -23.728811 16.499434
7999 8 1 -43.520208 -23.739386 17.346533
8000 8 1 -44.195536 -24.476808 17.334621
8001 9 1 6.801096 12.255847 -2.741220
8002 9 1 6.283581 11.475870 -3.093093
8003 9 1 6.260233 10.627468 -2.564255
8004 9 1 7.022608 11.005616 -2.039099
8005 9 1 7.894771 11.483885 -1.936190
8006 9 1 8.012450 10.724921 -2.576600
8007 9 1 7.572446 9.982260 -3.081428
8008 9 1 8.408827 9.814853 -3.603388
8009 9 1 9.378854 9.579298 -3.663056
8010 9 1 10.029241 9.423874 -2.919524
8011 9 1 9.581632 10.285683 -2.680922
8012 9 1 8.635435 10.203568 -2.367923
8013 9 1 8.096670 10.802832 -2.960050
8014 9 1 8.544358 10.650258 -2.078973
8015 9 1 8.911802 11.340340 -1.455458
8016 9 1 8.312435 11.043724 -0.711967
8017 9 1 9.000973 11.378793 -1.355119
8018 9 1 9.668600 11.622989 -0.651810
8019 9 1 8.900370 11.242806 -1.166867
8020 9 1 8.307741 12.044974 -1.239784
8021 9 1 7.847452 11.242326 -1.619112
8022 9 1 8.326287 12.014813 -1.202002
8023 9 1 8.164913 12.144017 -2.180401
8024 9 1 7.197686 12.054650 -1.942735
8025 9 1 7.015224 12.462421 -2.837403
8026 9 1 6.414495 12.725312 -3.592394
8027 9 1 6.137405 12.580500 -2.642525
8028 9 1 5.755861 13.441835 -2.977972
8029 9 1 6.191295 14.030375 -2.296783
8030 9 1 6.084521 13.086562 -2.609538
8031 9 1 6.208685 14.072586 -2.720618
8032 9 1 6.448371 14.342757 -1.788117
8033 9 1 6.840479 15.222067 -2.058424
8034 9 1 5.964954 15.230211 -2.541530
8035 9 1 6.584249 15.254998 -1.756762
8036 9 1 5.748688 14.814111 -2.084569
8037 9 1 6.736264 14.659232 -2.111143
8038 9 1 7.656626 14.344953 -2.343873
8039 9 1 8.197450 13.606214 -1.941661
8040 9 1 7.337321 13.229782 -1.597458
8041 9 1 7.524306 13.218761 -0.615157
8042 9 1 6.842765 12.490351 -0.545012
8043 9 1 5.905715 12.296428 -0.835409
8044 9 1 5.828263 12.491723 -1.813090
8045 9 1 5.308557 13.291787 -2.112763
8046 9 1 5.070895 14.257417 -2.007521
8047 9 1 4.264316 14.652018 -1.567384
8048 9 1 3.431561 15.153113 -1.802803
8049 9 1 2.538506 15.477345 -1.490831
8050 9 1 3.052221 15.927170 -2.221416
8051 9 1 2.718442 15.236448 -1.579937
8052 9 1 2.988672 16.176666 -1.372656
8053 9 1 2.599776 15.647462 -2.126780
8054 9 1 2.332622 16.437457 -2.678629
8055 9 1 1.804302 15.692268 -2.271722
8056 9 1 1.985524 15.437676 -1.321806
8057 9 1 1.730712 15.657212 -0.380065
8058 9 1 1.538937 15.344191 0.550118
8059 9 1 2.208272 16.047354 0.310218
8060 9 1 2.552827 16.130458 1.245299
8061 9 1 2.282965 15.892377 0.312297
8062 9 1 1.761549 15.132225 0.699976
8063 9 1 2.281011 14.943876 1.533454
8064 9 1 2.140613 15.827460 1.980184
8065 9 1 1.803799 15.791675 1.039293
8066 9 1 2.058375 16.744416 1.205049
8067 9 1 3.053364 16.767393 1.107735
8068 9 1 3.332828 16.123756 1.820217
8069 9 1 4.303085 16.205196 1.592251
8070 9 1 4.371679 17.197257 1.486850
8071 9 1 3.685950 16.852850 2.128067
8072 9 1 3.647754 17.852023 2.142057
8073 9 1 3.123913 18.055625 2.969183
8074 9 1 2.955176 17.096358 2.742612
8075 9 1 2.552143 17.819311 2.181450
8076 9 1 1.965153 17.009719 2.179405
8077 9 1 1.306440 16.531310 2.760113
8078 9 1 1.251032 17.347008 3.335930
8079 9 1 0.939264 18.294903 3.401475
8080 9 1 1.326669 17.514008 3.891495
8081 9 1 2.129404 18.014795 4.215269
8082 9 1 2.694304 18.404315 3.487834
8083 9 1 2.620020 19.093019 2.766606
8084 9 1 3.579031 19.374024 2.803151
8085 9 1 4.034717 20.187162 2.440996
8086 9 1 3.754395 19.392381 2.979273
8087 9 1 3.956906 18.680901 3.652166
8088 9 1 4.162365 18.255773 2.770659
8089 9 1 4.995327 18.739113 3.040022
8090 9 1 5.979702 18.854396 3.173125
8091 9 1 6.922392 18.657765 2.903548
8092 9 1 7.474071 17.843928 2.721013
8093 9 1 7.054954 17.888084 1.814155
8094 9 1 6.490962 17.243881 2.330795
8095 9 1 6.984877 18.085832 2.547975
8096 9 1 6.488189 17.314633 2.149788
8097 9 1 7.218031 17.849850 2.575079
8098 9 1 7.695601 17.376057 3.314975
8099 9 1 7.724703 16.674232 2.603221
8100 9 1 7.956957 16.424847 3.543362
8101 9 1 8.736708 16.932377 3.909970
8102 9 1 9.168669 16.174656 3.420821
8103 9 1 9.308559 16.075064 2.435675
8104 9 1 9.787420 15.751131 1.619734
8105 9 1 10.363850 16.500434 1.293737
8106 9 1 10.528551 17.431565 0.968363
8107 9 1 10.783237 16.624363 0.435860
8108 9 1 11.030244 16.682053 1.403154
8109 9 1 10.366816 16.450480 2.114658
8110 9 1 10.785663 16.715098 2.983303
8111 9 1 11.172518 17.592964 2.700999
8112 9 1 11.807594 17.907689 1.995572
8113 9 1 12.516273 18.488546 1.595099
8114 9 1 12.794583 19.448554 1.564612
8115 9 1 13.531469 19.407254 2.239367
8116 9 1 13.693456 18.421630 2.287394
8117 9 1 13.400944 19.076074 1.590157
8118 9 1 14.344363 19.394520 1.682641
8119 9 1 14.313345 19.382556 0.683193
8120 9 1 14.679221 18.598150 0.182353
8121 9 1 14.176163 19.176780 0.824318
8122 9 1 13.767698 18.965020 -0.063553
8123 9 1 13.231218 19.165998 0.756080
8124 9 1 12.885075 19.653524 -0.045483
8125 9 1 13.487964 20.449075 0.014723
8126 9 1 13.736099 21.381011 0.279152
8127 9 1 13.127217 21.668123 -0.460326
8128 9 1 13.695989 21.999579 0.292425
8129 9 1 14.288021 22.798639 0.187534
8130 9 1 15.232198 22.837827 -0.139567
8131 9 1 16.078648 22.314843 -0.039521
8132 9 1 15.313309 21.792465 0.336480
8133 9 1 15.458363 22.392708 -0.450074
8134 9 1 15.918954 22.383735 0.437493
8135 9 1 15.543672 21.456883 0.447894
8136 9 1 15.180713 20.672639 -0.055319
8137 9 1 15.804977 20.498369 0.706209
8138 9 1 16.095049 20.184235 -0.197771
8139 9 1 16.505394 19.546239 -0.849367
8140 9 1 16.844712 20.202405 -0.175342
8141 9 1 16.553901 20.063469 -1.121981
8142 9 1 16.567594 20.221951 -0.134714
8143 9 1 16.497970 19.538542 0.591995
8144 9 1 15.942054 18.709992 0.658783
8145 9 1 16.066440 18.700035 -0.333401
8146 9 1 15.963011 18.096268 -1.123824
8147 9 1 16.313245 18.997146 -0.867393
8148 9 1 16.818217 19.222643 -0.034234
8149 9 1 15.869414 18.994998 -0.253214
8150 9 1 16.364440 19.728487 -0.718986
8151 9 1 15.956614 19.119555 -1.399339
8152 9 1 16.403591 18.464153 -0.790520
8153 9 1 16.177247 19.121274 -0.071521
8154 9 1 16.755900 19.905725 -0.294676
8155 9 1 17.366876 19.646641 -1.042730
8156 9 1 17.228073 20.241913 -1.834175
8157 9 1 17.851391 19.750434 -2.442387
8158 9 1 17.222883 20.505292 -2.629916
8159 9 1 17.473910 20.817093 -3.546302
8160 9 1 17.330466 21.553875 -2.885563
8161 9 1 17.249269 22.478572 -2.513620
8162 9 1 17.593001 21.704756 -3.045651
8163 9 1 18.305714 21.671345 -3.746311
8164 9 1 18.596340 21.821169 -4.691345
8165 9 1 18.665701 21.474824 -3.755806
8166 9 1 18.553435 21.691482 -2.786035
8167 9 1 18.747549 21.232263 -3.652889
8168 9 1 18.022514 20.564060 -3.819712
8169 9 1 17.677429 20.128738 -4.651223
8170 9 1 18.345004 20.039291 -5.390373
8171 9 1 18.389447 21.036912 -5.443078
8172 9 1 18.683072 20.307837 -4.824827
8173 9 1 19.156837 21.138090 -4.531185
8174 9 1 19.948637 21.548425 -4.078771
8175 9 1 20.677918 21.003321 -3.665235
8176 9 1 21.371481 21.689394 -3.884947
8177 9 1 20.820673 21.337548 -4.641792
8178 9 1 21.223868 20.425929 -4.561887
8179 9 1 21.252076 20.150609 -5.522825
8180 9 1 20.894900 20.732411 -6.253532
8181 9 1 21.079114 19.947815 -6.845541
8182 9 1 20.953199 20.921632 -6.656266
8183 9 1 21.424693 21.447587 -5.948406
8184 9 1 21.679090 22.395780 -5.758110
8185 9 1 20.679212 22.380958 -5.763034
8186 9 1 21.363784 21.721009 -6.072594
8187 9 1 21.145274 21.897557 -7.032325
8188 9 1 20.174236 21.797184 -6.815505
8189 9 1 19.190998 21.617339 -6.845483
8190 9 1 19.164665 22.394849 -7.473802
8191 9 1 19.432688 22.635007 -8.406802
8192 9 1 20.038970 21.849686 -8.281532
8193 9 1 19.297929 21.456142 -7.737491
8194 9 1 20.272958 21.559198 -7.540776
8195 9 1 20.130561 22.432631 -7.075117
8196 9 1 19.382152 23.035183 -7.352271
8197 9 1 18.514103 22.557228 -7.486624
8198 9 1 18.228685 21.648837 -7.181073
8199 9 1 17.889754 21.664866 -6.240398
8200 9 1 17.974685 20.792078 -6.721051
8201 9 1 17.468608 21.052584 -5.898846
8202 9 1 16.599817 20.601741 -5.694046
8203 9 1 16.963760 21.246949 -5.022293
8204 9 1 16.285336 21.613535 -5.658968
8205 9 1 16.293329 22.365665 -5.000001
8206 9 1 16.210711 21.647685 -4.308858
8207 9 1 16.413181 20.800440 -3.817755
8208 9 1 16.796480 20.052340 -3.276066
8209 9 1 17.300002 20.385795 -4.073106
8210 9 1 16.584329 20.546910 -3.393508
8211 9 1 16.829877 21.482814 -3.646077
8212 9 1 16.050583 20.970133 -3.285717
8213 9 1 16.542298 21.717349 -2.838633
8214 9 1 17.326363 21.963580 -2.268885
8215 9 1 18.070423 22.515942 -2.644745
8216 9 1 17.693061 22.494362 -1.718931
8217 9 1 17.948025 21.764292 -2.352959
8218 9 1 17.508255 22.328691 -1.654349
8219 9 1 16.701740 21.893121 -2.054114
8220 9 1 15.709221 21.817114 -2.149663
8221 9 1 15.919459 20.954452 -2.609680
8222 9 1 16.152983 20.698031 -1.671749
8223 9 1 17.137286 20.662042 -1.498968
8224 9 1 17.084339 21.622491 -1.772342
8225 9 1 16.603970 20.953657 -2.339709
8226 9 1 16.807842 20.354231 -3.113740
8227 9 1 15.904795 20.759522 -2.971457
8228 9 1 15.018636 20.850682 -3.425783
8229 9 1 15.963601 20.934510 -3.742034
8230 9 1 15.256165 21.508820 -4.153982
8231 9 1 14.328515 21.491529 -4.527033
8232 9 1 13.457840 21.907156 -4.790053
8233 9 1 14.341370 21.863924 -4.323677
8234 9 1 15.254615 22.218501 -4.524320
8235 9 1 14.567039 22.112549 -5.242661
8236 9 1 13.853227 21.422331 -5.361286
8237 9 1 14.551268 21.939713 -4.866256
8238 9 1 14.503231 21.971165 -5.864606
8239 9 1 15.417154 21.708578 -5.555102
8240 9 1 15.588508 20.820162 -5.129243
8241 9 1 15.349201 21.217804 -4.243460
8242 9 1 14.859056 21.708862 -4.963613
8243 9 1 15.397884 21.970494 -5.764371
8244 9 1 15.485769 22.817450 -5.240022
8245 9 1 16.303657 23.203540 -5.666630
8246 9 1 15.357843 23.510775 -5.561551
8247 9 1 16.278357 23.349534 -5.205666
8248 9 1 16.150397 22.555609 -5.800063
8249 9 1 15.193117 22.588112 -6.087396
8250 9 1 15.587230 23.305811 -6.661490
8251 9 1 14.635026 23.469264 -6.403438
8252 9 1 15.260829 22.699858 -6.531446
8253 9 1 15.975422 22.717429 -5.832127
8254 9 1 16.335666 22.038793 -5.192066
8255 9 1 16.658022 21.691833 -4.311325
8256 9 1 17.199900 22.190042 -4.988197
8257 9 1 16.528096 21.481925 -5.205569
8258 9 1 16.931357 22.174748 -4.607759
8259 9 1 16.616273 23.081134 -4.889160
8260 9 1 16.210079 22.965641 -3.982701
8261 9 1 15.318064 23.383722 -4.154511
8262 9 1 15.038211 22.428410 -4.249704
8263 9 1 14.538590 22.161124 -5.073680
8264 9 1 14.343615 21.180367 -5.063667
8265 9 1 14.777150 22.053221 -5.287662
8266 9 1 15.459672 22.325611 -4.609453
8267 9 1 14.864676 21.571182 -4.886610
8268 9 1 15.018293 21.847900 -5.835203
8269 9 1 15.173009 22.809920 -6.060102
8270 9 1 15.876683 22.148747 -5.799926
8271 9 1 15.438515 21.939299 -6.674078
8272 9 1 15.867823 22.805281 -6.930535
8273 9 1 16.165265 21.946149 -7.346973
8274 9 1 16.980994 22.514334 -7.455385
8275 9 1 17.071830 22.819514 -6.507432
8276 9 1 17.699449 23.324469 -7.099982
8277 9 1 16.704308 23.415463 -7.137592
8278 9 1 16.990543 22.463045 -7.242323
8279 9 1 16.073428 22.807815 -7.442408
8280 9 1 16.690012 23.481856 -7.849217
8281 9 1 17.225704 23.720912 -7.039349
8282 9 1 16.287346 23.480887 -7.288091
8283 9 1 17.179315 23.748745 -6.923887
8284 9 1 17.659213 23.048387 -7.452277
8285 9 1 17.718561 22.077994 -7.686403
8286 9 1 16.839214 21.996086 -8.155487
8287 9 1 16.239816 21.634395 -8.869561
8288 9 1 15.763194 22.350980 -9.378813
8289 9 1 16.413138 21.699001 -8.988305
8290 9 1 16.042481 22.349783 -9.650948
8291 9 1 16.350253 23.216955 -10.042470
8292 9 1 16.758656 23.798304 -10.746203
8293 9 1 16.920531 23.663870 -11.723815
8294 9 1 17.608578 24.288790 -11.354942
8295 9 1 16.634103 24.191701 -11.557357
8296 9 1 16.881726 25.040549 -12.024412
8297 9 1 16.481209 25.884505 -11.667587
8298 9 1 15.907632 26.384082 -11.018409
8299 9 1 16.713337 26.848481 -11.386067
8300 9 1 16.233362 27.382543 -10.690078
8301 9 1 15.591729 27.970259 -10.197231
8302 9 1 15.083644 27.815861 -9.349877
8303 9 1 14.394777 27.934496 -10.064990
8304 9 1 14.086740 27.983090 -11.015123
8305 9 1 14.497373 28.806626 -10.623755
8306 9 1 13.516754 28.755341 -10.812850
8307 9 1 13.521547 29.439767 -11.541917
8308 9 1 14.184616 28.898407 -11.024936
8309 9 1 14.301138 29.025786 -10.039950
8310 9 1 15.023865 28.337624 -9.975930
8311 9 1 14.158187 28.160008 -9.507899
8312 9 1 13.388107 27.790316 -10.027808
8313 9 1 12.821100 28.370302 -9.442898
8314 9 1 12.256018 27.551241 -9.542002
8315 9 1 12.767444 27.810953 -8.722860
8316 9 1 13.544493 27.557368 -8.146761
8317 9 1 12.941783 28.311584 -8.407336
8318 9 1 12.297361 27.876251 -7.778682
8319 9 1 12.133767 27.175867 -7.083918
8320 9 1 11.972540 26.513543 -7.815582
8321 9 1 11.861241 25.597420 -8.200721
8322 9 1 10.902883 25.315410 -8.155765
8323 9 1 10.206570 25.913344 -8.552782
8324 9 1 10.285243 26.843718 -8.194713
8325 9 1 10.579553 26.190165 -8.892029
8326 9 1 10.521935 26.412649 -7.918796
8327 9 1 11.284418 26.334854 -8.561110
8328 9 1 11.007036 26.242149 -9.517387
8329 9 1 10.191798 26.315724 -8.942954
8330 9 1 9.930810 26.978919 -8.241485
8331 9 1 10.736935 27.233641 -8.775601
8332 9 1 11.534392 27.736105 -9.109654
8333 9 1 12.130402 28.538963 -9.095851
8334 9 1 12.150261 27.611813 -9.470014
8335 9 1 12.402239 27.929863 -10.383990
8336 9 1 13.395455 27.889773 -10.493142
8337 9 1 12.728256 28.128774 -11.198637
8338 9 1 13.294689 27.457558 -10.720492
8339 9 1 12.391642 27.487047 -10.291964
8340 9 1 12.302672 28.364761 -10.762816
8341 9 1 13.116069 28.276983 -11.337865
8342 9 1 12.347697 28.835713 -11.649997
8343 9 1 12.861823 28.164899 -12.184491
8344 9 1 13.630280 27.577714 -11.930156
8345 9 1 12.966507 26.843654 -12.073543
8346 9 1 12.431892 26.026602 -11.857642
8347 9 1 11.512761 26.418649 -11.818947
8348 9 1 10.541612 26.644250 -11.741654
8349 9 1 11.458973 26.947698 -11.484034
8350 9 1 11.976611 26.249472 -11.978534
8351 9 1 11.369769 25.505027 -11.700065
8352 9 1 11.464859 26.399904 -12.136131
8353 9 1 10.604374 26.882689 -11.973392
8354 9 1 10.849758 26.157408 -11.330155
8355 9 1 11.099767 25.637584 -10.513283
8356 9 1 10.395111 25.914286 -9.859910
8357 9 1 10.098621 26.803161 -9.510632
8358 9 1 9.815611 27.426398 -10.239659
8359 9 1 8.941086 27.028553 -9.962306
8360 9 1 8.395603 26.454980 -10.573421
8361 9 1 9.102354 26.716010 -11.230968
8362 9 1 8.371567 26.810503 -10.554934
8363 9 1 8.176731 27.698108 -10.137566
8364 9 1 7.474393 27.106361 -9.741891
8365 9 1 8.216253 26.459787 -9.919618
8366 9 1 7.487177 26.830596 -9.344336
8367 9 1 7.454876 27.365233 -8.499872
8368 9 1 7.040655 28.201114 -8.860043
8369 9 1 8.006701 28.453700 -8.805687
8370 9 1 8.201727 29.426811 -8.928240
8371 9 1 8.523409 30.131373 -8.295695
8372 9 1 8.936784 29.743827 -7.471723
8373 9 1 8.990630 29.383190 -6.540572
8374 9 1 9.912280 29.760314 -6.631892
8375 9 1 9.511193 30.550344 -6.168231
8376 9 1 10.244690 30.249556 -6.777746
8377 9 1 9.387000 30.649333 -7.101083
8378 9 1 8.712795 30.264593 -7.731497
8379 9 1 7.879140 30.804894 -7.845923
8380 9 1 7.392314 30.421681 -8.630875
8381 9 1 6.489817 30.663562 -8.987234
8382 9 1 6.339119 29.794952 -9.459258
8383 9 1 7.191490 29.480093 -9.041733
8384 9 1 6.696187 30.173764 -8.518765
8385 9 1 7.433030 30.390707 -9.159076
8386 9 1 6.565537 30.079748 -9.547353
8387 9 1 5.979448 29.325905 -9.844375
8388 9 1 5.535651 30.209371 -9.694266
8389 9 1 6.418845 30.486154 -10.072895
8390 9 1 6.308271 30.850232 -9.148114
8391 9 1 5.384110 30.618532 -8.844400
8392 9 1 5.498360 29.704813 -8.454446
8393 9 1 5.657811 30.680081 -8.607505
8394 9 1 6.550436 31.009127 -8.299364
8395 9 1 6.550939 30.546052 -9.185683
8396 9 1 6.320057 29.573489 -9.157157
8397 9 1 5.822387 28.907579 -8.601378
8398 9 1 6.441443 29.654104 -8.845246
8399 9 1 5.500363 29.669396 -8.507407
8400 9 1 6.410921 29.589462 -8.912987
8401 9 1 6.311316 28.649545 -8.586439
8402 9 1 6.105467 29.588404 -8.862427
8403 9 1 6.267064 28.975608 -8.088885
8404 9 1 6.884157 29.747680 -8.240881
8405 9 1 7.550388 30.189833 -7.640351
8406 9 1 7.987775 30.946228 -7.153978
8407 9 1 7.526293 31.029484 -6.270744
8408 9 1 6.838793 31.561754 -6.764741
8409 9 1 6.905894 32.381903 -7.332942
8410 9 1 7.416555 31.758366 -6.740973
8411 9 1 7.261830 32.743278 -6.818495
8412 9 1 6.544875 32.046809 -6.848593
8413 9 1 5.878558 32.160093 -7.585607
8414 9 1 6.352597 32.986021 -7.890779
8415 9 1 7.105214 33.036147 -7.234231
8416 9 1 8.064270 33.180994 -7.477605
8417 9 1 7.421511 33.841767 -7.865214
8418 9 1 8.309333 33.609509 -7.467937
8419 9 1 7.519766 34.065547 -7.878563
8420 9 1 6.731446 33.456290 -7.792783
8421 9 1 6.097066 33.369933 -8.560965
8422 9 1 6.773043 32.764893 -8.140274
8423 9 1 6.315369 32.036222 -8.649756
8424 9 1 6.416129 32.429354 -7.735812
8425 9 1 6.414145 33.089423 -8.487014
8426 9 1 5.525768 33.548449 -8.477982
8427 9 1 5.770274 32.580786 -8.415969
8428 9 1 5.861479 33.348019 -9.050820
8429 9 1 6.700990 33.054435 -8.593624
8430 9 1 7.581654 33.155860 -8.130866
8431 9 1 8.537411 33.347675 -8.353880
8432 9 1 7.593478 33.613492 -8.158093
8433 9 1 7.627261 33.134568 -9.035300
8434 9 1 7.352385 32.415714 -8.396792
8435 9 1 6.537100 31.969212 -8.028085
8436 9 1 6.002753 31.900120 -7.185648
8437 9 1 5.571503 32.666331 -7.662035
8438 9 1 6.022645 31.966895 -8.216346
8439 9 1 5.145795 32.419882 -8.055298
8440 9 1 4.450840 33.006580 -8.471019
8441 9 1 4.229863 32.587695 -9.351760
8442 9 1 5.062325 32.196682 -9.744335
8443 9 1 5.672910 31.966517 -10.502101
8444 9 1 5.998630 32.897269 -10.335949
8445 9 1 5.383301 32.318808 -10.871441
8446 9 1 4.631916 31.740521 -11.189255
8447 9 1 4.419656 31.713621 -10.212412
8448 9 1 3.421183 31.764115 -10.234822
8449 9 1 2.768805 32.436508 -9.885121
8450 9 1 2.081238 32.996527 -10.347323
8451 9 1 2.334140 33.921057 -10.632427
8452 9 1 2.753526 33.166906 -11.137771
8453 9 1 2.259719 33.016324 -10.281336
8454 9 1 2.829465 32.509613 -10.928356
8455 9 1 2.790195 31.879903 -11.704193
8456 9 1 2.216109 32.225662 -12.446403
8457 9 1 1.670183 31.533310 -11.974582
8458 9 1 2.384965 31.601664 -12.670581
8459 9 1 2.413678 31.264113 -13.611450
8460 9 1 2.086735 31.318955 -12.667999
8461 9 1 2.567501 30.882814 -13.428686
8462 9 1 2.755793 31.864134 -13.389230
8463 9 1 2.850050 31.262698 -14.182571
8464 9 1 2.767193 30.933633 -15.123236
8465 9 1 2.785203 31.350146 -14.214285
8466 9 1 2.171159 30.649952 -14.578535
8467 9 1 1.494307 31.358005 -14.377209
8468 9 1 0.571051 31.706555 -14.538796
8469 9 1 0.575474 31.158653 -15.375326
8470 9 1 0.879300 30.239223 -15.625006
8471 9 1 0.869130 29.938269 -14.671421
8472 9 1 1.029612 28.959063 -14.795522
8473 9 1 1.948360 29.353886 -14.799734
8474 9 1 1.014837 29.070811 -15.019742
8475 9 1 1.888834 28.909844 -15.478238
8476 9 1 1.955023 28.297479 -14.690439
8477 9 1 1.673707 29.199105 -15.018970
8478 9 1 1.934977 28.931614 -14.091508
8479 9 1 2.229735 28.469376 -13.255174
8480 9 1 3.138814 28.867119 -13.379175
8481 9 1 2.310219 29.347478 -13.666725
8482 9 1 2.454596 28.383980 -13.892174
8483 9 1 3.175949 29.057525 -13.730968
8484 9 1 3.594753 28.699385 -12.896499
8485 9 1 3.248843 27.896755 -13.382432
8486 9 1 3.569725 28.413781 -14.175980
8487 9 1 3.903377 29.009763 -13.445581
8488 9 1 3.924917 29.306111 -14.400418
8489 9 1 3.342896 30.114682 -14.314024
8490 9 1 3.206371 31.103912 -14.366793
8491 9 1 3.006893 31.666288 -13.564333
8492 9 1 2.311154 31.001986 -13.291111
8493 9 1 2.848452 30.159080 -13.262478
8494 9 1 3.652976 30.724591 -13.080991
8495 9 1 4.573413 30.342735 -12.997434
8496 9 1 4.811389 29.612727 -13.638103
8497 9 1 5.575358 30.132470 -13.255718
8498 9 1 4.813843 30.760479 -13.095405
8499 9 1 5.012500 30.811552 -12.116667
8500 9 1 4.343642 30.656233 -12.843650
8501 9 1 5.010295 31.378947 -13.026017
8502 9 1 5.957087 31.065570 -13.099367
8503 9 1 6.225240 30.120928 -13.288431
8504 9 1 5.400552 29.569667 -13.161931
8505 9 1 5.842916 29.178250 -13.968843
8506 9 1 5.260255 28.381247 -14.127876
8507 9 1 5.561275 28.832974 -14.967715
8508 9 1 6.385655 28.270041 -15.026915
8509 9 1 6.428209 27.422319 -14.498183
8510 9 1 5.771617 27.255866 -15.233833
8511 9 1 4.938483 27.136299 -15.773824
8512 9 1 4.619333 27.322653 -16.703026
8513 9 1 4.410674 26.391144 -16.405114
8514 9 1 4.064893 27.145448 -16.963201
8515 9 1 3.789527 26.671208 -17.799425
8516 9 1 3.168967 27.447101 -17.685867
8517 9 1 2.471270 27.849763 -18.278389
8518 9 1 3.307521 28.395043 -18.336296
8519 9 1 2.915665 29.033551 -18.998684
8520 9 1 2.779396 29.601472 -18.186959
8521 9 1 1.925263 29.492306 -18.695427
8522 9 1 1.784939 28.503872 -18.637906
8523 9 1 1.251068 28.524015 -19.483232
8524 9 1 0.781892 27.830099 -18.937014
8525 9 1 0.481067 28.034596 -19.868510
8526 9 1 0.812173 27.197091 -19.433822
8527 9 1 0.558490 26.256886 -19.206534
8528 9 1 -0.426928 26.426540 -19.219492
8529 9 1 0.221413 26.081418 -18.540858
8530 9 1 0.810490 26.283652 -17.758496
8531 9 1 0.337430 25.778744 -18.480495
8532 9 1 0.384171 25.343880 -17.581213
8533 9 1 1.011391 26.049419 -17.911074
8534 9 1 0.509403 25.367988 -18.443669
8535 9 1 1.373920 24.920796 -18.214259
8536 9 1 1.166005 24.131727 -17.636209
8537 9 1 0.179524 24.055566 -17.781311
8538 9 1 -0.249685 24.301532 -18.650380
8539 9 1 0.699062 24.497660 -18.898198
8540 9 1 0.366252 23.676404 -18.434758
8541 9 1 1.159869 24.274350 -18.547156
8542 9 1 0.919748 25.152419 -18.133226
8543 9 1 1.519713 25.944664 -18.021921
8544 9 1 2.010220 25.272091 -18.576040
8545 9 1 2.090492 24.490765 -19.194980
8546 9 1 2.376694 23.727847 -19.774674
8547 9 1 3.167408 23.160461 -19.544796
8548 9 1 3.535575 23.650182 -18.754463
8549 9 1 4.095632 24.038295 -19.486382
8550 9 1 3.752088 24.256006 -20.399935
8551 9 1 4.188883 24.691636 -19.612892
8552 9 1 3.968484 25.191909 -20.450240
8553 9 1 3.432475 25.093482 -19.611785
8554 9 1 2.873418 25.421858 -18.850454
8555 9 1 2.378685 25.160556 -19.679285
8556 9 1 3.283528 25.574290 -19.779704
8557 9 1 2.944500 25.650024 -18.841981
8558 9 1 2.401877 25.293984 -19.602768
8559 9 1 2.971243 25.912565 -20.144230
8560 9 1 2.384206 26.183927 -19.381504
8561 9 1 3.335358 26.492299 -19.366802
8562 9 1 4.161795 25.941620 -19.249524
8563 9 1 4.833845 26.618709 -19.549356
8564 9 1 4.231270 27.197325 -18.999713
8565 9 1 3.395642 26.679335 -18.816923
8566 9 1 4.228863 26.806915 -18.278903
8567 9 1 3.407682 26.828281 -18.849170
8568 9 1 3.816591 27.722709 -19.030257
8569 9 1 4.787794 27.484686 -19.019852
8570 9 1 4.120795 27.134434 -18.362254
8571 9 1 5.017999 27.574682 -18.396976
8572 9 1 5.932065 27.878758 -18.128608
8573 9 1 6.165738 28.848080 -18.052374
8574 9 1 5.909733 28.800365 -17.086877
8575 9 1 6.424763 29.342484 -17.750843
8576 9 1 7.268382 29.370959 -17.214656
8577 9 1 7.670891 28.466039 -17.076433
8578 9 1 7.344070 29.404478 -17.188331
8579 9 1 6.851181 28.544741 -17.322171
8580 9 1 7.668413 28.709789 -16.770003
8581 9 1 7.684499 29.458359 -17.432864
8582 9 1 8.052158 29.430191 -16.503330
8583 9 1 7.783921 29.988882 -17.288131
8584 9 1 7.736460 29.747973 -18.257518
8585 9 1 6.972565 29.428550 -18.818262
8586 9 1 6.346515 30.063770 -19.270541
8587 9 1 5.541980 29.721021 -18.785519
8588 9 1 5.032784 29.905548 -19.626155
8589 9 1 4.646572 29.007184 -19.416913
8590 9 1 5.004094 29.145331 -20.340544
8591 9 1 5.273761 28.262910 -20.726047
8592 9 1 4.681552 27.821516 -20.051911
8593 9 1 5.121844 27.651649 -20.933550
8594 9 1 4.282399 27.544680 -21.466364
8595 9 1 4.937009 27.182527 -22.129938
8596 9 1 5.157150 27.096923 -23.101642
8597 9 1 4.782290 27.296456 -22.196288
8598 9 1 3.810466 27.279003 -22.431347
8599 9 1 3.539136 26.355960 -22.158636
8600 9 1 3.568219 25.471257 -22.623883
8601 9 1 4.256378 25.010051 -23.183995
8602 9 1 3.758609 25.860721 -23.014917
8603 9 1 2.988627 26.350634 -23.423711
8604 9 1 3.136680 27.081580 -24.089893
8605 9 1 3.134207 26.465876 -24.877867
8606 9 1 2.679386 26.756731 -24.036118
8607 9 1 3.549514 26.530225 -23.598429
8608 9 1 3.701413 27.505835 -23.439966
8609 9 1 3.601884 27.877648 -22.517009
8610 9 1 3.071015 28.277275 -23.264321
8611 9 1 3.963682 27.831772 -23.332671
8612 9 1 4.621848 28.529630 -23.615181
8613 9 1 4.623926 28.190728 -24.556001
8614 9 1 3.642444 28.132368 -24.373554
8615 9 1 2.718728 27.824824 -24.601954
8616 9 1 1.732278 27.666958 -24.557294
8617 9 1 2.374825 27.632346 -25.322759
8618 9 1 3.035137 27.295462 -25.993950
8619 9 1 2.660689 26.483895 -25.545455
8620 9 1 2.520921 27.365041 -25.093740
8621 9 1 2.071323 26.957099 -25.888376
8622 9 1 2.654942 26.908420 -25.077808
8623 9 1 1.727768 27.180818 -24.820615
8624 9 1 1.249722 28.050683 -24.942296
8625 9 1 1.181110 28.150700 -25.934913
8626 9 1 1.984130 27.828027 -25.433874
8627 9 1 2.734647 27.740409 -24.778856
8628 9 1 3.214174 27.143533 -24.135589
8629 9 1 2.802487 27.756267 -24.810178
8630 9 1 2.857495 26.912000 -24.277086
8631 9 1 3.233019 26.793661 -25.196312
8632 9 1 2.356692 27.256010 -25.331529
8633 9 1 1.369696 27.167796 -25.465906
8634 9 1 1.499645 26.187951 -25.617615
8635 9 1 1.944936 27.043627 -25.353920
8636 9 1 1.765120 28.027040 -25.330162
8637 9 1 0.937528 28.072572 -25.889643
8638 9 1 1.793774 28.191377 -25.386922
8639 9 1 2.605641 27.761380 -25.781859
8640 9 1 3.337092 27.967953 -26.431711
8641 9 1 2.928091 28.333426 -25.595560
8642 9 1 3.365358 27.560657 -26.055588
8643 9 1 2.461976 27.723062 -25.658694
8644 9 1 1.530741 27.894812 -25.337286
8645 9 1 2.344443 27.978525 -25.912510
8646 9 1 2.910705 27.430924 -25.296490
8647 9 1 2.698795 27.939099 -24.461713
8648 9 1 2.492652 28.641498 -25.142992
8649 9 1 2.746552 28.003286 -24.416204
8650 9 1 2.499354 28.482733 -25.258240
8651 9 1 2.971844 27.916017 -25.933211
8652 9 1 1.995156 28.130127 -25.917809
8653 9 1 1.535227 27.242270 -25.904626
8654 9 1 2.101591 27.162284 -26.724891
8655 9 1 2.982472 27.461953 -26.358495
8656 9 1 2.354167 26.700019 -26.201364
8657 9 1 1.650791 27.368910 -26.441879
8658 9 1 2.540426 27.803695 -26.581566
8659 9 1 2.929172 28.347467 -27.325333
8660 9 1 3.289385 28.531359 -28.239899
8661 9 1 2.824968 28.419860 -27.361329
8662 9 1 2.784711 28.093565 -28.305739
8663 9 1 2.210165 28.077604 -29.124056
8664 9 1 1.400798 28.596895 -28.849716
8665 9 1 1.772407 28.534375 -27.923434
8666 9 1 1.361201 27.999398 -27.185390
8667 9 1 1.664910 27.492011 -27.991814
8668 9 1 2.627449 27.240395 -27.890781
8669 9 1 3.444283 27.041585 -28.432313
8670 9 1 3.715588 26.767191 -27.509762
8671 9 1 2.934594 26.326138 -27.951939
8672 9 1 2.822977 25.841548 -28.819530
8673 9 1 2.866226 25.172426 -29.561423
8674 9 1 2.608924 24.694652 -28.721466
8675 9 1 2.991815 25.236865 -27.973536
8676 9 1 2.255342 24.926353 -27.372546
8677 9 1 2.698229 25.806350 -27.544173
8678 9 1 2.187902 26.508833 -27.048105
8679 9 1 1.428996 26.518467 -27.699234
8680 9 1 2.357178 26.837092 -27.891478
8681 9 1 1.675724 26.145511 -27.652027
8682 9 1 0.928422 25.562667 -27.332916
8683 9 1 1.655660 25.857727 -27.952645
8684 9 1 0.694729 25.972867 -28.204346
8685 9 1 0.023149 26.519477 -27.704148
8686 9 1 -0.598938 27.299370 -27.635049
8687 9 1 -0.768556 27.189856 -26.655643
8688 9 1 0.087851 26.987570 -27.130666
8689 9 1 0.363587 27.895630 -26.815393
8690 9 1 1.101565 28.176280 -26.201696
8691 9 1 1.437854 28.869249 -25.563963
8692 9 1 0.790851 28.124896 -25.398661
8693 9 1 -0.121033 28.405281 -25.698416
8694 9 1 -0.547189 27.665917 -26.219696
8695 9 1 -1.019905 28.505913 -25.953338
8696 9 1 -0.043082 28.617461 -25.770651
8697 9 1 -0.217227 29.575627 -25.543513
8698 9 1 -0.364781 29.118404 -26.420540
8699 9 1 -1.152914 29.587206 -26.819377
8700 9 1 -0.639978 28.739651 -26.683190
8701 9 1 -0.169482 28.062661 -27.249156
8702 9 1 0.098966 28.668993 -26.500626
8703 9 1 -0.471997 29.155702 -25.839478
8704 9 1 -1.366445 28.732566 -25.984111
8705 9 1 -2.138028 28.128958 -25.783321
8706 9 1 -2.858059 28.029430 -25.096553
8707 9 1 -1.966477 27.783655 -25.476917
8708 9 1 -1.247606 28.251498 -24.962768
8709 9 1 -2.102437 27.874056 -25.318861
8710 9 1 -2.938874 28.063433 -24.804556
8711 9 1 -2.382495 27.718797 -25.560643
8712 9 1 -1.851406 27.207828 -26.236555
8713 9 1 -2.392712 26.388914 -26.427261
8714 9 1 -3.306232 25.984341 -26.384821
8715 9 1 -2.386010 25.820132 -26.740104
8716 9 1 -2.133026 26.708578 -27.123069
8717 9 1 -1.965175 27.301693 -27.910495
8718 9 1 -2.691717 27.500975 -28.568084
8719 9 1 -3.592279 27.119439 -28.359713
8720 9 1 -3.388867 26.361168 -27.740319
8721 9 1 -3.793695 26.647092 -28.608859
8722 9 1 -3.503141 27.550214 -28.925007
8723 9 1 -4.454970 27.284618 -28.771772
8724 9 1 -3.489422 27.124240 -28.566842
8725 9 1 -3.570808 26.430804 -27.850935
8726 9 1 -3.633204 27.324947 -28.294347
8727 9 1 -4.179955 27.781070 -27.592197
8728 9 1 -3.572733 28.431582 -27.136001
8729 9 1 -4.084224 29.279060 -26.994018
8730 9 1 -4.658375 29.478621 -27.788075
8731 9 1 -3.763679 29.747598 -27.431464
8732 9 1 -3.973478 30.588959 -26.933370
8733 9 1 -4.807454 30.536936 -26.384028
8734 9 1 -5.486426 31.218393 -26.657183
8735 9 1 -5.216233 31.507758 -27.575476
8736 9 1 -5.061211 30.540137 -27.376281
8737 9 1 -5.658590 30.889141 -28.098316
8738 9 1 -6.192724 31.056485 -28.926988
8739 9 1 -6.891678 30.774169 -28.269904
8740 9 1 -6.244316 30.761108 -29.031974
8741 9 1 -6.839408 29.959360 -28.976611
8742 9 1 -7.741822 29.629519 -28.699383
8743 9 1 -7.377102 30.410687 -28.192673
8744 9 1 -7.594612 30.491052 -29.165417
8745 9 1 -7.997430 30.758155 -30.040856
8746 9 1 -8.001466 31.589448 -30.596676
8747 9 1 -7.492019 31.060507 -29.917938
8748 9 1 -7.237397 30.134214 -30.195692
8749 9 1 -7.012668 29.192489 -30.445995
8750 9 1 -6.207733 29.209497 -29.852875
8751 9 1 -6.872367 28.463400 -29.892897
8752 9 1 -7.093829 28.831358 -30.795982
8753 9 1 -7.627365 29.114674 -29.999068
8754 9 1 -7.237396 28.199727 -29.895158
8755 9 1 -7.808721 27.444117 -29.574780
8756 9 1 -8.159940 26.631835 -30.040445
8757 9 1 -7.979303 27.553757 -29.697762
8758 9 1 -8.548405 27.220273 -28.946156
8759 9 1 -8.700964 28.195062 -28.783333
8760 9 1 -9.530438 27.983481 -29.300252
8761 9 1 -9.284990 28.096736 -30.263023
8762 9 1 -10.144292 27.741672 -30.631167
8763 9 1 -9.704861 28.052953 -29.788549
8764 9 1 -10.397131 28.341484 -29.127103
8765 9 1 -11.109222 28.930151 -29.509723
8766 9 1 -11.875806 29.442423 -29.896926
8767 9 1 -11.881662 28.776703 -30.643105
8768 9 1 -12.341878 27.918127 -30.417167
8769 9 1 -12.400058 28.835144 -30.811748
8770 9 1 -12.011646 28.681166 -31.720278
8771 9 1 -12.312566 29.629190 -31.616845
8772 9 1 -11.425079 29.818652 -32.036928
8773 9 1 -12.204656 29.211550 -31.883024
8774 9 1 -13.091232 28.987699 -31.478212
8775 9 1 -12.460894 29.660133 -31.866164
8776 9 1 -12.103982 30.513926 -32.245176
8777 9 1 -12.779655 29.840035 -32.544069
8778 9 1 -13.086323 30.785486 -32.653960
8779 9 1 -12.570838 30.305737 -31.943950
8780 9 1 -11.783194 30.426674 -31.339804
8781 9 1 -11.450868 30.983294 -30.578402
8782 9 1 -10.594328 30.655597 -30.977093
8783 9 1 -10.262030 31.527691 -31.336299
8784 9 1 -10.069837 32.013448 -30.483596
8785 9 1 -9.935819 31.039820 -30.298962
8786 9 1 -9.370649 30.491398 -29.682670
8787 9 1 -9.512216 30.540443 -30.671383
8788 9 1 -8.911432 31.337396 -30.608738
8789 9 1 -9.683925 30.749597 -30.849042
8790 9 1 -9.845371 30.356412 -29.943867
8791 9 1 -10.644363 30.475375 -29.354410
8792 9 1 -10.239715 29.871634 -28.667565
8793 9 1 -10.992864 30.072612 -29.293962
8794 9 1 -11.569075 30.790341 -29.684919
8795 9 1 -10.938459 30.365302 -30.334277
8796 9 1 -11.606639 30.921198 -30.828763
8797 9 1 -10.922991 30.733476 -31.534019
8798 9 1 -11.765412 30.869431 -32.055405
8799 9 1 -12.603829 31.068130 -31.547886
8800 9 1 -13.205733 30.647894 -30.868832
8801 9 1 -12.591731 29.893592 -30.636386
8802 9 1 -11.773983 30.422793 -30.410032
8803 9 1 -12.671934 30.347738 -30.843679
8804 9 1 -12.980466 31.293036 -30.737748
8805 9 1 -13.337746 31.656174 -31.598260
8806 9 1 -12.405099 31.639225 -31.237868
8807 9 1 -12.319512 32.538424 -31.666956
8808 9 1 -12.502528 31.851499 -32.370263
8809 9 1 -12.214191 31.127102 -31.744076
8810 9 1 -12.703955 30.972766 -32.602161
8811 9 1 -12.430986 30.019878 -32.734418
8812 9 1 -11.840701 30.370104 -32.007159
8813 9 1 -11.358421 30.519481 -32.870347
8814 9 1 -11.799808 31.173872 -33.484310
8815 9 1 -11.788752 30.725620 -32.590471
8816 9 1 -11.724221 30.291091 -31.692128
8817 9 1 -11.888277 30.535827 -30.736518
8818 9 1 -11.179543 30.184263 -31.348154
8819 9 1 -11.112941 30.286773 -32.340654
8820 9 1 -10.200700 30.669970 -32.195820
8821 9 1 -10.875547 30.057674 -31.783904
8822 9 1 -11.209742 30.975199 -31.999452
8823 9 1 -11.102128 31.432838 -31.116850
8824 9 1 -10.713647 31.777169 -31.971554
8825 9 1 -11.508296 31.934475 -32.557888
8826 9 1 -10.596856 31.544137 -32.687936
8827 9 1 -10.233747 32.298172 -33.235277
8828 9 1 -10.440770 31.388817 -33.596129
8829 9 1 -10.128290 31.655689 -32.684463
8830 9 1 -10.396722 31.773514 -33.640529
8831 9 1 -10.657925 32.267250 -34.469984
8832 9 1 -11.370541 32.038883 -35.133329
8833 9 1 -12.314600 32.195377 -35.423610
8834 9 1 -11.319303 32.291036 -35.408336
8835 9 1 -11.823808 32.872769 -36.046350
8836 9 1 -12.203910 33.620444 -36.590872
8837 9 1 -11.457067 32.963251 -36.692478
8838 9 1 -10.702113 33.591691 -36.505104
8839 9 1 -9.886249 33.040166 -36.678846
8840 9 1 -10.866781 32.866479 -36.587249
8841 9 1 -10.460608 32.226678 -35.934809
8842 9 1 -10.122737 32.344034 -36.868657
8843 9 1 -10.095711 31.389921 -36.570432
8844 9 1 -9.396205 31.316690 -37.281297
8845 9 1 -9.402548 31.067794 -36.312787
8846 9 1 -9.289345 31.617355 -37.140536
8847 9 1 -9.726868 30.759916 -37.411408
8848 9 1 -10.651122 31.116912 -37.546715
8849 9 1 -11.479595 31.160512 -36.988387
8850 9 1 -11.326318 31.500170 -37.916362
8851 9 1 -10.449169 31.032087 -37.809088
8852 9 1 -10.992856 30.682819 -37.045926
8853 9 1 -11.121851 31.443273 -37.682377
8854 9 1 -11.102549 32.168899 -38.370196
8855 9 1 -12.095458 32.211757 -38.481079
8856 9 1 -11.551729 32.254786 -39.319236
8857 9 1 -11.705540 31.284895 -39.508058
8858 9 1 -12.325375 31.225157 -40.290513
8859 9 1 -11.588153 31.595421 -40.855677
8860 9 1 -11.614649 32.112201 -41.711385
8861 9 1 -12.177186 32.774739 -42.205950
8862 9 1 -12.765442 32.111652 -42.668844
8863 9 1 -12.296573 32.827333 -42.151192
8864 9 1 -11.682799 32.492658 -41.436158
8865 9 1 -11.977146 33.016292 -42.235638
8866 9 1 -12.436351 33.903609 -42.278056
8867 9 1 -11.940784 33.852470 -43.145119
8868 9 1 -10.984755 33.951088 -43.421314
8869 9 1 -10.467447 34.750581 -43.116021
8870 9 1 -11.435004 34.984345 -43.211876
8871 9 1 -12.243332 34.451206 -42.962140
8872 9 1 -11.774582 33.594945 -42.745139
8873 9 1 -12.508870 32.993547 -42.430271
8874 9 1 -11.658284 32.554335 -42.719400
8875 9 1 -11.615408 32.046197 -43.579608
8876 9 1 -12.316623 31.899521 -42.881909
8877 9 1 -13.256055 31.732283 -42.582746
8878 9 1 -13.187912 31.117967 -41.796634
8879 9 1 -13.005138 30.906722 -42.756826
8880 9 1 -12.834241 31.196669 -41.815165
8881 9 1 -12.484600 31.463533 -40.917092
8882 9 1 -11.485100 31.492573 -40.904561
8883 9 1 -12.255522 31.881818 -40.399646
8884 9 1 -11.933538 31.415278 -41.223459
8885 9 1 -11.361200 30.820713 -41.788190
8886 9 1 -10.394047 30.819693 -42.042384
8887 9 1 -9.721477 30.761132 -41.304671
8888 9 1 -8.861482 30.701172 -41.811439
8889 9 1 -8.773019 31.325591 -41.035376
8890 9 1 -8.025192 31.771680 -40.543685
8891 9 1 -8.359655 30.835458 -40.435881
8892 9 1 -8.839233 30.591816 -41.278878
8893 9 1 -8.379470 29.795328 -41.671593
8894 9 1 -7.455072 29.490422 -41.900764
8895 9 1 -6.964554 29.235016 -41.067601
8896 9 1 -6.145141 29.541894 -40.583466
8897 9 1 -6.114694 29.291933 -41.551243
8898 9 1 -5.461103 29.626546 -42.230103
8899 9 1 -5.061782 29.780609 -41.326329
8900 9 1 -4.165348 30.183327 -41.511322
8901 9 1 -4.578852 31.012829 -41.135904
8902 9 1 -3.844558 31.405324 -40.582045
8903 9 1 -4.399106 30.594393 -40.768774
8904 9 1 -3.920854 31.166590 -41.435006
8905 9 1 -3.921026 31.762105 -42.238351
8906 9 1 -4.495221 32.205255 -42.926767
8907 9 1 -3.821424 32.863377 -43.262733
8908 9 1 -4.170065 33.216486 -44.130929
8909 9 1 -3.704657 33.435380 -44.988530
8910 9 1 -4.386658 33.974365 -45.482868
8911 9 1 -3.965546 33.181689 -45.042040
8912 9 1 -4.281929 33.439536 -44.129123
8913 9 1 -4.110589 34.368293 -43.800410
8914 9 1 -3.880690 34.490123 -42.834851
8915 9 1 -4.158753 33.840545 -42.127229
8916 9 1 -4.118681 34.467125 -41.348903
8917 9 1 -3.554199 33.732023 -41.724384
8918 9 1 -3.242757 34.265564 -42.510729
8919 9 1 -2.854316 33.640352 -43.187651
8920 9 1 -3.172300 33.743272 -42.245157
8921 9 1 -3.378931 33.541165 -43.202474
8922 9 1 -2.452632 33.207532 -43.027373
8923 9 1 -1.752092 32.693265 -43.522118
8924 9 1 -1.025264 33.053846 -44.106671
8925 9 1 -0.350550 32.598734 -44.687734
8926 9 1 -0.987348 31.949181 -45.103148
8927 9 1 -0.083007 32.076199 -45.510622
8928 9 1 -0.427434 31.137420 -45.502524
8929 9 1 -0.289154 31.791893 -46.245857
8930 9 1 0.705309 31.862111 -46.167677
8931 9 1 0.705911 30.924474 -45.820062
8932 9 1 0.957205 30.355327 -46.602956
8933 9 1 1.113005 31.237350 -47.047660
8934 9 1 1.595875 30.764569 -46.310561
8935 9 1 1.296037 30.494548 -47.225540
8936 9 1 0.509694 31.111063 -47.265210
8937 9 1 1.113802 30.316331 -47.206435
8938 9 1 1.677690 29.526087 -47.446318
8939 9 1 0.850248 29.002895 -47.242333
8940 9 1 0.831349 28.563272 -46.344349
8941 9 1 1.042219 28.964651 -47.235657
8942 9 1 0.546296 28.449141 -46.536865
8943 9 1 0.065695 27.690330 -46.976442
8944 9 1 -0.796685 27.184664 -47.000970
8945 9 1 -0.524012 26.649735 -46.201282
8946 9 1 -0.613116 27.128893 -47.074477
8947 9 1 -0.813292 27.306038 -46.110864
8948 9 1 -1.291805 26.500488 -46.460315
8949 9 1 -1.145335 27.405733 -46.859162
8950 9 1 -1.628942 26.754759 -47.444275
8951 9 1 -0.680249 26.445757 -47.377195
8952 9 1 0.163138 26.831549 -47.003212
8953 9 1 0.378252 27.727774 -46.615260
8954 9 1 0.916147 28.569388 -46.566742
8955 9 1 1.053293 29.271897 -45.868407
8956 9 1 1.741136 29.996412 -45.824258
8957 9 1 1.700137 29.129437 -46.320919
8958 9 1 2.037723 29.442458 -47.208642
8959 9 1 2.209101 28.588216 -46.717826
8960 9 1 2.770267 28.171171 -47.432785
8961 9 1 2.905656 28.106994 -46.444073
8962 9 1 2.473037 27.295074 -46.836026
8963 9 1 1.592004 27.079960 -46.414709
8964 9 1 1.369311 26.205363 -46.845393
8965 9 1 1.813936 26.843328 -46.216657
8966 9 1 1.766071 25.847443 -46.139708
8967 9 1 2.460553 26.144077 -46.795225
8968 9 1 1.741926 26.734026 -46.427072
8969 9 1 2.100020 27.649745 -46.609358
8970 9 1 1.905560 28.121965 -47.469121
8971 9 1 2.543784 28.696324 -46.956498
8972 9 1 2.707379 27.798033 -46.548686
8973 9 1 3.018993 28.420646 -45.830877
8974 9 1 3.955686 28.101404 -45.687032
8975 9 1 4.864592 27.923324 -45.309968
8976 9 1 5.298093 28.068862 -46.199291
8977 9 1 5.288424 27.429955 -46.968515
8978 9 1 4.546901 26.873092 -46.594286
8979 9 1 3.564964 26.766075 -46.750320
8980 9 1 2.650046 26.387515 -46.890386
8981 9 1 2.293268 25.454291 -46.847917
8982 9 1 2.928038 24.703310 -46.665996
8983 9 1 2.669739 23.802232 -47.014334
8984 9 1 3.403520 24.249139 -46.502631
8985 9 1 3.547928 24.499126 -47.460050
8986 9 1 3.574712 23.833742 -46.714030
8987 9 1 3.983039 24.723317 -46.509271
8988 9 1 4.292821 25.648717 -46.727606
8989 9 1 4.275356 25.842655 -45.746748
8990 9 1 5.024192 26.056107 -45.119306
8991 9 1 5.383963 25.738515 -45.996632
8992 9 1 6.319257 26.048072 -45.825164
8993 9 1 5.988823 26.391161 -46.704427
8994 9 1 6.950890 26.118406 -46.710059
8995 9 1 7.015177 25.122358 -46.648790
8996 9 1 7.837397 24.685240 -46.284259
8997 9 1 7.349640 25.447561 -46.709653
8998 9 1 7.026131 24.762950 -46.056469
8999 9 1 7.189521 23.779498 -46.134744
9000 9 1 6.774325 23.130296 -45.497446
9001 10 1 14.969872 -33.981407 24.937074
9002 10 1 15.171474 -34.002822 25.916307
9003 10 1 14.496303 -34.591349 25.471582
9004 10 1 14.348966 -33.653187 25.784862
9005 10 1 14.645788 -33.002512 26.483804
9006 10 1 13.683954 -32.921326 26.222490
9007 10 1 14.342911 -32.174420 26.311412
9008 10 1 14.538582 -32.762760 27.095993
9009 10 1 15.066873 -33.236356 26.391284
9010 10 1 15.970675 -32.809457 26.421264
9011 10 1 15.752241 -32.851763 25.446330
9012 10 1 15.121376 -33.526400 25.063089
9013 10 1 14.277205 -33.087035 24.755951
9014 10 1 14.555825 -33.428585 23.858335
9015 10 1 14.160427 -33.295250 22.949555
9016 10 1 13.222734 -33.139009 23.259910
9017 10 1 12.225084 -33.192078 23.303244
9018 10 1 12.659206 -34.018977 23.660704
9019 10 1 13.021611 -33.423873 24.378001
9020 10 1 12.191242 -32.879945 24.257045
9021 10 1 12.987545 -33.072800 23.683713
9022 10 1 12.695800 -33.983557 23.975959
9023 10 1 11.865057 -34.209460 24.484715
9024 10 1 11.331474 -34.740967 23.826846
9025 10 1 11.422691 -35.518893 24.448546
9026 10 1 11.187003 -35.979917 25.304062
9027 10 1 10.963009 -35.269359 25.971095
9028 10 1 10.794480 -36.228598 25.744247
9029 10 1 10.273728 -35.664900 25.103106
9030 10 1 9.804652 -35.860190 24.241811
9031 10 1 10.630627 -36.330294 23.930735
9032 10 1 10.934966 -35.564670 23.363992
9033 10 1 11.538183 -36.123741 23.932822
9034 10 1 12.390683 -36.071566 24.452940
9035 10 1 11.715046 -36.326516 25.144688
9036 10 1 12.174374 -35.565397 25.602636
9037 10 1 12.350187 -35.212876 24.683496
9038 10 1 12.292125 -35.500778 25.639394
9039 10 1 11.453527 -35.889369 25.257622
9040 10 1 10.825524 -36.488558 24.761049
9041 10 1 10.725774 -35.508946 24.935437
9042 10 1 10.205503 -36.144152 24.364620
9043 10 1 10.702809 -35.456465 23.835684
9044 10 1 10.098965 -36.204845 23.561276
9045 10 1 9.900932 -35.618251 24.346573
9046 10 1 10.194221 -35.995288 25.225108
9047 10 1 9.369468 -35.481080 24.989792
9048 10 1 9.814054 -35.994427 25.723835
9049 10 1 10.547939 -36.492251 25.261685
9050 10 1 10.280400 -36.773208 26.183361
9051 10 1 10.857209 -36.629008 26.987411
9052 10 1 10.290732 -36.456753 26.181538
9053 10 1 10.453133 -37.285484 25.645971
9054 10 1 9.761921 -36.572455 25.528422
9055 10 1 10.596242 -37.023395 25.211307
9056 10 1 11.570251 -37.146366 25.401532
9057 10 1 10.724064 -37.674869 25.469736
9058 10 1 10.142063 -37.516008 26.267256
9059 10 1 9.604974 -37.615245 27.104924
9060 10 1 10.114172 -37.946659 27.899205
9061 10 1 10.603505 -38.785699 27.661369
9062 10 1 10.984711 -39.580142 27.188567
9063 10 1 10.605990 -40.504780 27.228763
9064 10 1 11.596502 -40.451997 27.101879
9065 10 1 11.097942 -39.758065 27.621395
9066 10 1 10.530299 -39.712112 26.799404
9067 10 1 11.508569 -39.812289 26.980933
9068 10 1 10.557545 -39.736014 26.681371
9069 10 1 11.320965 -39.115587 26.860984
9070 10 1 11.605510 -38.480609 26.142766
9071 10 1 12.439090 -38.353806 25.605118
9072 10 1 12.274324 -39.291905 25.300451
9073 10 1 12.733442 -39.454836 24.427145
9074 10 1 12.550628 -38.486092 24.259472
9075 10 1 11.793366 -39.030180 24.620750
9076 10 1 11.765410 -39.253267 23.646353
9077 10 1 12.140601 -38.334204 23.525707
9078 10 1 12.249866 -37.514370 24.087786
9079 10 1 12.369060 -36.941314 23.276984
9080 10 1 11.993353 -37.351532 22.445981
9081 10 1 11.931727 -36.668765 21.717949
9082 10 1 12.051389 -36.271572 20.808048
9083 10 1 11.792394 -36.866309 21.569107
9084 10 1 11.589937 -36.525825 22.487302
9085 10 1 12.576781 -36.645157 22.378226
9086 10 1 12.099523 -37.324015 21.820215
9087 10 1 11.360148 -37.935153 21.537664
9088 10 1 11.809038 -38.289495 20.717336
9089 10 1 11.559925 -37.413320 20.304712
9090 10 1 10.697181 -37.908357 20.407731
9091 10 1 11.223979 -38.454045 19.756034
9092 10 1 11.389311 -38.469696 18.769921
9093 10 1 11.797479 -38.348171 17.865139
9094 10 1 11.369024 -38.397540 16.962925
9095 10 1 11.486422 -38.703502 17.907703
9096 10 1 11.046996 -39.598265 17.987101
9097 10 1 11.678838 -39.443142 17.227686
9098 10 1 11.544398 -40.408693 17.004892
9099 10 1 11.373311 -40.848413 17.886581
9100 10 1 10.626945 -41.327036 18.349029
9101 10 1 11.579882 -41.627361 18.390454
9102 10 1 12.367458 -41.774234 18.988913
9103 10 1 12.020521 -41.419573 18.120667
9104 10 1 11.643270 -40.680535 17.562541
9105 10 1 11.698857 -39.683074 17.518012
9106 10 1 10.868978 -39.132559 17.608743
9107 10 1 11.220957 -39.789053 16.941565
9108 10 1 11.001297 -40.349508 17.740088
9109 10 1 11.926858 -40.567636 18.049535
9110 10 1 12.221767 -40.375533 18.985551
9111 10 1 11.516118 -39.868159 18.490949
9112 10 1 10.605998 -39.455495 18.453658
9113 10 1 10.460789 -38.947525 19.302705
9114 10 1 10.822181 -39.844291 19.047347
9115 10 1 10.114332 -40.150084 19.684089
9116 10 1 9.780885 -39.305782 19.264603
9117 10 1 10.694226 -39.699838 19.367212
9118 10 1 11.113401 -39.799657 20.269613
9119 10 1 11.650830 -40.321053 20.932423
9120 10 1 10.691892 -40.450120 21.184967
9121 10 1 11.573787 -40.066835 21.459472
9122 10 1 12.454903 -39.643333 21.249043
9123 10 1 12.415507 -39.759038 22.241545
9124 10 1 13.185703 -39.362109 22.740790
9125 10 1 13.166489 -39.580577 23.716445
9126 10 1 12.999778 -39.331208 24.670396
9127 10 1 12.227897 -39.934709 24.470426
9128 10 1 11.724549 -40.586801 25.037361
9129 10 1 11.018108 -40.274721 24.402107
9130 10 1 10.844073 -41.043232 23.786394
9131 10 1 10.873251 -42.007457 24.049866
9132 10 1 11.561047 -41.541332 24.606340
9133 10 1 11.714652 -40.682250 25.094586
9134 10 1 12.556081 -41.162033 25.343191
9135 10 1 12.548968 -41.079532 24.346626
9136 10 1 12.745987 -40.475800 25.119084
9137 10 1 13.203363 -41.357765 25.232863
9138 10 1 13.642818 -40.532979 25.588681
9139 10 1 14.536157 -40.360206 26.003526
9140 10 1 13.583009 -40.512141 25.741944
9141 10 1 13.700662 -39.558197 25.465991
9142 10 1 14.143043 -40.374190 25.838089
9143 10 1 13.750314 -41.285058 25.711274
9144 10 1 13.500332 -41.819328 24.903769
9145 10 1 13.946093 -41.576320 25.765305
9146 10 1 13.398261 -41.652955 26.598375
9147 10 1 13.212510 -42.573224 26.942761
9148 10 1 14.099284 -42.842454 26.567065
9149 10 1 14.668926 -43.159338 25.808717
9150 10 1 14.540075 -42.959143 26.779964
9151 10 1 15.302478 -43.484906 27.157211
9152 10 1 15.735336 -42.592491 27.284603
9153 10 1 15.946198 -41.853577 27.924559
9154 10 1 16.077831 -42.528562 27.198565
9155 10 1 16.986055 -42.941225 27.129000
9156 10 1 16.461540 -43.436868 26.436742
9157 10 1 16.737019 -43.329084 25.481496
9158 10 1 16.861372 -42.552472 26.099080
9159 10 1 16.063990 -41.994953 26.330063
9160 10 1 15.297551 -41.355704 26.267348
9161 10 1 15.287979 -41.113139 25.297260
9162 10 1 15.284940 -41.767639 26.053316
9163 10 1 14.310433 -41.876204 25.856976
9164 10 1 14.468485 -41.431328 26.738511
9165 10 1 14.091224 -41.078906 25.882081
9166 10 1 14.464079 -40.307658 25.366177
9167 10 1 13.740434 -40.364202 26.054030
9168 10 1 13.913008 -41.113422 25.414587
9169 10 1 14.044971 -40.203404 25.021582
9170 10 1 13.594759 -41.064773 24.786312
9171 10 1 14.090289 -41.208200 23.929645
9172 10 1 13.628782 -42.043854 24.227462
9173 10 1 14.334114 -42.674403 23.903557
9174 10 1 15.158317 -42.109807 23.947380
9175 10 1 14.181756 -41.971520 24.112319
9176 10 1 14.292826 -42.501488 23.271607
9177 10 1 14.622357 -41.682940 22.801086
9178 10 1 14.953860 -40.869758 23.279458
9179 10 1 15.485125 -40.761727 24.119748
9180 10 1 14.803203 -40.910489 24.835885
9181 10 1 14.064938 -40.700037 24.195045
9182 10 1 14.597482 -40.837506 23.359881
9183 10 1 15.113851 -41.690639 23.434227
9184 10 1 15.822995 -42.040332 22.821993
9185 10 1 15.464699 -42.156263 21.895611
9186 10 1 14.763689 -41.549526 21.520837
9187 10 1 15.691435 -41.374165 21.191388
9188 10 1 15.803949 -42.367807 21.195393
9189 10 1 15.321386 -41.977256 21.979360
9190 10 1 15.605061 -42.933124 21.902906
9191 10 1 15.302163 -42.438199 22.717339
9192 10 1 16.015983 -42.007791 23.269797
9193 10 1 16.101960 -42.989866 23.102054
9194 10 1 16.080221 -43.186474 22.121813
9195 10 1 15.377632 -42.590954 21.732292
9196 10 1 16.213759 -42.297814 22.195932
9197 10 1 16.685741 -41.518280 21.784155
9198 10 1 16.643445 -41.400834 22.776333
9199 10 1 16.023296 -40.785720 23.263211
9200 10 1 16.553370 -41.117554 24.043536
9201 10 1 17.263867 -41.528985 24.614428
9202 10 1 17.700703 -42.141743 25.272989
9203 10 1 17.710021 -42.050239 24.277228
9204 10 1 16.946057 -42.663165 24.075534
9205 10 1 16.974069 -43.529635 23.577091
9206 10 1 17.824637 -43.082825 23.854387
9207 10 1 16.895604 -43.248179 23.523396
9208 10 1 17.067229 -43.196757 24.507215
9209 10 1 17.845274 -43.717637 24.156031
9210 10 1 18.333777 -44.290382 24.814307
9211 10 1 19.191879 -44.445990 25.303641
9212 10 1 18.344351 -44.000824 25.014637
9213 10 1 17.779625 -44.686703 24.555666
9214 10 1 17.149074 -44.101717 25.065760
9215 10 1 16.726787 -44.583647 24.298025
9216 10 1 16.870470 -44.009030 25.103736
9217 10 1 16.710686 -44.975790 24.904125
9218 10 1 17.397420 -45.676915 25.096012
9219 10 1 18.311927 -45.453586 25.433358
9220 10 1 18.940428 -44.924516 24.863207
9221 10 1 19.804543 -45.189992 25.290792
9222 10 1 20.370057 -44.389827 25.090971
9223 10 1 21.263267 -44.599172 24.693038
9224 10 1 20.696019 -44.408943 23.891762
9225 10 1 20.262276 -45.046809 24.528153
9226 10 1 21.054027 -45.656412 24.489234
9227 10 1 21.178063 -45.524974 23.505700
9228 10 1 21.656399 -44.898838 22.889950
9229 10 1 21.474384 -44.181585 23.562570
9230 10 1 22.259375 -44.632413 23.137666
9231 10 1 22.620564 -44.443173 22.224578
9232 10 1 22.986359 -43.640857 21.752896
9233 10 1 23.576870 -42.852024 21.923307
9234 10 1 24.542117 -42.653562 22.093340
9235 10 1 25.488722 -42.375312 22.256177
9236 10 1 25.458403 -42.580513 21.277926
9237 10 1 25.890623 -42.288647 20.424697
9238 10 1 25.088788 -42.307574 21.021943
9239 10 1 24.651006 -41.412184 20.940562
9240 10 1 25.468372 -41.153187 21.455181
9241 10 1 24.859040 -40.477655 21.040005
9242 10 1 24.963788 -39.908090 21.855250
9243 10 1 24.051747 -39.577673 22.098166
9244 10 1 24.733462 -38.854088 21.990043
9245 10 1 24.300391 -38.724072 22.881977
9246 10 1 24.798432 -37.894474 22.629547
9247 10 1 25.733249 -38.196168 22.816891
9248 10 1 25.669504 -38.939823 23.482408
9249 10 1 26.400224 -39.085908 24.149272
9250 10 1 26.355840 -38.106434 24.345895
9251 10 1 25.667320 -37.476205 23.987075
9252 10 1 24.959189 -37.971053 23.483412
9253 10 1 25.242071 -38.793404 23.977088
9254 10 1 24.834117 -38.361410 23.172753
9255 10 1 23.902977 -38.374756 22.808334
9256 10 1 23.040154 -38.836983 22.603684
9257 10 1 23.453356 -38.393810 23.399210
9258 10 1 24.261321 -37.804869 23.417726
9259 10 1 25.029393 -37.211057 23.178035
9260 10 1 24.321732 -36.916467 23.820244
9261 10 1 23.358016 -36.650810 23.794229
9262 10 1 23.458400 -35.841393 23.215638
9263 10 1 23.415716 -36.840214 23.238754
9264 10 1 22.426455 -36.958332 23.152666
9265 10 1 23.068154 -36.844379 23.911109
9266 10 1 22.837598 -35.881575 24.052006
9267 10 1 22.338353 -36.312996 24.803425
9268 10 1 23.249945 -36.190048 24.411146
9269 10 1 22.863271 -36.135378 25.331741
9270 10 1 22.407439 -35.387628 25.814530
9271 10 1 21.753852 -35.205968 26.549258
9272 10 1 22.106909 -34.993065 25.638201
9273 10 1 22.918777 -34.611152 26.079804
9274 10 1 22.933862 -33.645127 26.337812
9275 10 1 22.208737 -33.749252 25.657112
9276 10 1 21.367346 -33.909164 26.173337
9277 10 1 22.316732 -33.597461 26.212167
9278 10 1 21.661989 -32.841853 26.231372
9279 10 1 22.444033 -33.248292 26.703829
9280 10 1 21.886710 -32.749898 26.039755
9281 10 1 21.200126 -33.476909 26.047400
9282 10 1 21.759235 -33.947486 25.364792
9283 10 1 21.318381 -33.710539 24.499053
9284 10 1 21.530839 -33.838488 23.530296
9285 10 1 22.332183 -34.357989 23.826889
9286 10 1 21.439356 -34.681477 24.140283
9287 10 1 22.398053 -34.524382 23.903172
9288 10 1 22.680947 -34.491308 22.944591
9289 10 1 23.679973 -34.492607 22.988701
9290 10 1 22.961344 -35.123986 22.697268
9291 10 1 22.309367 -35.522252 22.052047
9292 10 1 22.540537 -35.827992 21.128422
9293 10 1 23.208092 -36.566935 21.037139
9294 10 1 22.990985 -36.677151 20.067234
9295 10 1 22.915473 -35.815227 19.565851
9296 10 1 23.101965 -35.610089 18.605049
9297 10 1 22.710122 -35.361564 19.490879
9298 10 1 22.720883 -34.556147 18.898268
9299 10 1 21.737654 -34.384608 18.960185
9300 10 1 21.618026 -33.466362 19.337696
9301 10 1 21.449639 -34.433363 19.528890
9302 10 1 21.595608 -33.765104 18.799422
9303 10 1 22.085534 -33.908881 19.659247
9304 10 1 22.823753 -33.450734 19.164137
9305 10 1 21.999756 -32.887149 19.105827
9306 10 1 22.349115 -31.970200 19.298579
9307 10 1 21.464298 -32.269815 18.941745
9308 10 1 20.633421 -31.744010 19.123874
9309 10 1 19.755354 -31.672852 19.597092
9310 10 1 19.008925 -32.277852 19.319928
9311 10 1 19.711088 -31.578390 19.453046
9312 10 1 20.327959 -31.124949 20.096367
9313 10 1 19.498880 -31.003965 20.642253
9314 10 1 18.724038 -31.418025 21.119928
9315 10 1 18.759756 -30.738205 20.387420
9316 10 1 19.571534 -30.431976 19.890187
9317 10 1 19.694446 -30.984677 19.065922
9318 10 1 19.158136 -31.819310 18.940380
9319 10 1 18.462557 -31.259739 19.390991
9320 10 1 17.660623 -31.450542 18.824867
9321 10 1 16.670450 -31.369776 18.710692
9322 10 1 16.998785 -30.746873 19.420754
9323 10 1 17.384850 -31.610015 19.746238
9324 10 1 17.599686 -32.197762 20.526237
9325 10 1 17.408962 -31.803363 21.425166
9326 10 1 17.017408 -31.231201 22.145802
9327 10 1 17.410350 -31.490778 21.263637
9328 10 1 18.379894 -31.713367 21.161467
9329 10 1 17.909868 -32.411794 21.701167
9330 10 1 18.693493 -31.790575 21.705658
9331 10 1 18.984600 -32.511731 22.334300
9332 10 1 18.605819 -33.411770 22.549832
9333 10 1 18.368862 -32.460654 22.747897
9334 10 1 18.754034 -31.638796 22.328144
9335 10 1 18.413539 -30.701633 22.404226
9336 10 1 18.790136 -29.837515 22.738104
9337 10 1 19.609308 -30.330557 23.031134
9338 10 1 20.027801 -29.865268 22.251153
9339 10 1 19.570607 -30.742750 22.396059
9340 10 1 19.665929 -29.976274 21.760900
9341 10 1 19.024392 -30.669875 22.088540
9342 10 1 19.518316 -30.076930 22.724507
9343 10 1 20.373230 -29.585300 22.890105
9344 10 1 21.115831 -29.757099 23.537430
9345 10 1 21.646038 -28.928298 23.358631
9346 10 1 20.700508 -29.016352 23.672030
9347 10 1 21.190894 -28.484973 22.981264
9348 10 1 21.919208 -28.483634 22.296022
9349 10 1 22.047542 -28.880336 23.204954
9350 10 1 22.837815 -29.026398 23.800046
9351 10 1 23.629682 -28.613716 24.250202
9352 10 1 23.344936 -29.565702 24.362641
9353 10 1 24.300819 -29.838119 24.252746
9354 10 1 24.568234 -29.835247 25.216323
9355 10 1 24.194537 -29.393902 24.400501
9356 10 1 23.329718 -28.891874 24.393132
9357 10 1 23.887145 -29.715809 24.291124
9358 10 1 24.424459 -30.195686 24.984674
9359 10 1 24.551700 -29.834212 24.061015
9360 10 1 24.778817 -30.706514 23.627994
9361 10 1 24.903559 -31.153992 22.742442
9362 10 1 24.799670 -30.350510 23.328636
9363 10 1 25.555738 -30.515950 22.695398
9364 10 1 25.877206 -30.485386 21.748971
9365 10 1 26.867388 -30.574080 21.857016
9366 10 1 26.823867 -30.802003 22.829722
9367 10 1 26.317947 -30.041312 23.236407
9368 10 1 26.518724 -30.799766 23.856436
9369 10 1 25.739301 -30.328909 23.443163
9370 10 1 26.238190 -30.345057 24.309678
9371 10 1 25.947887 -31.269190 24.558076
9372 10 1 25.000434 -31.551872 24.707821
9373 10 1 25.235614 -31.059720 23.869683
9374 10 1 24.314817 -30.873852 24.212590
9375 10 1 24.808224 -31.623244 23.771048
9376 10 1 24.404770 -31.656704 24.685436
9377 10 1 23.680399 -32.117457 25.198265
9378 10 1 24.358701 -32.748291 25.575031
9379 10 1 25.309365 -33.035562 25.692140
9380 10 1 26.120525 -32.466837 25.555867
9381 10 1 25.486056 -31.936779 26.118439
9382 10 1 25.520563 -32.844460 26.536679
9383 10 1 25.071358 -33.575069 27.050902
9384 10 1 25.686798 -32.935751 27.511887
9385 10 1 25.883347 -32.096949 28.019607
9386 10 1 25.406956 -32.758160 28.599133
9387 10 1 25.699812 -32.437429 27.698374
9388 10 1 24.966852 -33.059795 27.423728
9389 10 1 24.342256 -33.616975 26.876526
9390 10 1 23.718592 -33.447350 26.113460
9391 10 1 23.009278 -34.015915 25.696798
9392 10 1 23.250049 -33.238665 26.278099
9393 10 1 22.467945 -33.159228 26.896164
9394 10 1 22.803108 -32.300250 26.509094
9395 10 1 22.859231 -32.015481 27.466046
9396 10 1 23.323782 -31.587631 26.690715
9397 10 1 24.071057 -31.434618 26.044057
9398 10 1 24.194713 -30.451678 25.907899
9399 10 1 24.425460 -30.893896 26.774617
9400 10 1 24.009568 -30.867700 25.865580
9401 10 1 23.152141 -30.502140 25.503386
9402 10 1 22.348449 -30.004374 25.829436
9403 10 1 21.947631 -29.299119 26.414210
9404 10 1 21.087423 -29.321892 25.904775
9405 10 1 21.029023 -30.148196 26.464963
9406 10 1 20.686866 -29.628580 27.247860
9407 10 1 20.529838 -28.709488 26.886458
9408 10 1 20.351737 -29.288586 26.090892
9409 10 1 20.041277 -29.675616 25.222663
9410 10 1 19.813853 -29.295422 26.119173
9411 10 1 20.607448 -28.772587 26.430382
9412 10 1 21.402258 -29.006921 25.870591
9413 10 1 21.781824 -28.139633 26.192680
9414 10 1 22.322141 -28.845125 26.651307
9415 10 1 23.123947 -28.547034 27.169234
9416 10 1 23.835590 -28.519832 26.467220
9417 10 1 24.312157 -27.877030 25.867478
9418 10 1 25.241890 -27.799495 26.227458
9419 10 1 24.732712 -28.652724 26.340324
9420 10 1 24.360391 -28.023411 27.022484
9421 10 1 23.501695 -27.684184 26.638340
9422 10 1 24.484434 -27.778284 26.797613
9423 10 1 23.985494 -27.002976 26.410374
9424 10 1 24.019873 -27.073342 27.407302
9425 10 1 23.422708 -27.842178 27.635964
9426 10 1 23.565012 -27.775789 26.648370
9427 10 1 23.782501 -28.568448 26.078817
9428 10 1 24.389857 -29.064427 25.458234
9429 10 1 23.791575 -28.290981 25.667611
9430 10 1 23.655566 -27.613931 26.390871
9431 10 1 22.889118 -27.778743 25.770069
9432 10 1 23.033522 -27.923478 26.748946
9433 10 1 22.130312 -28.309377 26.561081
9434 10 1 22.736539 -27.963815 27.277374
9435 10 1 23.286052 -27.297423 26.773431
9436 10 1 22.751106 -26.517277 26.449078
9437 10 1 22.490318 -25.767929 27.057738
9438 10 1 22.171909 -25.167323 27.791147
9439 10 1 22.024625 -24.701769 28.663825
9440 10 1 21.284260 -24.303218 28.122515
9441 10 1 21.155499 -25.205797 27.711695
9442 10 1 21.869135 -25.655102 28.249141
9443 10 1 22.760411 -25.981091 28.564352
9444 10 1 22.554990 -26.241292 27.620903
9445 10 1 22.931226 -25.372999 27.297617
9446 10 1 22.149821 -24.749025 27.289724
9447 10 1 22.078044 -23.751606 27.291699
9448 10 1 21.470904 -24.425901 26.871333
9449 10 1 22.153416 -24.083596 27.517092
9450 10 1 21.809559 -23.148115 27.435630
9451 10 1 22.403836 -23.936809 27.278160
9452 10 1 21.582978 -23.809672 27.834961
9453 10 1 20.662374 -24.076920 27.550238
9454 10 1 20.456153 -24.129875 28.527309
9455 10 1 20.675754 -24.839563 29.196725
9456 10 1 20.670787 -25.502486 29.945397
9457 10 1 20.582811 -26.498594 29.940010
9458 10 1 20.067727 -27.252763 30.347340
9459 10 1 19.477738 -27.682799 29.663979
9460 10 1 18.858812 -27.837311 30.434081
9461 10 1 19.778592 -27.880476 30.044028
9462 10 1 18.999828 -27.314514 29.773448
9463 10 1 19.528360 -26.602036 29.311899
9464 10 1 19.700733 -26.199894 28.412694
9465 10 1 18.958287 -26.287136 27.748492
9466 10 1 19.137531 -25.375650 28.118714
9467 10 1 19.186581 -25.708459 29.060432
9468 10 1 18.347227 -25.278855 28.727377
9469 10 1 18.625021 -24.348156 28.965348
9470 10 1 18.816876 -23.879521 28.103041
9471 10 1 18.674906 -24.069827 27.131636
9472 10 1 18.195985 -23.581249 27.860969
9473 10 1 17.295886 -23.954188 28.086224
9474 10 1 17.169030 -22.963016 28.124764
9475 10 1 17.368332 -23.180617 27.169291
9476 10 1 17.767157 -22.500751 27.784693
9477 10 1 17.930441 -21.539722 27.561620
9478 10 1 18.719043 -21.152411 28.039215
9479 10 1 18.655306 -21.899906 27.378012
9480 10 1 19.492059 -21.569913 26.941034
9481 10 1 18.803067 -21.398532 27.645249
9482 10 1 19.111486 -20.472501 27.862835
9483 10 1 18.286546 -20.498432 27.298209
9484 10 1 18.795033 -20.096438 28.059682
9485 10 1 18.967349 -20.675868 27.263084
9486 10 1 18.150660 -20.732255 27.837400
9487 10 1 18.492069 -20.029422 27.213328
9488 10 1 19.132633 -19.595627 26.579688
9489 10 1 18.187714 -19.550089 26.903810
9490 10 1 17.677980 -20.178584 27.491317
9491 10 1 17.989258 -21.120878 27.614561
9492 10 1 18.405223 -21.711567 26.923142
9493 10 1 18.279160 -20.752451 27.176529
9494 10 1 18.335269 -21.512861 27.823543
9495 10 1 18.535063 -22.217029 27.142199
9496 10 1 17.582963 -22.215136 26.836419
9497 10 1 17.936078 -22.914130 27.458284
9498 10 1 17.145147 -23.303739 27.930125
9499 10 1 17.800300 -23.947207 27.534242
9500 10 1 17.970989 -23.008923 27.233429
9501 10 1 17.335025 -22.239731 27.171034
9502 10 1 16.744710 -21.693537 27.765340
9503 10 1 17.390838 -22.422766 27.540075
9504 10 1 16.391240 -22.441562 27.561311
9505 10 1 16.208648 -21.525173 27.205093
9506 10 1 16.916676 -22.071813 26.758014
9507 10 1 16.605750 -21.204699 27.147164
9508 10 1 16.581756 -20.874799 26.203453
9509 10 1 15.773057 -20.501060 26.657683
9510 10 1 15.353967 -19.697812 26.234414
9511 10 1 14.413087 -19.928141 25.986033
9512 10 1 14.988025 -20.611787 26.435559
9513 10 1 14.382981 -20.082306 25.840940
9514 10 1 14.377266 -21.065962 26.020908
9515 10 1 13.899729 -20.871138 25.164169
9516 10 1 13.813187 -21.867244 25.180979
9517 10 1 13.676325 -22.125264 24.224582
9518 10 1 12.963920 -21.428481 24.141076
9519 10 1 13.708494 -21.543526 23.483525
9520 10 1 12.928101 -21.987825 23.043541
9521 10 1 12.057507 -22.084955 23.525861
9522 10 1 11.606120 -22.272993 24.398151
9523 10 1 11.819763 -22.844842 25.190203
9524 10 1 11.846035 -22.232529 24.400024
9525 10 1 11.284966 -22.357785 25.218261
9526 10 1 11.678147 -21.438331 25.221896
9527 10 1 11.386928 -22.330639 25.566828
9528 10 1 10.859990 -21.797872 26.229019
9529 10 1 10.173013 -21.812412 26.955552
9530 10 1 9.604818 -22.499876 27.407821
9531 10 1 9.006156 -22.904674 28.099010
9532 10 1 9.122593 -23.897832 28.090052
9533 10 1 8.906881 -23.582694 27.165846
9534 10 1 8.439701 -23.600601 26.281866
9535 10 1 7.474730 -23.860635 26.247039
9536 10 1 7.540955 -23.527080 27.187441
9537 10 1 8.464357 -23.874294 27.351065
9538 10 1 7.783245 -24.117253 28.041758
9539 10 1 8.576995 -24.550084 28.469096
9540 10 1 8.204934 -23.646277 28.680528
9541 10 1 7.223058 -23.753716 28.524396
9542 10 1 7.330389 -23.594486 27.543006
9543 10 1 7.763612 -23.134443 28.318041
9544 10 1 8.120423 -23.846577 27.713431
9545 10 1 8.205206 -23.152044 26.998983
9546 10 1 7.775716 -23.812621 26.383211
9547 10 1 8.108984 -24.664587 25.979373
9548 10 1 7.780234 -24.574195 25.039292
9549 10 1 7.284314 -25.001656 24.283420
9550 10 1 7.655646 -24.299719 23.675639
9551 10 1 7.867678 -23.329021 23.562559
9552 10 1 8.843357 -23.419866 23.363066
9553 10 1 8.289529 -22.668144 23.005030
9554 10 1 9.255698 -22.412663 23.040325
9555 10 1 9.585824 -22.645206 23.955170
9556 10 1 8.681162 -23.036177 24.124665
9557 10 1 8.470790 -22.534958 23.285307
9558 10 1 7.769289 -21.942874 22.888654
9559 10 1 7.342993 -21.713909 23.763781
9560 10 1 6.537962 -21.877687 24.333958
9561 10 1 7.459663 -22.041748 23.982461
9562 10 1 7.930007 -21.331696 24.506487
9563 10 1 8.363124 -21.490676 25.393693
9564 10 1 7.609313 -20.849387 25.536934
9565 10 1 8.219050 -21.284395 24.874371
9566 10 1 8.607975 -20.854835 24.059376
9567 10 1 9.219974 -20.420146 23.398693
9568 10 1 9.938699 -20.355172 24.090946
9569 10 1 10.857526 -19.965698 24.027181
9570 10 1 11.697508 -19.835339 24.553905
9571 10 1 11.908469 -20.365475 23.732655
9572 10 1 12.221462 -20.226103 24.672129
9573 10 1 13.031048 -20.501999 24.154006
9574 10 1 12.415942 -20.576406 24.938931
9575 10 1 11.551286 -20.408865 24.465328
9576 10 1 12.512980 -20.351627 24.197246
9577 10 1 12.490770 -21.315965 23.933508
9578 10 1 12.507257 -20.354185 23.660183
9579 10 1 11.651770 -19.876143 23.859224
9580 10 1 11.614598 -20.751729 23.377594
9581 10 1 12.325107 -21.075700 24.002270
9582 10 1 12.041803 -20.559593 24.810584
9583 10 1 11.740971 -20.703347 25.753365
9584 10 1 11.297115 -21.237886 26.472573
9585 10 1 10.868612 -21.501545 27.336789
9586 10 1 11.271303 -22.195082 27.934154
9587 10 1 10.451864 -22.008416 28.476072
9588 10 1 10.851765 -22.861657 28.141319
9589 10 1 11.204757 -21.963602 27.878839
9590 10 1 11.401492 -22.905605 28.150733
9591 10 1 11.927013 -22.082295 27.936285
9592 10 1 11.849601 -22.990816 27.525679
9593 10 1 12.655363 -23.582027 27.560580
9594 10 1 12.309574 -23.569688 26.622349
9595 10 1 11.403008 -23.328297 26.276128
9596 10 1 12.349802 -23.647740 26.236901
9597 10 1 12.262006 -22.693266 26.521985
9598 10 1 11.340209 -22.305670 26.529749
9599 10 1 11.954582 -22.954323 26.978966
9600 10 1 10.970195 -22.937697 26.803734
9601 10 1 11.298867 -22.317549 27.516047
9602 10 1 11.019780 -23.170283 27.074511
9603 10 1 10.900447 -23.861760 27.786985
9604 10 1 10.089725 -23.523847 27.308923
9605 10 1 10.380219 -22.753206 27.876132
9606 10 1 11.208675 -23.053759 28.348710
9607 10 1 11.550928 -23.462178 27.502508
9608 10 1 10.967832 -22.679450 27.284943
9609 10 1 11.805567 -22.587876 27.823286
9610 10 1 11.273704 -23.072819 27.129059
9611 10 1 10.817308 -22.333893 26.633387
9612 10 1 9.876881 -22.573385 26.392054
9613 10 1 10.089829 -23.535087 26.219479
9614 10 1 9.223160 -23.267624 26.640606
9615 10 1 8.388820 -22.787028 26.370598
9616 10 1 7.531123 -22.793424 25.856483
9617 10 1 7.037045 -23.471804 25.312711
9618 10 1 7.967065 -23.112213 25.388580
9619 10 1 7.753508 -23.274013 24.425142
9620 10 1 7.170380 -23.937044 23.955725
9621 10 1 6.760180 -24.496070 23.235152
9622 10 1 7.283267 -25.008980 23.915816
9623 10 1 6.596833 -24.365605 24.254751
9624 10 1 7.043832 -23.471506 24.282663
9625 10 1 6.781657 -23.169079 25.199070
9626 10 1 6.632109 -23.341011 26.172762
9627 10 1 6.809661 -24.276232 25.866433
9628 10 1 7.492502 -24.638190 25.231836
9629 10 1 7.963349 -24.177619 25.984284
9630 10 1 7.052659 -24.588604 26.025962
9631 10 1 7.972356 -24.223668 25.881115
9632 10 1 7.765500 -23.660076 25.081381
9633 10 1 8.123688 -23.426348 25.985302
9634 10 1 8.146412 -23.767580 25.045598
9635 10 1 8.082217 -22.834342 25.399074
9636 10 1 7.632932 -23.663681 25.066898
9637 10 1 7.369861 -23.740010 26.028650
9638 10 1 8.186692 -23.863344 25.465111
9639 10 1 8.411160 -24.813989 25.250892
9640 10 1 7.493338 -24.417514 25.230611
9641 10 1 8.301708 -24.193284 24.686314
9642 10 1 7.607300 -24.858587 24.412142
9643 10 1 8.298045 -25.449105 23.994817
9644 10 1 9.105256 -25.852738 24.425504
9645 10 1 9.272359 -25.956028 23.444990
9646 10 1 9.419718 -26.674488 22.765210
9647 10 1 10.393374 -26.621246 22.986931
9648 10 1 11.332430 -26.284324 22.918690
9649 10 1 10.711917 -25.698747 23.440287
9650 10 1 11.682894 -25.702041 23.679436
9651 10 1 12.334938 -25.670251 22.921921
9652 10 1 12.736989 -25.247697 23.734204
9653 10 1 13.338194 -24.457206 23.851156
9654 10 1 13.823981 -23.643582 23.531740
9655 10 1 14.251140 -23.270467 22.708138
9656 10 1 14.316816 -22.348144 22.327340
9657 10 1 13.574806 -22.440551 21.663351
9658 10 1 12.592715 -22.627758 21.642109
9659 10 1 12.209985 -23.529187 21.844454
9660 10 1 12.404389 -23.890828 22.756278
9661 10 1 12.727345 -24.281422 23.618331
9662 10 1 13.259776 -24.454838 22.789812
9663 10 1 12.503221 -23.859138 22.520060
9664 10 1 12.195331 -24.809379 22.472658
9665 10 1 11.776149 -24.518996 23.332869
9666 10 1 12.605462 -24.186498 23.781962
9667 10 1 12.417859 -24.082097 22.805281
9668 10 1 12.303270 -25.074762 22.843818
9669 10 1 12.651065 -24.454302 23.546718
9670 10 1 12.582726 -25.297264 23.013103
9671 10 1 12.719917 -26.222628 23.366488
9672 10 1 12.908610 -25.337378 23.791608
9673 10 1 12.419978 -25.675468 22.987286
9674 10 1 12.179793 -26.634639 22.837947
9675 10 1 13.153413 -26.856322 22.892009
9676 10 1 13.927343 -27.338856 23.302122
9677 10 1 14.071114 -26.350323 23.255950
9678 10 1 13.100470 -26.228677 23.463439
9679 10 1 12.980256 -26.068593 24.443195
9680 10 1 13.534237 -26.776859 24.005629
9681 10 1 13.427833 -27.770205 23.961561
9682 10 1 13.044281 -27.258299 23.192899
9683 10 1 13.990512 -27.346332 22.881617
9684 10 1 13.602400 -27.473741 23.794379
9685 10 1 13.923914 -26.601760 23.425221
9686 10 1 14.122437 -27.257444 24.153691
9687 10 1 14.103284 -26.266529 24.020568
9688 10 1 14.328360 -26.268439 24.994907
9689 10 1 15.062059 -25.702057 25.370269
9690 10 1 15.286502 -25.398275 26.296197
9691 10 1 14.383410 -25.036753 26.064405
9692 10 1 14.575931 -24.629354 25.171678
9693 10 1 14.523869 -25.147619 26.025311
9694 10 1 13.892175 -24.578810 26.552017
9695 10 1 14.674003 -24.346841 25.973280
9696 10 1 15.062399 -24.751300 25.145294
9697 10 1 14.620925 -24.691097 26.040546
9698 10 1 13.751327 -25.179827 26.110849
9699 10 1 13.653993 -24.189892 26.213587
9700 10 1 12.949806 -23.485507 26.124361
9701 10 1 12.671027 -24.317334 25.644417
9702 10 1 11.825345 -23.896630 25.972791
9703 10 1 12.661187 -23.362627 26.100107
9704 10 1 13.428597 -23.282169 25.464018
9705 10 1 13.817320 -23.983038 26.062080
9706 10 1 13.513431 -24.150604 26.999935
9707 10 1 13.478489 -24.887974 26.325351
9708 10 1 14.465060 -24.759680 26.426435
9709 10 1 14.343792 -25.750560 26.367707
9710 10 1 15.236648 -26.127546 26.614062
9711 10 1 14.972840 -26.115761 27.578565
9712 10 1 15.151870 -25.248233 27.114515
9713 10 1 14.203631 -25.080499 26.844873
9714 10 1 13.367999 -25.037717 27.392494
9715 10 1 13.087047 -25.048882 28.352151
9716 10 1 13.782801 -25.097874 27.635544
9717 10 1 12.835269 -25.413235 27.687799
9718 10 1 12.111042 -25.409407 28.377350
9719 10 1 12.258085 -24.431102 28.231410
9720 10 1 12.308682 -25.394497 28.494678
9721 10 1 13.089433 -25.834660 28.051186
9722 10 1 13.414904 -25.951877 27.112928
9723 10 1 14.364800 -26.164743 26.884051
9724 10 1 13.963536 -26.357543 25.988610
9725 10 1 13.334351 -26.952215 26.489102
9726 10 1 13.804388 -26.681011 27.329051
9727 10 1 13.543969 -25.733056 27.512253
9728 10 1 13.182292 -26.662665 27.441428
9729 10 1 13.017375 -26.921347 28.393208
9730 10 1 12.056439 -26.809286 28.140141
9731 10 1 12.577483 -26.578379 27.318439
9732 10 1 11.923568 -25.908812 26.966196
9733 10 1 11.100627 -25.753277 26.419774
9734 10 1 10.110447 -25.820422 26.297155
9735 10 1 10.630034 -26.545731 25.845539
9736 10 1 11.011219 -25.621356 25.860670
9737 10 1 10.829829 -25.740228 24.884470
9738 10 1 10.242843 -25.041621 25.293610
9739 10 1 9.466235 -24.424069 25.169073
9740 10 1 8.914288 -24.520790 25.997323
9741 10 1 8.809791 -24.205462 26.940535
9742 10 1 8.788209 -25.138008 27.300943
9743 10 1 9.722239 -25.437204 27.496059
9744 10 1 8.832148 -25.882493 27.593299
9745 10 1 8.311902 -25.034052 27.690731
9746 10 1 7.858019 -25.750308 27.160667
9747 10 1 7.199634 -25.121407 27.574203
9748 10 1 8.063021 -24.808166 27.178673
9749 10 1 7.966668 -25.610417 27.767833
9750 10 1 8.114958 -26.484288 28.230821
9751 10 1 9.035144 -26.552271 28.616355
9752 10 1 9.454057 -25.715782 28.969622
9753 10 1 10.206328 -25.629739 29.622833
9754 10 1 10.160903 -25.359303 28.661167
9755 10 1 10.786521 -26.051470 28.301295
9756 10 1 10.683340 -26.540814 29.167260
9757 10 1 10.337998 -25.717309 29.617345
9758 10 1 9.897326 -26.567332 29.905907
9759 10 1 9.528665 -26.794400 30.807311
9760 10 1 10.029732 -27.621378 31.062338
9761 10 1 9.558313 -27.092368 30.356709
9762 10 1 8.610720 -27.050751 30.673467
9763 10 1 7.773658 -26.765341 31.140230
9764 10 1 8.077244 -27.279485 31.942409
9765 10 1 7.580739 -26.980134 32.757193
9766 10 1 7.974989 -27.754905 32.262930
9767 10 1 7.679306 -27.999479 33.186377
9768 10 1 8.373078 -28.274756 32.520868
9769 10 1 7.740281 -28.916116 32.954716
9770 10 1 6.856216 -28.571792 33.270737
9771 10 1 6.148907 -28.816291 33.934013
9772 10 1 5.928156 -28.859144 34.908401
9773 10 1 6.653288 -28.368031 34.425708
9774 10 1 5.722303 -28.730279 34.380494
9775 10 1 4.998445 -28.114997 34.068312
9776 10 1 4.491557 -28.764354 34.635233
9777 10 1 4.963211 -29.463554 35.172506
9778 10 1 4.517934 -28.575269 35.059909
9779 10 1 4.557986 -29.515410 35.398335
9780 10 1 4.777328 -30.156511 36.133779
9781 10 1 5.068353 -29.269399 36.492020
9782 10 1 4.458184 -29.931275 36.927466
9783 10 1 4.578186 -29.041210 37.367221
9784 10 1 4.851851 -28.265850 37.936365
9785 10 1 4.099702 -27.664783 37.666198
9786 10 1 3.258644 -27.640751 37.125787
9787 10 1 2.312592 -27.616084 37.448860
9788 10 1 3.077882 -27.745731 38.079355
9789 10 1 3.930488 -27.617811 37.572700
9790 10 1 4.845672 -27.795238 37.934583
9791 10 1 5.807215 -27.925438 37.692752
9792 10 1 6.092733 -27.071963 37.256794
9793 10 1 6.787234 -27.337427 36.588066
9794 10 1 6.859874 -28.055608 37.280120
9795 10 1 6.099183 -27.406560 37.289428
9796 10 1 6.132014 -27.014885 36.369910
9797 10 1 5.674543 -27.816422 36.754955
9798 10 1 5.490918 -26.867957 36.496698
9799 10 1 5.055737 -26.916515 35.597665
9800 10 1 4.655111 -26.644404 36.472568
9801 10 1 4.887389 -27.135589 35.633054
9802 10 1 4.947602 -26.187308 35.321385
9803 10 1 4.613071 -25.263075 35.137316
9804 10 1 5.509518 -24.822739 35.187181
9805 10 1 5.969583 -24.076488 34.706089
9806 10 1 5.473169 -23.406111 35.257603
9807 10 1 4.993540 -23.100976 34.434894
9808 10 1 5.029946 -23.050170 33.436849
9809 10 1 5.591839 -23.734189 33.902033
9810 10 1 6.345446 -23.821427 34.553543
9811 10 1 6.999868 -23.870491 35.308079
9812 10 1 7.997527 -23.937163 35.292854
9813 10 1 7.674533 -24.560266 36.005187
9814 10 1 7.242859 -24.145850 36.806384
9815 10 1 7.398558 -25.115389 36.995471
9816 10 1 7.973659 -24.298350 37.036769
9817 10 1 8.327676 -23.902036 37.883886
9818 10 1 7.739465 -23.945044 37.076323
9819 10 1 7.819790 -24.156814 36.102310
9820 10 1 7.218407 -24.704570 35.520673
9821 10 1 8.103404 -24.888137 35.948555
9822 10 1 7.851377 -25.853752 35.884770
9823 10 1 7.221214 -25.204270 36.310291
9824 10 1 7.139559 -24.335601 35.821674
9825 10 1 6.824281 -24.609783 36.730202
9826 10 1 6.312754 -25.346816 37.171928
9827 10 1 6.692106 -25.694404 36.314447
9828 10 1 5.825862 -25.826279 35.832546
9829 10 1 5.638878 -24.974390 35.343340
9830 10 1 4.903805 -25.491921 35.781324
9831 10 1 4.871554 -24.668310 36.347561
9832 10 1 5.845823 -24.832261 36.192899
9833 10 1 4.877303 -24.583326 36.192877
9834 10 1 3.919746 -24.831826 36.338936
9835 10 1 4.750951 -25.386898 36.370462
9836 10 1 4.439311 -24.705657 37.032876
9837 10 1 3.461026 -24.519941 36.940863
9838 10 1 2.829245 -25.001242 37.548483
9839 10 1 3.803305 -25.086714 37.758010
9840 10 1 3.803630 -25.091047 36.758019
9841 10 1 4.152245 -25.488734 37.606731
9842 10 1 3.308620 -25.999664 37.771797
9843 10 1 3.961009 -26.723722 37.995691
9844 10 1 3.828504 -25.759426 38.224985
9845 10 1 4.080357 -25.554730 39.170854
9846 10 1 3.846245 -24.583526 39.215061
9847 10 1 3.040762 -25.033674 39.600499
9848 10 1 2.543884 -25.218270 40.448460
9849 10 1 2.369664 -24.278624 40.742928
9850 10 1 3.057476 -23.962734 40.089378
9851 10 1 2.452449 -23.594743 39.383315
9852 10 1 2.630073 -23.511024 40.363846
9853 10 1 2.991876 -23.462662 41.294845
9854 10 1 3.833708 -23.411264 41.832131
9855 10 1 4.771126 -23.215800 42.120301
9856 10 1 4.320957 -22.451656 42.582287
9857 10 1 3.641843 -21.779086 42.288257
9858 10 1 3.114698 -22.135603 41.516885
9859 10 1 2.439868 -22.605849 42.085631
9860 10 1 1.855761 -21.958413 42.575166
9861 10 1 1.868807 -21.125450 42.021991
9862 10 1 2.073359 -21.127472 41.043137
9863 10 1 2.512779 -22.021183 40.952629
9864 10 1 2.686851 -23.005016 40.910543
9865 10 1 3.652471 -23.153261 40.696995
9866 10 1 4.642041 -23.140411 40.840473
9867 10 1 4.942307 -24.091028 40.761933
9868 10 1 5.322002 -24.583396 41.545135
9869 10 1 5.492879 -24.870890 42.487551
9870 10 1 4.540427 -24.869929 42.792239
9871 10 1 4.619319 -24.244592 42.015882
9872 10 1 4.480028 -23.511338 41.350347
9873 10 1 4.006647 -24.391621 41.382152
9874 10 1 3.534466 -25.271807 41.430304
9875 10 1 3.705722 -25.906127 40.676442
9876 10 1 3.425268 -25.071020 40.203217
9877 10 1 3.908458 -24.624196 40.956129
9878 10 1 4.396938 -24.262921 41.750400
9879 10 1 5.244126 -24.790999 41.692037
9880 10 1 4.274094 -24.628716 41.511203
9881 10 1 4.663708 -24.987270 42.359519
9882 10 1 5.412429 -25.583817 42.648567
9883 10 1 4.996307 -25.294758 41.786426
9884 10 1 4.778170 -24.534776 42.398671
9885 10 1 4.381974 -24.436969 43.311612
9886 10 1 5.183066 -23.906464 43.034454
9887 10 1 4.313509 -24.046104 43.508133
9888 10 1 3.400629 -24.445052 43.421577
9889 10 1 3.088620 -25.354252 43.145886
9890 10 1 3.545014 -24.727190 42.514619
9891 10 1 4.280554 -25.220327 42.979159
9892 10 1 5.201865 -25.269000 42.593390
9893 10 1 5.037417 -25.569841 41.654001
9894 10 1 5.414580 -26.196277 42.336150
9895 10 1 6.350021 -26.429848 42.070829
9896 10 1 6.066772 -26.713865 41.154802
9897 10 1 5.765955 -27.651603 41.328459
9898 10 1 6.645768 -28.097429 41.163630
9899 10 1 7.231638 -28.870940 41.405366
9900 10 1 6.253875 -28.662015 41.387208
9901 10 1 6.364781 -29.468918 40.807029
9902 10 1 6.930926 -30.074689 40.247993
9903 10 1 7.547307 -29.931054 39.473755
9904 10 1 7.713723 -29.714185 40.435666
9905 10 1 8.633034 -30.100653 40.509885
9906 10 1 7.804490 -30.224989 41.055829
9907 10 1 7.422003 -30.366099 41.968951
9908 10 1 8.309644 -30.045813 42.299873
9909 10 1 8.327204 -29.263619 41.677086
9910 10 1 8.077803 -29.922362 42.386915
9911 10 1 8.620882 -29.389058 43.035492
9912 10 1 8.951506 -29.905376 43.825495
9913 10 1 8.461396 -30.675436 43.417083
9914 10 1 8.146022 -30.080211 44.156167
9915 10 1 8.122966 -29.109405 44.394925
9916 10 1 7.941658 -30.062283 44.638135
9917 10 1 8.783650 -30.418479 44.232951
9918 10 1 8.487671 -29.464692 44.181099
9919 10 1 8.742604 -29.963552 43.352758
9920 10 1 8.723412 -29.151849 43.936512
9921 10 1 9.616451 -29.552398 44.141553
9922 10 1 8.763496 -29.103734 44.408327
9923 10 1 9.525183 -28.929683 45.032457
9924 10 1 9.368776 -28.903765 44.045105
9925 10 1 8.965266 -29.018204 43.137314
9926 10 1 9.213047 -28.090695 42.857438
9927 10 1 8.840736 -27.263496 43.278303
9928 10 1 8.342511 -26.686874 42.630786
9929 10 1 7.436451 -26.917271 42.985713
9930 10 1 7.868841 -26.559501 42.158042
9931 10 1 7.052256 -26.010534 42.336433
9932 10 1 7.777646 -26.553746 42.759197
9933 10 1 8.162032 -26.490298 41.838207
9934 10 1 7.263092 -26.234608 42.193916
9935 10 1 7.816496 -26.927151 41.731176
9936 10 1 7.816917 -27.925201 41.668750
9937 10 1 7.840900 -27.537369 40.747332
9938 10 1 8.822462 -27.726446 40.719292
9939 10 1 8.050345 -28.338622 40.889807
9940 10 1 7.052181 -28.356509 40.947685
9941 10 1 6.760585 -29.100748 41.548584
9942 10 1 7.416530 -28.415897 41.231226
9943 10 1 7.004321 -29.267901 40.908465
9944 10 1 6.343717 -29.796465 41.441590
9945 10 1 6.258024 -29.696944 40.450251
9946 10 1 6.450137 -30.445924 41.084382
9947 10 1 5.497810 -30.718435 40.947227
9948 10 1 6.084040 -31.392031 40.497113
9949 10 1 6.213463 -32.065700 41.224726
9950 10 1 6.566840 -32.978176 41.430908
9951 10 1 6.550271 -33.876032 41.870886
9952 10 1 5.904542 -33.175289 41.567582
9953 10 1 6.803709 -32.737699 41.563742
9954 10 1 6.372474 -33.639612 41.588021
9955 10 1 7.020561 -33.328717 40.892803
9956 10 1 6.390202 -32.716172 41.369706
9957 10 1 7.094647 -33.393108 41.156364
9958 10 1 6.609451 -33.217254 42.012904
9959 10 1 5.753744 -33.452261 42.473921
9960 10 1 5.406358 -33.049857 41.626931
9961 10 1 6.253516 -32.645330 41.282430
9962 10 1 6.893850 -31.892335 41.433989
9963 10 1 7.261288 -31.998195 40.509985
9964 10 1 8.170818 -32.097653 40.913549
9965 10 1 7.544780 -32.284297 41.670675
9966 10 1 8.362550 -31.812915 41.340447
9967 10 1 9.201101 -31.478235 41.770357
9968 10 1 9.893556 -30.897710 41.341991
9969 10 1 9.799914 -31.601680 42.046021
9970 10 1 8.844576 -31.368439 41.864563
9971 10 1 8.650419 -31.743212 42.771122
9972 10 1 9.145367 -32.517583 42.376944
9973 10 1 8.987997 -31.538914 42.244876
9974 10 1 9.581495 -31.477032 43.047330
9975 10 1 9.862154 -32.299592 43.541926
9976 10 1 10.519617 -31.694400 43.093055
9977 10 1 11.304065 -31.079373 43.172948
9978 10 1 12.028809 -31.488312 43.727488
9979 10 1 11.371081 -31.079372 44.360070
9980 10 1 10.764315 -31.868248 44.457590
9981 10 1 9.855766 -31.503515 44.661326
9982 10 1 10.754939 -31.506448 44.223742
9983 10 1 11.111454 -31.519644 45.157938
9984 10 1 10.150835 -31.375475 44.920397
9985 10 1 10.188154 -31.718167 45.859103
9986 10 1 10.664825 -32.206168 46.590294
9987 10 1 11.418781 -32.568390 46.042256
9988 10 1 11.270448 -31.611953 46.293704
9989 10 1 11.288350 -32.584004 46.059615
9990 10 1 11.316763 -31.585557 46.107536
9991 10 1 10.654198 -32.111536 46.640783
9992 10 1 10.635329 -33.052752 46.303503
9993 10 1 9.800066 -32.521978 46.447087
9994 10 1 10.082171 -32.541262 45.487897
9995 10 1 9.179385 -32.348434 45.872336
9996 10 1 10.151996 -32.579501 45.847143
9997 10 1 10.134837 -31.604028 46.066589
9998 10 1 11.112844 -31.723681 45.895754
9999 10 1 11.510683 -32.616674 45.685306
10000 10 1 11.861687 -32.576569 44.749791
10001 11 2 25.817208 -22.016828 26.427486
10002 11 2 28.219233 -22.761870 28.063086
10003 11 2 26.169178 -23.016627 23.620973
10004 11 2 25.515883 -19.032172 26.395377
10005 11 3 23.364536 -23.256643 27.630509
10006 12 2 -33.740809 -42.704373 5.862581
10007 12 2 -31.444132 -42.357719 7.761292
10008 12 2 -35.854434 -40.662827 6.466467
10009 12 3 -34.890897 -45.457346 6.176326
10010 12 2 -32.773773 -42.339600 3.046239
10011 13 2 -17.942513 -41.380801 38.169922
10012 13 2 -19.529681 -40.269784 40.460455
10013 13 2 -15.432632 -42.649300 39.214625
10014 13 3 -17.230053 -39.163818 36.278524
10015 13 2 -19.577688 -43.440300 36.726085
10016 14 2 -22.147749 9.623967 -40.513890
10017 14 2 -20.954554 6.872408 -40.586070
10018 14 3 -22.215736 10.757616 -43.290618
10019 14 2 -20.481159 11.390771 -38.752958
10020 14 2 -24.939548 9.475073 -39.425915
10021 15 2 -34.074033 8.698007 6.859808
10022 15 2 -33.645597 10.615578 4.592791
10023 15 3 -36.883619 7.650422 6.766053
10024 15 2 -33.620929 10.113292 9.465891
10025 15 2 -32.145986 6.412737 6.614498
10026 16 2 0.750643 29.885865 -32.962459
10027 16 2 0.253894 28.346438 -35.488999
10028 16 3 3.074996 28.680798 -31.497810
10029 16 2 -1.692955 29.772878 -31.225779
10030 16 2 1.366639 32.743348 -33.637249
10031 17 2 -21.292931 -16.697551 -1.141379
10032 17 3 -22.489911 -14.144574 -0.116904
10033 17 2 -23.044078 -19.005861 -0.363443
10034 17 2 -18.562882 -17.068962 0.045586
10035 17 2 -21.074853 -16.570805 -4.130757
10036 18 2 23.349065 29.907180 30.812957
10037 18 2 23.238852 32.275751 28.975099
10038 18 2 23.677994 30.850774 33.641638
10039 18 2 25.674428 28.166582 30.062621
10040 18 3 20.804985 28.335613 30.572472
10041 19 2 -24.938258 -40.026149 -3.818895
10042 19 2 -25.327347 -40.896011 -6.663530
10043 19 3 -24.481550 -37.062360 -3.733046
10044 19 2 -22.559834 -41.438507 -2.657713
10045 19 2 -27.384302 -40.707717 -2.221292
10046 20 2 1.209280 22.026408 -34.131510
10047 20 2 0.961328 24.983090 -34.574852
10048 20 3 3.748949 21.036810 -35.384818
10049 20 2 -1.132952 20.628126 -35.380011
10050 20 2 1.259797 21.457607 -31.186359
10051 21 2 21.877023 28.592918 38.843747
10052 21 2 20.200621 30.929569 37.989496
10053 21 3 22.209358 26.704080 36.536835
10054 21 2 20.527179 27.170662 41.114233
10055 21 2 24.570933 29.567363 39.734423
10056 22 2 33.394323 -3.168740 -2.407570
10057 22 3 31.627032 -5.205659 -1.093171
10058 22 2 33.746486 -0.819315 -0.575582
10059 22 2 32.133210 -2.256741 -4.972303
10060 22 2 36.070562 -4.393248 -2.989225
10061 23 2 19.129359 30.379171 15.988278
10062 23 2 19.392652 27.404695 16.276671
10063 23 2 16.225893 31.113961 15.815169
10064 23 2 20.536914 31.270452 13.493402
10065 23 3 20.361978 31.727576 18.367869
10066 24 2 -6.970516 -21.396034 -43.286068
10067 24 3 -4.681366 -23.334640 -43.246082
10068 24 2 -7.715385 -20.670047 -40.472154
10069 24 2 -9.325780 -22.657815 -44.650121
10070 24 2 -6.159532 -18.921633 -44.775917
10071 25 2 -38.243892 43.243614 -26.310302
10072 25 2 -38.137732 43.837506 -23.371591
10073 25 2 -36.131947 44.833484 -27.728752
10074 25 2 -40.944865 43.986834 -27.383786
10075 25 3 -37.761023 40.316631 -26.757079
10076 26 2 15.314290 -2.249190 -9.151877
10077 26 3 17.852715 -0.733697 -8.642287
10078 26 2 15.973726 -4.975275 -10.216584
10079 26 2 13.650590 -0.766690 -11.160433
10080 26 2 13.780130 -2.521097 -6.588204
10081 27 2 -41.757009 20.066134 -40.382193
10082 27 3 -44.524820 18.914849 -40.499522
10083 27 2 -40.651536 20.297485 -43.161474
10084 27 2 -39.994317 18.268017 -38.751335
10085 27 2 -41.857363 22.784184 -39.116439
10086 28 2 32.893365 14.410304 33.180898
10087 28 3 30.884232 12.258703 33.758825
10088 28 2 33.502777 15.913436 35.704628
10089 28 2 31.774932 16.299937 31.136787
10090 28 2 35.411521 13.169138 32.123354
10091 29 2 2.768252 18.209924 -14.379771
10092 29 2 -0.225995 18.081908 -14.245236
10093 29 3 3.898645 18.124010 -11.602212
10094 29 2 3.600870 20.761613 -15.719782
10095 29 2 3.799487 15.872166 -15.951852
10096 30 2 -4.699155 44.444933 -18.673531
10097 30 2 -2.726908 46.621278 -18.062167
10098 30 2 -4.890250 42.581404 -16.330298
10099 30 3 -3.788694 42.920707 -21.091752
10100 30 2 -7.390769 45.656345 -19.209907
10101 31 2 -9.297238 16.883503 22.597805
10102 31 2 -10.925598 15.833878 20.307231
10103 31 2 -6.449979 17.237080 21.721394
10104 31 2 -9.407338 14.936855 24.877814
10105 31 3 -10.406037 19.526197 23.484782
10106 32 2 -29.856501 28.881855 -14.459108
10107 32 2 -29.178844 26.062754 -13.688754
10108 32 2 -27.595466 30.056855 -16.042489
10109 32 2 -30.298583 30.516466 -11.982697
10110 32 3 -32.353112 28.891347 -16.122492
10111 33 2 1.363746 -8.185819 -7.200623
10112 33 2 0.089618 -7.862254 -4.503977
10113 33 2 3.646640 -10.122054 -7.002157
10114 33 3 2.385173 -5.529355 -8.149249
10115 33 2 -0.666446 -9.229610 -9.147112
10116 34 2 38.363074 -18.674667 31.381692
10117 34 2 38.830861 -21.453344 30.352065
10118 34 2 37.831395 -18.777895 34.332398
10119 34 3 35.997475 -17.474143 29.980735
10120 34 2 40.792567 -16.993286 30.861571
10121 35 2 6.175112 5.681414 -8.770243
10122 35 3 8.322040 3.898767 -9.871549
10123 35 2 4.226658 6.362639 -10.947273
10124 35 2 7.412763 8.200822 -7.711563
10125 35 2 4.738990 4.263428 -6.550589
10126 36 2 -37.223815 -14.356222 39.296551
10127 36 2 -36.868411 -16.858252 40.913194
10128 36 2 -37.770544 -12.048084 41.133283
10129 36 2 -39.531950 -14.702868 37.411782
10130 36 3 -34.724357 -13.815685 37.727944
10131 37 2 20.455063 -3.234460 -33.791226
10132 37 3 22.636255 -1.290952 -34.473266
10133 37 2 19.377963 -4.453775 -36.311766
10134 37 2 18.248818 -1.797414 -32.353386
10135 37 2 21.557215 -5.395697 -32.026484
10136 38 2 -8.568813 2.742795 -43.773530
10137 38 2 -8.729412 3.841398 -40.986546
10138 38 3 -7.657963 -0.113764 -43.671446
10139 38 2 -6.613368 4.359314 -45.374498
10140 38 2 -11.274510 2.884232 -45.061631
10141 39 2 10.476518 2.172303 38.760518
10142 39 3 10.407625 5.085444 39.473862
10143 39 2 9.954550 0.528983 41.215523
10144 39 2 13.174889 1.478731 37.647975
10145 39 2 8.369009 1.596053 36.704711
10146 40 2 -3.953841 37.947476 41.882167
10147 40 2 -5.839124 35.749099 42.665013
10148 40 2 -3.038302 37.521026 39.057290
10149 40 2 -1.579884 37.929395 43.716287
10150 40 3 -5.358056 40.590382 42.090076
10151 41 2 -22.360013 18.245107 -33.491845
10152 41 2 -22.797555 20.730548 -35.113924
10153 41 2 -23.935440 18.422890 -30.945000
10154 41 3 -19.442957 17.972881 -32.846338
10155 41 2 -23.264099 15.854109 -35.062118
10156 42 2 -27.428006 17.524308 -34.078784
10157 42 2 -26.143311 20.232688 -34.198126
10158 42 3 -28.286637 16.702543 -36.833317
10159 42 2 -29.822957 17.632127 -32.275292
10160 42 2 -25.459117 15.529877 -33.008401
10161 43 2 -22.464030 -17.122231 35.124778
10162 43 2 -20.269857 -16.602677 37.103582
10163 43 2 -22.292218 -15.124164 32.893588
10164 43 2 -25.123021 -16.869653 36.490784
10165 43 3 -22.171025 -19.892429 34.011157
10166 44 2 -7.000477 -12.913803 -11.692287
10167 44 2 -9.747668 -11.758211 -11.349433
10168 44 2 -6.822979 -15.523663 -10.223571
10169 44 3 -4.967374 -11.004343 -10.587545
10170 44 2 -6.463887 -13.368995 -14.608598
10171 45 2 22.011442 27.091746 -17.494958
10172 45 2 19.505478 25.482517 -17.856245
10173 45 2 22.315004 28.998729 -19.790882
10174 45 3 24.378089 25.250317 -17.404863
10175 45 2 21.847195 28.635422 -14.927841
10176 46 2 -20.279108 -2.117735 -26.390629
10177 46 2 -17.926269 -3.681229 -27.400400
10178 46 3 -22.688348 -2.742913 -28.065358
10179 46 2 -19.677269 0.816369 -26.560394
10180 46 2 -20.824546 -2.863169 -23.536365
10181 47 2 11.492996 -6.388418 6.540588
10182 47 2 13.103419 -4.031097 5.618864
10183 47 2 10.207901 -7.708830 4.173090
10184 47 2 9.367915 -5.464312 8.445860
10185 47 3 13.292747 -8.349433 7.924537
10186 48 2 31.007693 -3.416186 21.497920
10187 48 2 28.043339 -3.204310 21.088393
10188 48 3 31.714745 -6.233579 22.247837
10189 48 2 31.849139 -1.555285 23.695422
10190 48 2 32.423550 -2.671570 18.960028
10191 49 2 10.915904 -27.437581 7.370324
10192 49 2 13.212487 -25.777709 6.385167
10193 49 2 9.854239 -26.263518 9.918743
10194 49 3 11.853449 -30.242138 7.875768
10195 49 2 8.743443 -27.466960 5.301616
10196 50 2 41.352581 -36.746895 33.250130
10197 50 2 43.195951 -36.501638 35.604241
10198 50 3 42.968224 -36.909357 30.727571
10199 50 2 39.554884 -34.348003 33.133516
10200 50 2 39.691266 -39.228582 33.535194
10201 51 2 29.611202 -19.894147 43.270165
10202 51 3 26.676337 -20.376327 42.877648
10203 51 2 30.427533 -17.424409 41.775508
10204 51 2 31.158362 -22.246732 42.234962
10205 51 2 30.182578 -19.529121 46.192542
10206 52 2 5.195472 6.194826 4.502064
10207 52 3 8.164404 6.204776 4.932580
10208 52 2 4.415230 3.735599 2.971239
10209 52 2 4.402361 8.634501 2.946763
10210 52 2 3.799894 6.204429 7.157675
10211 53 2 18.739575 33.853866 -3.250577
10212 53 2 20.811266 36.021152 -3.355290
10213 53 3 17.821865 33.483712 -0.418476
10214 53 2 19.923275 31.289314 -4.261482
10215 53 2 16.401893 34.621285 -4.967058
10216 54 2 -40.293308 26.778758 16.513690
10217 54 2 -43.127465 25.808593 16.351402
10218 54 2 -39.010415 26.575644 13.809447
10219 54 2 -38.769835 25.092819 18.472424
10220 54 3 -40.265518 29.637977 17.421487
10221 55 2 12.923435 -11.741115 3.318233
10222 55 2 15.624652 -11.527241 4.605744
10223 55 2 10.806532 -11.819729 5.442508
10224 55 3 12.791649 -14.251994 1.681738
10225 55 2 12.470905 -9.365497 1.542943
10226 56 2 -24.491230 -32.136062 30.384631
10227 56 3 -21.756391 -33.367577 30.448094
10228 56 2 -25.342743 -31.737815 27.535715
10229 56 2 -24.427377 -29.485866 31.789046
10230 56 2 -26.438408 -33.952991 31.765669
10231 57 2 -18.154678 -9.944432 43.417232
10232 57 2 -19.907673 -8.952670 41.193853
10233 57 2 -15.377412 -10.394621 42.376019
10234 57 2 -19.253856 -12.524666 44.482222
10235 57 3 -18.079771 -7.905773 45.616836
10236 58 2 37.284386 33.530865 18.707318
10237 58 2 37.213538 36.006661 20.400072
10238 58 2 36.344315 34.187625 15.935147
10239 58 2 35.487644 31.448520 19.905464
10240 58 3 40.092048 32.480656 18.588589
10241 59 2 -30.432268 43.963659 -33.727449
10242 59 2 -30.066610 41.193626 -32.635108
10243 59 2 -27.851725 45.476733 -33.500717
10244 59 3 -32.563793 45.381933 -32.163767
10245 59 2 -31.246944 43.802345 -36.610205
10246 60 2 -23.943512 -30.223705 -42.535660
10247 60 3 -25.567043 -30.915099 -40.109527
10248 60 2 -22.616040 -27.564739 -42.126126
10249 60 2 -25.739465 -30.085840 -44.934732
10250 60 2 -21.851499 -32.329143 -42.972256
10251 61 2 6.541887 -37.279508 13.181841
10252 61 2 9.497056 -37.616533 12.790195
10253 61 2 5.944789 -37.016433 16.110025
10254 61 3 5.107708 -39.673014 12.079904
10255 61 2 5.617993 -34.812053 11.747239
10256 62 2 -24.577576 -5.783390 40.957368
10257 62 2 -23.396359 -5.723359 38.200355
10258 62 3 -22.377387 -6.019984 42.983002
10259 62 2 -26.421477 -8.136913 41.204255
10260 62 2 -26.115081 -3.253302 41.441861
10261 63 2 -13.332827 -18.759099 5.732950
10262 63 3 -10.792910 -17.234888 5.257969
10263 63 2 -13.770193 -19.079016 8.683605
10264 63 2 -13.129675 -21.464727 4.452987
10265 63 2 -15.638529 -17.257762 4.537239
10266 64 2 14.445398 -35.288715 16.153085
10267 64 2 15.469393 -33.211949 18.060564
10268 64 2 16.372106 -35.589324 13.873298
10269 64 2 11.768817 -34.441960 15.095297
10270 64 3 14.171277 -37.911630 17.583183
10271 65 2 -31.735226 -3.707388 5.124831
10272 65 2 -29.965769 -5.998104 5.913273
10273 65 2 -33.590996 -3.051932 7.389007
10274 65 3 -33.338492 -4.468676 2.706158
10275 65 2 -30.045647 -1.310841 4.490886
10276 66 2 -34.424038 44.473133 43.103967
10277 66 2 -34.822061 42.421372 45.256142
10278 66 2 -33.129306 43.186691 40.723056
10279 66 3 -32.662959 46.673059 44.133006
10280 66 2 -37.081828 45.611408 42.303664
10281 67 2 32.422617 -42.940250 23.673915
10282 67 2 29.836037 -44.437114 23.936592
10283 67 2 33.147654 -42.698001 20.772944
10284 67 2 34.588551 -44.424065 25.125474
10285 67 3 32.118226 -40.201819 24.860651
10286 68 2 42.039757 -11.326323 31.642807
10287 68 2 43.884895 -9.137586 32.539969
10288 68 2 43.067049 -13.967006 32.628434
10289 68 3 41.910203 -11.359282 28.645787
10290 68 2 39.296884 -10.841416 32.757037
10291 69 2 11.143997 43.543947 12.620771
10292 69 2 9.805354 43.319981 9.945350
10293 69 2 14.117913 43.662289 12.244188
10294 69 3 10.442106 41.154398 14.293315
10295 69 2 10.210613 46.039120 14.000230
10296 70 2 2.608808 15.333622 -7.223856
10297 70 2 4.663004 17.500945 -6.935780
10298 70 3 1.667219 14.480637 -4.506168
10299 70 2 3.823767 12.986573 -8.643447
10300 70 2 0.281242 16.366331 -8.810030
10301 71 2 -23.356875 10.964200 -2.157680
10302 71 3 -24.845688 13.568601 -2.134621
10303 71 2 -22.806229 10.152183 -4.992714
10304 71 2 -25.013838 8.853223 -0.816692
10305 71 2 -20.761745 11.282792 -0.686694
10306 72 2 -1.975233 -3.110652 -16.846425
10307 72 2 -4.512396 -1.797029 -15.931440
10308 72 2 -2.208783 -3.822013 -19.751493
10309 72 3 -1.503614 -5.601189 -15.241807
10310 72 2 0.323861 -1.222376 -16.460961
10311 73 2 -17.745545 39.310666 -11.848789
10312 73 2 -19.872955 40.869280 -10.418806
10313 73 3 -15.063668 39.973111 -10.678876
10314 73 2 -17.769855 40.025696 -14.762231
10315 73 2 -18.275705 36.374577 -11.535244
10316 74 2 8.041829 10.653069 42.747594
10317 74 2 6.479468 12.942064 41.598886
10318 74 3 10.416935 10.088570 41.003973
10319 74 2 6.296125 8.216830 42.878944
10320 74 2 8.974790 11.364814 45.508573
10321 75 2 9.332029 25.054507 16.768085
10322 75 2 10.983574 27.248111 15.559572
10323 75 2 9.280391 22.701141 14.908246
10324 75 2 6.533341 26.039100 17.212968
10325 75 3 10.530811 24.229677 19.391551
10326 76 2 30.842167 -37.959562 -19.737813
10327 76 2 30.969983 -34.997858 -20.198217
10328 76 2 30.963457 -39.387439 -22.373426
10329 76 3 28.274467 -38.645349 -18.346189
10330 76 2 33.160759 -38.807602 -18.033420
10331 77 2 29.273874 15.505649 15.887711
10332 77 2 30.912649 13.108009 15.135554
10333 77 3 29.637817 17.652884 13.824479
10334 77 2 30.166785 16.527889 18.563105
10335 77 2 26.378244 14.733813 16.027706
10336 78 2 -2.305337 -40.687831 -25.704754
10337 78 2 -4.162028 -42.325709 -27.398878
10338 78 3 0.518543 -41.598091 -26.148746
10339 78 2 -3.024169 -41.032756 -22.812643
10340 78 2 -2.553693 -37.794768 -26.458749
10341 79 2 15.329220 -35.376335 -23.693488
10342 79 2 16.279397 -32.760154 -24.812756
10343 79 2 14.722192 -35.053273 -20.773360
10344 79 2 17.467386 -37.450793 -24.046861
10345 79 3 12.847904 -36.241121 -25.140976
10346 80 2 -37.397517 30.358722 -33.214719
10347 80 2 -40.161930 30.191571 -32.061429
10348 80 2 -37.566082 31.136036 -36.107359
10349 80 3 -36.050239 27.689144 -32.973487
10350 80 2 -35.811816 32.418138 -31.716600
10351 81 2 16.673243 11.586386 -27.154952
10352 81 3 18.942267 13.543497 -27.009188
10353 81 2 15.996825 11.051747 -30.028385
10354 81 2 14.276035 12.728819 -25.759156
10355 81 2 17.477844 9.021483 -25.823077
10356 82 2 8.908232 25.574663 37.570286
10357 82 2 11.346436 25.156112 35.873236
10358 82 3 7.298885 23.044119 37.649981
10359 82 2 7.244471 27.781529 36.403393
10360 82 2 9.743136 26.316891 40.354533
10361 83 2 -34.376413 -40.705624 22.188049
10362 83 2 -34.400115 -37.793903 21.466024
10363 83 3 -33.992219 -40.998611 25.148886
10364 83 2 -32.129021 -42.074810 20.747717
10365 83 2 -36.984297 -41.955172 21.389569
10366 84 2 0.995027 -15.942246 1.448192
10367 84 2 2.381892 -18.593648 1.232147
10368 84 2 -1.770828 -16.164574 0.307747
10369 84 3 2.543546 -13.876302 -0.079540
10370 84 2 0.825498 -15.134461 4.332416
10371 85 2 -1.360696 34.369917 30.713101
10372 85 3 -0.133002 36.981009 29.891540
10373 85 2 -1.165617 34.066323 33.691318
10374 85 2 0.100768 32.114407 29.380135
10375 85 2 -4.244935 34.317928 29.889411
10376 86 2 -9.263355 -32.467194 0.929590
10377 86 2 -9.319661 -35.330170 1.824126
10378 86 2 -7.471403 -32.201744 -1.461737
10379 86 2 -8.223365 -30.744563 3.154666
10380 86 3 -12.038992 -31.592298 0.201306
10381 87 2 -24.358680 -36.242087 -42.118357
10382 87 2 -23.621301 -33.560911 -40.992494
10383 87 3 -22.781183 -36.744278 -44.620218
10384 87 2 -27.289314 -36.286327 -42.758220
10385 87 2 -23.742921 -38.376834 -40.102494
10386 88 2 -23.201585 11.028492 29.798080
10387 88 2 -24.407799 13.591709 30.785486
10388 88 2 -21.404721 9.888966 31.912970
10389 88 2 -21.607215 11.565237 27.314154
10390 88 3 -25.386605 9.068057 29.179711
10391 89 2 42.347015 -20.760650 -13.942688
10392 89 2 44.292729 -23.033009 -13.717786
10393 89 2 42.152209 -19.346110 -11.304294
10394 89 2 39.649007 -21.826321 -14.707605
10395 89 3 43.294114 -18.837162 -16.041067
10396 90 2 12.118174 27.524303 -21.618361
10397 90 2 10.866733 29.842602 -23.053418
10398 90 2 12.160670 28.078122 -18.670230
10399 90 3 14.925068 27.135682 -22.603411
10400 90 2 10.520226 25.040808 -22.146386
10401 91 2 -14.473399 -39.100282 -9.415654
10402 91 3 -11.571960 -39.802631 -9.118400
10403 91 2 -16.109526 -40.805781 -7.567855
10404 91 2 -15.334349 -39.584421 -12.248387
10405 91 2 -14.877761 -36.208295 -8.727975
10406 92 2 34.844356 39.162939 -5.527893
10407 92 3 35.120377 42.144984 -5.351200
10408 92 2 35.778437 37.918481 -2.962972
10409 92 2 36.510773 38.137416 -7.801954
10410 92 2 31.967837 38.450874 -5.995445
10411 93 2 6.779612 -19.416605 8.904646
10412 93 2 6.959175 -21.979445 7.355579
10413 93 3 8.993200 -17.578092 8.056177
10414 93 2 7.032899 -20.000328 11.836389
10415 93 2 4.133174 -18.108557 8.370440
10416 94 2 -18.214069 -37.796927 43.940155
10417 94 2 -18.935090 -34.884929 43.960131
10418 94 3 -17.972842 -38.747971 41.105137
10419 94 2 -20.351863 -39.366096 45.342846
10420 94 2 -15.596480 -38.188711 45.352505
10421 95 2 -23.195556 30.354621 1.080758
10422 95 2 -20.661651 28.891475 1.742976
10423 95 2 -22.947846 33.220088 1.933834
10424 95 2 -25.494460 29.076810 2.523755
10425 95 3 -23.678267 30.230110 -1.877533
10426 96 2 -36.404809 38.806408 -42.717899
10427 96 2 -38.861905 40.109546 -43.842405
10428 96 2 -34.411363 40.916515 -41.960523
10429 96 3 -35.203096 36.989887 -44.780940
10430 96 2 -37.142874 37.209683 -40.287728
10431 97 2 20.450063 38.369090 -19.654057
10432 97 3 17.969915 38.722231 -18.003556
10433 97 2 20.065115 39.671846 -22.328873
10434 97 2 20.989224 35.442675 -20.035375
10435 97 2 22.776000 39.639608 -18.248425
10436 98 2 -23.036180 18.143935 -41.872874
10437 98 2 -24.065245 15.605291 -40.649635
10438 98 3 -21.071660 19.429301 -40.005123
10439 98 2 -25.326563 20.019126 -42.360522
10440 98 2 -21.681252 17.522020 -44.476217
10441 99 2 -13.470974 -5.612139 26.837940
10442 99 3 -16.099650 -4.755535 25.673340
10443 99 2 -11.231769 -4.410881 25.243280
10444 99 2 -13.266715 -8.603952 26.752304
10445 99 2 -13.285763 -4.678189 29.682836
10446 100 2 -28.063626 -23.793524 14.280883
10447 100 3 -26.158593 -21.950998 15.686568
10448 100 2 -26.833618 -24.732777 11.710886
10449 100 2 -30.616968 -22.332706 13.692279
10450 100 2 -28.645323 -26.157612 16.033798
10451 101 2 8.984420 1.466099 -43.592638
10452 101 2 9.292196 4.170066 -44.855111
10453 101 3 10.769460 -0.498930 -44.989883
10454 101 2 6.131224 0.570224 -43.830712
10455 101 2 9.744801 1.623037 -40.694848
10456 102 2 -25.791736 33.844836 12.656045
10457 102 2 -27.461568 34.920690 10.407891
10458 102 2 -23.435693 32.365890 11.532756
10459 102 2 -27.443520 31.975872 14.322954
10460 102 3 -24.826164 36.116890 14.360580
10461 103 2 37.733727 12.331211 -37.853517
10462 103 2 39.825247 14.464851 -37.583102
10463 103 3 38.343842 10.630624 -40.248462
10464 103 2 35.040545 13.608308 -38.193803
10465 103 2 37.725273 10.621062 -35.388701
10466 104 2 -31.918020 -18.707320 -28.252063
10467 104 2 -34.843194 -18.046570 -28.169819
10468 104 2 -31.486532 -21.122502 -29.978538
10469 104 2 -30.943146 -19.277739 -25.472811
10470 104 3 -30.399206 -16.382470 -29.387085
10471 105 2 16.061840 21.280247 -22.648642
10472 105 2 16.595000 24.228593 -22.497010
10473 105 3 15.812657 20.455578 -25.522286
10474 105 2 13.510150 20.649783 -21.202477
10475 105 2 18.329554 19.787033 -21.372795
10476 106 2 -30.596105 -31.581509 22.308645
10477 106 2 -31.115885 -29.946037 19.847942
10478 106 2 -27.726200 -31.273380 23.126385
10479 106 2 -31.166219 -34.469229 21.728952
10480 106 3 -32.376117 -30.637390 24.531300
10481 107 2 35.331653 -2.561259 -17.267369
10482 107 2 35.983466 0.053315 -15.948604
10483 107 2 36.804552 -4.775872 -15.879545
10484 107 2 36.159866 -2.461651 -20.149060
10485 107 3 32.378727 -3.060828 -17.092268
10486 108 2 37.623323 42.233055 -37.322895
10487 108 2 38.613602 43.408058 -39.899466
10488 108 2 35.013569 40.832585 -37.800252
10489 108 3 37.229486 44.423363 -35.311069
10490 108 2 39.636635 40.268213 -36.280795
10491 109 2 -41.343947 13.444441 30.944640
10492 109 2 -40.142267 14.523483 33.472808
10493 109 3 -40.360474 10.647886 30.484140
10494 109 2 -40.538987 15.180701 28.634350
10495 109 2 -44.334062 13.425694 31.187262
10496 110 2 -10.599559 -28.370829 12.687673
10497 110 2 -9.529239 -25.670556 13.437965
10498 110 2 -10.406173 -28.732742 9.715869
10499 110 3 -13.469552 -28.579911 13.535863
10500 110 2 -8.993273 -30.500108 14.060996
10501 111 2 -1.222738 -3.842695 26.649509
10502 111 2 -0.231512 -4.463544 29.412120
10503 111 2 -0.385329 -6.027649 24.772086
10504 111 2 -0.058081 -1.234751 25.731791
10505 111 3 -4.216029 -3.644833 26.682039
10506 112 2 -10.372455 -41.376595 -22.606395
10507 112 2 -11.098418 -38.570080 -23.378698
10508 112 3 -11.350378 -43.277662 -24.711058
10509 112 2 -11.649482 -42.052365 -19.977224
10510 112 2 -7.391541 -41.606272 -22.358598
10511 113 2 29.162164 23.476782 -38.229522
10512 113 2 28.311314 20.682398 -38.913240
10513 113 2 29.054799 23.855370 -35.255444
10514 113 2 27.316896 25.436362 -39.554300
10515 113 3 31.965647 23.932999 -39.195106
10516 114 2 -34.416185 7.358480 -2.322545
10517 114 3 -34.392651 9.475687 -4.447840
10518 114 2 -33.953867 4.674212 -3.579911
10519 114 2 -37.074445 7.366911 -0.932012
10520 114 2 -32.243775 7.917109 -0.330418
10521 115 2 20.907160 -38.697232 -42.179617
10522 115 3 17.943673 -38.230608 -42.182950
10523 115 2 21.897008 -38.860150 -45.006922
10524 115 2 21.512976 -41.268754 -40.758258
10525 115 2 22.274981 -36.429415 -40.770335
10526 116 2 11.558495 17.780290 27.688186
10527 116 2 12.981727 20.408978 27.941979
10528 116 2 13.344109 15.577666 28.667997
10529 116 2 10.858960 17.295521 24.811443
10530 116 3 9.049184 17.838994 29.331327
10531 117 2 -37.385948 32.010108 -6.260319
10532 117 2 -35.500708 30.363176 -4.606994
10533 117 2 -40.213804 31.253384 -5.604117
10534 117 3 -36.865452 31.505154 -9.171351
10535 117 2 -36.963828 34.918717 -5.658814
10536 118 2 28.421918 23.472630 35.330014
10537 118 2 31.311179 23.183804 36.084171
10538 118 3 26.922872 24.759192 37.587804
10539 118 2 27.258470 20.764283 34.772120
10540 118 2 28.195152 25.183242 32.875959
10541 119 2 -20.469961 -40.926538 28.388128
10542 119 2 -22.036188 -42.649763 30.279538
10543 119 2 -17.857288 -40.170725 29.654100
10544 119 2 -22.035622 -38.443921 27.767389
10545 119 3 -19.950747 -42.441745 25.851483
10546 120 2 -2.677770 29.728556 23.746655
10547 120 3 -0.862690 32.113543 23.878268
10548 120 2 -3.371245 29.156395 20.884536
10549 120 2 -5.187364 30.295455 25.289562
10550 120 2 -1.289780 27.348830 24.934254
10551 121 2 22.824335 16.995964 39.705919
10552 121 2 24.300323 19.447751 38.805808
10553 121 2 21.024724 16.046420 37.501431
10554 121 2 21.179147 17.651743 42.127346
10555 121 3 24.793146 14.837942 40.389091
10556 122 2 17.206548 0.768475 2.683482
10557 122 2 14.371570 0.351389 3.571703
10558 122 2 18.062165 3.565494 3.350269
10559 122 3 17.398771 0.343585 -0.280049
10560 122 2 18.993687 -1.186568 4.092007
10561 123 2 -38.249912 -11.607404 25.837246
10562 123 3 -40.591224 -13.313037 26.617678
10563 123 2 -36.835255 -10.660183 28.307371
10564 123 2 -39.216209 -9.239984 24.268300
10565 123 2 -36.356959 -13.216413 24.155634
10566 124 2 -19.659967 -16.790150 -31.026502
10567 124 2 -20.228921 -19.652099 -30.329698
10568 124 2 -19.249616 -16.544566 -33.988140
10569 124 3 -17.183237 -15.885852 -29.595399
10570 124 2 -21.978094 -15.078081 -30.192771
10571 125 2 41.736551 -14.131805 -37.851877
10572 125 3 38.825493 -14.754971 -37.481196
10573 125 2 43.137068 -14.284557 -35.203251
10574 125 2 42.031700 -11.368209 -38.981224
10575 125 2 42.951944 -16.119484 -39.741838
10576 126 2 -21.165511 22.014561 -1.496109
10577 126 2 -23.187109 19.921621 -0.766215
10578 126 3 -19.432957 22.603505 0.881159
10579 126 2 -22.581378 24.518949 -2.346614
10580 126 2 -19.460600 21.014168 -3.752764
10581 127 2 -14.578638 37.909298 20.890373
10582 127 2 -16.274464 40.324663 20.351686
10583 127 2 -12.304019 38.666493 22.693916
10584 127 2 -13.492755 36.852214 18.301275
10585 127 3 -16.243313 35.793822 22.214616
10586 128 2 16.137761 33.321687 31.667333
10587 128 2 14.908190 31.449993 33.663559
10588 128 3 19.030079 32.620799 31.288851
10589 128 2 15.914780 36.140367 32.669993
10590 128 2 14.697994 33.075591 29.046931
10591 129 2 -31.931138 -9.560616 -22.478846
10592 129 3 -31.141274 -11.138566 -20.052699
10593 129 2 -29.912233 -9.994707 -24.654986
10594 129 2 -32.040236 -6.644428 -21.783187
10595 129 2 -34.630811 -10.464765 -23.424512
10596 130 2 -33.956941 7.070227 43.953594
10597 130 2 -31.097741 7.293348 43.073146
10598 130 3 -34.064244 6.771280 46.936733
10599 130 2 -35.216729 4.673189 42.662415
10600 130 2 -35.449051 9.543091 43.142082
10601 131 2 30.753205 8.301067 -2.985739
10602 131 2 32.319223 10.609484 -1.881746
10603 131 3 29.116270 9.229339 -5.322138
10604 131 2 28.935893 7.217256 -0.859068
10605 131 2 32.641434 6.148191 -3.880006
10606 132 2 -30.282613 -13.510193 42.354376
10607 132 2 -29.077109 -11.146474 43.754231
10608 132 2 -29.873783 -15.973047 44.017868
10609 132 2 -28.959453 -13.874309 39.686667
10610 132 3 -33.220106 -13.046941 41.958736
10611 133 2 17.929943 18.684280 -43.931304
10612 133 2 18.046040 21.250053 -42.381037
10613 133 2 17.060893 16.458395 -42.117416
10614 133 2 20.646057 18.064624 -45.044297
10615 133 3 15.966782 18.964048 -46.182466
10616 134 2 23.323258 41.785607 -2.669410
10617 134 3 25.530441 43.398199 -1.433332
10618 134 2 21.439326 40.860668 -0.525748
10619 134 2 24.489581 39.403693 -4.071614
10620 134 2 21.833684 43.479868 -4.646945
10621 135 2 -10.528537 39.535423 -28.246371
10622 135 3 -12.024146 41.832664 -27.027422
10623 135 2 -7.958469 39.112827 -26.757693
10624 135 2 -9.929837 40.145187 -31.122088
10625 135 2 -12.201696 37.051015 -28.078282
10626 136 2 0.114488 -16.697768 -33.425498
10627 136 2 -0.166594 -19.684558 -33.416637
10628 136 2 0.685864 -15.738856 -30.640894
10629 136 3 -2.434030 -15.456420 -34.407390
10630 136 2 2.372713 -15.911237 -35.237069
10631 137 2 1.708524 -23.090971 -20.246829
10632 137 2 4.611101 -23.844509 -20.331831
10633 137 2 0.217321 -24.615772 -22.356639
10634 137 3 1.424362 -20.147398 -20.751434
10635 137 2 0.581310 -23.756207 -17.547412
10636 138 2 -35.371974 14.621965 -15.085013
10637 138 3 -32.816159 16.190949 -15.006922
10638 138 2 -37.556634 16.325896 -16.235612
10639 138 2 -36.117100 13.785171 -12.302108
10640 138 2 -34.998003 12.185845 -16.795411
10641 139 2 5.198812 35.772095 19.017410
10642 139 2 2.364644 35.160172 19.787503
10643 139 3 5.282014 38.339895 17.468384
10644 139 2 6.277086 33.545312 17.320718
10645 139 2 6.871503 36.043001 21.493034
10646 140 2 40.227841 -41.671907 19.301958
10647 140 2 38.065621 -43.744741 19.134144
10648 140 3 41.384526 -41.655270 22.069955
10649 140 2 39.075112 -38.972116 18.683616
10650 140 2 42.386105 -42.315499 17.320119
10651 141 2 -0.970544 -27.296261 11.688878
10652 141 2 -2.043279 -30.095639 11.801661
10653 141 3 -0.291638 -26.373054 14.461381
10654 141 2 -3.044178 -25.477505 10.508975
10655 141 2 1.496918 -27.238845 9.983493
10656 142 2 36.365759 -26.512568 -25.631891
10657 142 2 33.850845 -26.005008 -27.186751
10658 142 3 36.184720 -29.185706 -24.282240
10659 142 2 36.711651 -24.368683 -23.562081
10660 142 2 38.715821 -26.490876 -27.496492
10661 143 2 -37.502805 -44.245261 29.426377
10662 143 2 -35.755641 -45.394375 31.577413
10663 143 2 -36.061931 -41.994105 28.063961
10664 143 2 -40.042739 -43.214418 30.645435
10665 143 3 -38.150910 -46.378145 27.418701
10666 144 2 -3.105575 40.097639 16.921079
10667 144 3 -5.837073 38.964010 17.424874
10668 144 2 -2.247576 41.728650 19.288280
10669 144 2 -3.180696 41.840303 14.480285
10670 144 2 -1.156956 37.857592 16.490878
10671 145 2 24.981690 9.349429 8.343649
10672 145 2 25.669524 9.772840 5.454427
10673 145 2 22.298899 10.561602 8.920944
10674 145 2 27.060740 10.654583 10.068216
10675 145 3 24.897598 6.408692 8.931011
10676 146 2 39.636457 28.144497 32.042468
10677 146 2 40.057269 25.209456 32.499034
10678 146 3 38.377884 28.567710 29.352322
10679 146 2 42.278846 29.561326 32.144314
10680 146 2 37.831827 29.239496 34.174202
10681 147 2 -18.397108 -23.673336 28.689730
10682 147 2 -20.182287 -26.017008 28.123746
10683 147 2 -17.532877 -22.426550 26.101559
10684 147 3 -15.981875 -24.599874 30.208998
10685 147 2 -19.891394 -21.649910 30.324618
10686 148 2 -4.208439 33.542700 -6.858807
10687 148 2 -2.265463 34.008570 -9.096620
10688 148 3 -3.480674 35.280876 -4.524477
10689 148 2 -4.107013 30.661239 -6.030016
10690 148 2 -6.980607 34.220113 -7.784117
10691 149 2 20.062876 37.064758 27.799721
10692 149 2 17.942980 36.870275 25.685906
10693 149 2 20.947926 39.918578 28.068793
10694 149 3 22.406611 35.359688 27.025354
10695 149 2 18.953989 36.110491 30.418832
10696 150 2 -30.798739 40.496119 -22.307519
10697 150 2 -32.369679 42.636751 -20.911151
10698 150 3 -29.321083 38.854664 -20.277208
10699 150 2 -28.835807 41.762896 -24.189585
10700 150 2 -32.668386 38.730165 -23.852130
10701 151 2 42.283625 30.786446 -32.888963
10702 151 3 42.215536 29.776386 -35.712992
10703 151 2 39.936104 32.593611 -32.416413
10704 151 2 44.826893 32.310943 -32.433231
10705 151 2 42.155964 28.464843 -30.993214
10706 152 2 -42.304979 28.633549 7.480578
10707 152 2 -41.098233 26.519089 5.727630
10708 152 2 -44.480868 30.053713 5.981031
10709 152 3 -40.186447 30.604145 8.273405
10710 152 2 -43.454368 27.357247 9.940244
10711 153 2 42.733119 42.096450 -4.905991
10712 153 2 41.679560 39.592625 -6.179125
10713 153 2 43.520230 41.520821 -2.068896
10714 153 2 40.604158 44.209760 -4.943984
10715 153 3 45.128530 43.062593 -6.431958
10716 154 2 5.522398 10.464812 11.793265
10717 154 3 3.925199 13.004291 11.791555
10718 154 2 8.142921 10.930707 10.409140
10719 154 2 3.996286 8.322651 10.350307
10720 154 2 6.025187 9.601600 14.622058
10721 155 2 41.180876 9.726746 -8.041418
10722 155 2 39.950276 7.010074 -7.716893
10723 155 3 41.529550 10.324387 -10.960537
10724 155 2 43.855127 9.781929 -6.682987
10725 155 2 39.388550 11.790596 -6.805257
10726 156 2 -28.949126 -4.718641 17.827235
10727 156 2 -25.974976 -5.015741 18.084460
10728 156 2 -30.178562 -4.563023 20.559317
10729 156 3 -30.067356 -7.084855 16.360747
10730 156 2 -29.575609 -2.210944 16.304417
10731 157 2 -29.521148 35.655889 -4.637376
10732 157 2 -29.714632 37.076404 -2.002096
10733 157 2 -30.509068 37.460318 -6.820963
10734 157 2 -31.198565 33.169906 -4.558893
10735 157 3 -26.662328 34.916929 -5.167552
10736 158 2 -33.932367 30.605063 25.091656
10737 158 2 -36.047332 28.610226 24.351688
10738 158 2 -33.139594 32.170938 22.658645
10739 158 3 -31.535711 29.164753 26.178647
10740 158 2 -35.006832 32.474333 27.177646
10741 159 2 -36.041801 -20.285909 44.223284
10742 159 3 -38.841131 -20.620975 43.197866
10743 159 2 -35.699183 -17.509277 45.306302
10744 159 2 -34.096281 -20.732928 41.983836
10745 159 2 -35.530608 -22.280457 46.405132
10746 160 2 32.690555 1.842099 -32.532376
10747 160 2 32.356361 4.680828 -31.621369
10748 160 2 34.834216 0.515690 -30.905920
10749 160 2 33.467478 1.806599 -35.429811
10750 160 3 30.104163 0.365279 -32.172403
10751 161 2 1.993308 -32.899383 9.292486
10752 161 2 0.190120 -30.552672 8.801102
10753 161 2 3.567468 -33.488528 6.807545
10754 161 2 0.340862 -35.294961 10.020925
10755 161 3 3.874784 -32.261370 11.540371
10756 162 2 2.802219 5.611131 30.360111
10757 162 3 0.131516 4.244878 30.386550
10758 162 2 4.207482 5.110327 32.962885
10759 162 2 2.412219 8.562033 29.985846
10760 162 2 4.457659 4.527284 28.105162
10761 163 2 -27.115426 4.932426 18.831134
10762 163 3 -24.605055 6.390488 18.074767
10763 163 2 -29.473207 6.264879 17.540616
10764 163 2 -27.443975 4.987192 21.812586
10765 163 2 -26.939467 2.087145 17.896568
10766 164 2 -39.785089 -29.033390 40.727803
10767 164 2 -38.418607 -31.092472 42.428658
10768 164 2 -39.222589 -26.297935 41.823651
10769 164 3 -42.744052 -29.527670 40.742857
10770 164 2 -38.755109 -29.215482 37.916045
10771 165 2 -40.722700 -5.895935 29.808664
10772 165 2 -43.031372 -7.767414 30.218057
10773 165 2 -40.599587 -5.075464 26.925668
10774 165 3 -38.169348 -7.277273 30.565170
10775 165 2 -41.090493 -3.463591 31.525763
10776 166 2 -24.622790 40.724781 -25.209904
10777 166 2 -24.792340 43.640666 -25.894641
10778 166 3 -24.098933 40.416266 -22.272151
10779 166 2 -22.388091 39.461334 -26.762265
10780 166 2 -27.211795 39.380856 -25.910559
10781 167 2 -43.844317 24.863474 22.650065
10782 167 3 -41.723100 26.975965 22.455594
10783 167 2 -44.447230 24.314530 25.537133
10784 167 2 -42.873684 22.347673 21.335296
10785 167 2 -46.333254 25.815728 21.272239
10786 168 2 -38.025628 34.503760 -11.759747
10787 168 3 -35.436969 36.019419 -11.800011
10788 168 2 -39.505649 34.984075 -14.324671
10789 168 2 -39.696604 35.439695 -9.450664
10790 168 2 -37.463291 31.571849 -11.463641
10791 169 2 -40.680019 -19.831413 29.273158
10792 169 2 -37.745450 -19.554411 28.714969
10793 169 3 -41.629830 -22.513809 28.323100
10794 169 2 -42.180597 -17.670838 27.830874
10795 169 2 -41.164200 -19.586592 32.223689
10796 170 2 -14.097424 -29.615426 18.659103
10797 170 2 -12.103768 -27.374895 18.732291
10798 170 2 -15.068117 -30.181519 21.440702
10799 170 2 -12.797847 -32.074016 17.533743
10800 170 3 -16.419964 -28.831273 16.929678
10801 171 2 -1.052142 20.989511 28.084553
10802 171 2 -2.571312 20.382351 25.569900
10803 171 3 1.259263 22.792167 27.445928
10804 171 2 -0.027746 18.433807 29.275767
10805 171 2 -2.868772 22.349719 30.046615
10806 172 2 10.092416 -8.764266 -20.696469
10807 172 2 8.278437 -11.153259 -20.743251
10808 172 2 8.469210 -6.285164 -20.228224
10809 172 2 11.521566 -8.542202 -23.324818
10810 172 3 12.100452 -9.076439 -18.489585
10811 173 2 -31.146841 -5.813684 43.306357
10812 173 3 -33.206077 -7.221151 44.973265
10813 173 2 -30.131593 -3.411473 44.789142
10814 173 2 -32.383235 -4.941082 40.716010
10815 173 2 -28.866458 -7.681031 42.747009
10816 174 2 -44.168561 14.558594 -3.504023
10817 174 3 -44.768061 15.019995 -0.600972
10818 174 2 -41.211201 14.214141 -3.871957
10819 174 2 -45.107832 16.914828 -5.105876
10820 174 2 -45.587149 12.085413 -4.437288
10821 175 2 -11.717661 17.151375 -23.371163
10822 175 2 -14.400456 15.920937 -23.908409
10823 175 2 -11.661310 19.944276 -24.465021
10824 175 2 -9.582754 15.514259 -24.698574
10825 175 3 -11.226125 17.226028 -20.412646
10826 176 2 33.848208 15.037491 21.820122
10827 176 2 33.240528 12.106161 22.015131
10828 176 3 33.384738 15.969824 19.006592
10829 176 2 36.712113 15.517343 22.573642
10830 176 2 32.055453 16.556635 23.685123
10831 177 2 -18.029450 -25.964675 -32.540334
10832 177 2 -17.637885 -22.997341 -32.744307
10833 177 2 -19.322952 -26.624544 -29.915182
10834 177 2 -15.368641 -27.338978 -32.717503
10835 177 3 -19.788320 -26.897838 -34.784344
10836 178 2 -37.809671 2.791922 26.743342
10837 178 2 -38.309978 -0.148585 26.422236
10838 178 3 -37.849703 3.500666 29.658145
10839 178 2 -39.948040 4.332488 25.310151
10840 178 2 -35.130964 3.483119 25.582835
10841 179 2 -15.979061 36.550274 -3.052920
10842 179 2 -18.478452 34.894933 -3.166469
10843 179 3 -14.966015 36.639394 -0.230546
10844 179 2 -16.581655 39.336555 -3.987543
10845 179 2 -13.890122 35.330215 -4.827121
10846 180 2 -22.656753 5.044647 38.671318
10847 180 2 -24.597167 3.186900 37.335815
10848 180 2 -20.538412 5.857731 36.708787
10849 180 3 -21.379774 3.650992 41.000921
10850 180 2 -24.111658 7.482965 39.639748
10851 181 2 8.282944 34.711664 26.363746
10852 181 2 6.928907 36.428050 28.418156
10853 181 2 11.247130 35.157815 26.484389
10854 181 3 7.273053 35.435482 23.633141
10855 181 2 7.682688 31.825307 26.919299
10856 182 2 25.714247 -18.374184 -16.127308
10857 182 3 23.277787 -17.788863 -14.477744
10858 182 2 27.154411 -15.811933 -16.727974
10859 182 2 24.890789 -19.684657 -18.697245
10860 182 2 27.534002 -20.211283 -14.606268
10861 183 2 -7.039697 -35.372299 -7.119053
10862 183 2 -6.901241 -32.564409 -8.166231
10863 183 2 -9.794116 -36.472667 -7.568908
10864 183 2 -6.428989 -35.375435 -4.181873
10865 183 3 -5.034443 -37.076685 -8.559199
10866 184 2 -32.061837 16.353324 31.125311
10867 184 3 -31.919309 19.134049 32.242115
10868 184 2 -31.335354 16.406049 28.215080
10869 184 2 -34.849459 15.290552 31.441027
10870 184 2 -30.143225 14.582646 32.603022
10871 185 2 -10.364930 -8.971890 4.465897
10872 185 2 -13.067926 -9.872920 3.526772
10873 185 2 -8.279804 -9.839167 2.491034
10874 185 3 -9.777443 -10.193980 7.141968
10875 185 2 -10.334545 -5.981494 4.703814
10876 186 2 28.606599 2.241567 5.820033
10877 186 3 25.893434 3.325022 6.501840
10878 186 2 29.063520 2.476822 2.864381
10879 186 2 28.763989 -0.642792 6.629788
10880 186 2 30.705453 3.807215 7.284122
10881 187 2 20.919072 -9.603983 -33.860099
10882 187 2 20.850105 -12.320731 -32.589460
10883 187 2 18.271033 -8.249461 -33.468747
10884 187 3 21.473814 -9.886384 -36.794807
10885 187 2 23.081338 -7.959355 -32.587382
10886 188 2 19.217750 -34.767212 35.943399
10887 188 2 21.343612 -36.750444 36.683333
10888 188 2 18.356033 -33.264403 38.392687
10889 188 2 16.862436 -36.214152 34.777697
10890 188 3 20.308918 -32.839851 33.919880
10891 189 2 -33.185798 -37.415306 29.970431
10892 189 2 -33.645433 -39.842634 31.672434
10893 189 2 -32.157024 -35.175239 31.680320
10894 189 2 -35.769106 -36.589336 28.688132
10895 189 3 -31.171628 -38.054016 27.840837
10896 190 2 42.381296 33.736512 25.917078
10897 190 2 39.538780 33.641051 26.871536
10898 190 2 44.167696 32.469626 27.967389
10899 190 2 43.201916 36.592299 25.503483
10900 190 3 42.616792 32.243071 23.325906
10901 191 2 0.901711 -19.499262 24.476495
10902 191 2 0.986095 -22.104747 22.991797
10903 191 2 3.699005 -18.612829 25.100501
10904 191 3 -0.628546 -19.853843 27.032387
10905 191 2 -0.449710 -17.425628 22.781294
10906 192 2 -9.431808 -42.293749 39.268025
10907 192 2 -11.906080 -43.935451 38.840479
10908 192 3 -8.201516 -41.629360 36.613789
10909 192 2 -7.469927 -43.852755 40.917426
10910 192 2 -10.149709 -39.757432 40.700405
10911 193 2 -43.816085 9.099201 35.157352
10912 193 2 -45.673942 10.119479 37.280415
10913 193 2 -44.599080 6.303216 34.402777
10914 193 3 -41.004311 9.102485 36.203257
10915 193 2 -43.987006 10.871625 32.742957
10916 194 2 -26.411619 12.645084 12.247231
10917 194 2 -25.898730 12.329297 9.308315
10918 194 2 -24.185385 11.360671 13.794540
10919 194 2 -29.011918 11.327373 12.955809
10920 194 3 -26.550443 15.562994 12.930260
10921 195 2 36.580533 -30.095107 19.473707
10922 195 3 36.899981 -29.620104 16.528826
10923 195 2 33.676818 -29.916627 20.206230
10924 195 2 38.124839 -28.020912 20.994507
10925 195 2 37.620492 -32.822786 20.165266
10926 196 2 23.320444 0.158895 23.657979
10927 196 2 22.810740 2.111187 21.437898
10928 196 2 25.822709 0.936642 25.118726
10929 196 3 23.645853 -2.594849 22.512987
10930 196 2 21.002475 0.182599 25.562305
10931 197 2 -43.158048 -25.053253 8.926101
10932 197 2 -43.356112 -27.347184 7.002914
10933 197 2 -43.097677 -22.471163 7.399940
10934 197 2 -40.645061 -25.318109 10.543119
10935 197 3 -45.533342 -25.076555 10.758432
10936 198 2 -8.885860 34.001584 27.814969
10937 198 3 -6.468163 35.767952 27.628728
10938 198 2 -10.023463 34.152520 30.586806
10939 198 2 -8.104416 31.169548 27.207584
10940 198 2 -10.947400 34.916317 25.836758
10941 199 2 -21.168453 -35.996803 13.620129
10942 199 2 -19.423214 -38.305815 14.409181
10943 199 2 -19.642110 -33.434152 13.941222
10944 199 2 -23.601989 -35.937721 15.373529
10945 199 3 -22.006499 -36.309523 10.756585
10946 200 2 38.476613 -24.630923 -11.488725
10947 200 2 37.785163 -21.713508 -11.385847
10948 200 2 38.501294 -25.751510 -8.705979
10949 200 3 41.186865 -24.973156 -12.728649
10950 200 2 36.433130 -26.085519 -13.134425
10951 201 2 42.467731 -27.648887 1.181914
10952 201 2 40.597373 -28.839639 -0.838945
10953 201 2 40.881611 -26.257499 3.314579
10954 201 2 44.274584 -25.672426 -0.170450
10955 201 3 44.117357 -29.825984 2.422471
10956 202 2 -19.039496 -27.161347 1.172278
10957 202 2 -20.510939 -27.242421 -1.440821
10958 202 3 -16.548351 -25.517954 0.866582
10959 202 2 -18.302522 -29.951520 1.991915
10960 202 2 -20.796175 -25.933495 3.271435
10961 203 2 44.108866 -22.536595 14.973735
10962 203 2 46.148660 -24.507961 15.949930
10963 203 3 44.327143 -22.264435 11.994090
10964 203 2 44.598803 -19.870954 16.259937
10965 203 2 41.360856 -23.503032 15.690983
10966 204 2 38.305584 -42.790562 30.297932
10967 204 3 38.596244 -44.920697 32.390309
10968 204 2 40.654726 -40.929531 30.432443
10969 204 2 35.778875 -41.248374 30.785169
10970 204 2 38.192491 -44.063646 27.583809
10971 205 2 34.794951 3.119596 21.897505
10972 205 2 35.558763 4.965554 24.135592
10973 205 2 34.978200 4.584783 19.286060
10974 205 3 31.983200 2.158224 22.309599
10975 205 2 36.659641 0.769824 21.858771
10976 206 2 2.533391 35.402590 25.133890
10977 206 2 4.973387 36.241467 23.603300
10978 206 2 0.113414 35.666107 23.380529
10979 206 3 2.215215 37.155650 27.547506
10980 206 2 2.831546 32.547135 26.004223
10981 207 2 -17.239015 27.816614 -23.294535
10982 207 2 -19.864055 26.962877 -22.119673
10983 207 3 -16.700277 30.676531 -22.566087
10984 207 2 -17.345342 27.548244 -26.280614
10985 207 2 -15.046386 26.078804 -22.211763
10986 208 2 41.040400 10.375367 8.769221
10987 208 2 41.580095 7.433451 8.537143
10988 208 2 41.420802 11.676034 6.092739
10989 208 2 42.940515 11.587492 10.749200
10990 208 3 38.220190 10.804490 9.697804
10991 209 2 -22.087966 -30.057862 19.756153
10992 209 2 -25.017507 -30.520967 20.207064
10993 209 2 -21.577960 -29.658128 16.826971
10994 209 2 -20.538637 -32.436959 20.725420
10995 209 3 -21.217759 -27.615395 21.265157
10996 210 2 -27.912503 18.496959 -4.828542
10997 210 2 -30.677295 17.335064 -4.751564
10998 210 2 -27.062824 18.868067 -7.681667
10999 210 3 -26.006226 16.634077 -3.451669
11000 210 2 -27.903667 21.150626 -3.429267
11001 211 2 25.751667 -2.533924 -7.476956
11002 211 3 27.125816 -5.123611 -8.113536
11003 211 2 23.857283 -1.835269 -9.695783
11004 211 2 27.798918 -0.360116 -7.188307
11005 211 2 24.224648 -2.816700 -4.910196
11006 212 2 7.711663 -10.740739 -43.699021
11007 212 2 7.983468 -8.416100 -45.575767
11008 212 2 9.200469 -10.156274 -41.160939
11009 212 3 8.851222 -13.201028 -44.982915
11010 212 2 4.811494 -11.189554 -43.076461
11011 213 2 -31.534064 -16.346594 29.912494
11012 213 2 -33.738927 -18.367584 30.145256
11013 213 3 -32.714438 -13.593612 29.745732
11014 213 2 -29.929135 -16.898043 27.438609
11015 213 2 -29.753755 -16.527135 32.320378
11016 214 2 -33.437514 36.727566 20.406735
11017 214 2 -30.482997 37.029504 19.982873
11018 214 2 -34.034418 36.759531 23.346579
11019 214 2 -34.356167 34.126270 19.228034
11020 214 3 -34.876475 38.994959 19.069454
11021 215 2 3.606469 -38.132166 -15.053208
11022 215 2 4.762674 -37.964151 -17.816351
11023 215 2 0.624253 -38.405001 -15.231952
11024 215 2 4.293178 -35.641330 -13.528686
11025 215 3 4.745770 -40.518181 -13.635843
11026 216 2 -29.295842 27.977654 -27.969019
11027 216 2 -31.219751 25.675798 -27.974959
11028 216 3 -28.620156 28.723500 -30.795175
11029 216 2 -26.792503 27.184896 -26.518216
11030 216 2 -30.550959 30.326421 -26.587725
11031 217 2 -44.169344 21.393440 31.184138
11032 217 3 -43.044919 18.829357 30.106571
11033 217 2 -42.493815 22.329167 33.490004
11034 217 2 -46.985018 20.937946 32.113925
11035 217 2 -44.153624 23.477288 29.026054
11036 218 2 17.548233 22.494612 24.375432
11037 218 3 20.075809 23.009904 25.907043
11038 218 2 17.706723 23.844527 21.700996
11039 218 2 15.210523 23.583480 25.908233
11040 218 2 17.199877 19.540535 23.985457
11041 219 2 36.596002 0.790128 16.059007
11042 219 2 35.829566 -2.059499 16.599566
11043 219 2 39.580324 0.997465 15.833546
11044 219 2 35.640173 2.527081 18.310537
11045 219 3 35.333945 1.695465 13.492380
11046 220 2 -43.412595 -42.230895 25.687286
11047 220 2 -45.882128 -40.758731 24.830467
11048 220 3 -41.045213 -40.396001 25.517980
11049 220 2 -42.979624 -44.590675 23.886183
11050 220 2 -43.743416 -43.178173 28.514515
11051 221 2 16.837997 38.187855 -31.651782
11052 221 2 19.687382 39.116547 -31.787935
11053 221 2 15.913642 38.211992 -28.797840
11054 221 2 16.641545 35.400271 -32.743012
11055 221 3 15.109420 40.022610 -33.278341
11056 222 2 -8.961325 37.462395 -38.983646
11057 222 3 -6.487731 39.102481 -38.546091
11058 222 2 -10.361927 37.046589 -36.363452
11059 222 2 -8.204763 34.802355 -40.146315
11060 222 2 -10.790877 38.898156 -40.878726
11061 223 2 43.134598 -8.485981 20.686665
11062 223 2 46.028326 -9.038264 21.253516
11063 223 2 42.895162 -5.974240 19.063757
11064 223 3 41.655182 -8.149198 23.274696
11065 223 2 41.959721 -10.782221 19.154691
11066 224 2 36.831627 30.757916 24.928982
11067 224 2 38.707721 32.109687 26.840261
11068 224 2 34.493497 29.643474 26.442641
11069 224 3 38.268190 28.529445 23.525343
11070 224 2 35.857100 32.749059 22.907683
11071 225 2 31.856863 42.879725 -11.164614
11072 225 3 33.702423 45.212864 -11.552386
11073 225 2 31.405514 42.438371 -8.231784
11074 225 2 33.085670 40.421840 -12.368289
11075 225 2 29.233845 43.445823 -12.505996
11076 226 2 36.891148 -2.820972 -32.404472
11077 226 2 39.083370 -2.829116 -30.356522
11078 226 2 37.742852 -4.432171 -34.787462
11079 226 3 36.327316 0.000270 -33.254579
11080 226 2 34.411056 -4.022873 -31.219323
11081 227 2 -40.617508 -41.747350 -33.171228
11082 227 2 -37.847636 -40.852854 -32.444806
11083 227 2 -40.661225 -42.640184 -36.034955
11084 227 3 -42.532826 -39.467532 -32.805190
11085 227 2 -41.428344 -44.028831 -31.399959
11086 228 2 42.675792 -26.129407 8.873529
11087 228 2 43.911760 -28.843460 9.199566
11088 228 2 41.412342 -25.925366 6.160217
11089 228 2 44.796153 -24.025223 9.150080
11090 228 3 40.582912 -25.723578 10.984254
11091 229 2 -14.395595 43.464868 31.960500
11092 229 2 -13.495002 46.323237 32.097081
11093 229 3 -12.079778 41.656701 32.566737
11094 229 2 -15.432278 42.873465 29.208132
11095 229 2 -16.575322 43.006068 33.970050
11096 230 2 37.774766 6.515489 -14.106140
11097 230 3 38.875801 9.287746 -14.425998
11098 230 2 37.891076 5.720639 -11.215693
11099 230 2 39.405873 4.597341 -15.737152
11100 230 2 34.926313 6.456228 -15.045717
11101 231 2 -44.116840 2.766372 8.377930
11102 231 2 -44.530684 4.009408 5.679117
11103 231 2 -43.283602 -0.096103 8.043342
11104 231 3 -46.676697 2.886960 9.937607
11105 231 2 -41.976378 4.265223 9.851655
11106 232 2 -5.125188 16.721892 34.567783
11107 232 3 -2.914453 17.402637 36.478080
11108 232 2 -7.729726 16.607817 36.052158
11109 232 2 -4.573679 14.054966 33.309473
11110 232 2 -5.282895 18.822149 32.431419
11111 233 2 23.799307 6.588994 -1.285499
11112 233 2 22.191273 4.625925 0.314684
11113 233 2 22.545613 9.307133 -1.085576
11114 233 3 23.861279 5.725140 -4.157765
11115 233 2 26.599064 6.697777 -0.213338
11116 234 2 -17.188048 -7.359796 -12.369426
11117 234 2 -15.540764 -8.802350 -10.318697
11118 234 2 -17.444432 -4.472704 -11.595496
11119 234 3 -19.914929 -8.601869 -12.515623
11120 234 2 -15.852068 -7.562260 -15.047890
11121 235 2 -6.566037 -22.119881 -28.827986
11122 235 2 -7.262334 -20.230320 -26.604311
11123 235 3 -4.615876 -24.167697 -27.826327
11124 235 2 -5.332061 -20.587570 -31.092788
11125 235 2 -9.053876 -23.493938 -29.788519
11126 236 2 3.930537 -31.861580 -40.131998
11127 236 2 1.444683 -32.068813 -38.465390
11128 236 3 6.183600 -33.278357 -38.747638
11129 236 2 4.645740 -28.972186 -40.506012
11130 236 2 3.448127 -33.126966 -42.808951
11131 237 2 -16.665940 -7.523069 -37.317601
11132 237 2 -14.797138 -5.239517 -37.858866
11133 237 2 -16.529148 -8.260241 -34.412801
11134 237 3 -15.869062 -9.884705 -38.987230
11135 237 2 -19.468412 -6.707813 -38.011508
11136 238 2 -30.391446 22.940009 29.889402
11137 238 2 -31.599049 20.757925 31.556797
11138 238 2 -29.098555 24.968855 31.681667
11139 238 3 -32.539618 24.263734 28.266716
11140 238 2 -28.328563 21.769521 28.052428
11141 239 2 30.093030 32.564634 1.255680
11142 239 2 31.576960 33.599656 -1.137368
11143 239 2 29.336659 34.860020 3.033068
11144 239 2 31.845992 30.660555 2.772786
11145 239 3 27.612510 31.138304 0.354235
11146 240 2 22.731984 -8.318579 29.121342
11147 240 2 21.024342 -9.654007 31.195128
11148 240 2 24.627563 -6.417293 30.459957
11149 240 3 20.983768 -6.806843 27.208649
11150 240 2 24.292265 -10.396173 27.621633
11151 241 2 17.312939 -19.415890 -20.351828
11152 241 2 17.652896 -16.487231 -19.797405
11153 241 3 17.691850 -20.965240 -17.810973
11154 241 2 19.349593 -20.294252 -22.371858
11155 241 2 14.557418 -19.916836 -21.427074
11156 242 2 -17.651800 28.811388 28.067738
11157 242 2 -15.424016 27.278369 26.768959
11158 242 2 -17.182886 28.941799 31.027993
11159 242 2 -20.261301 27.433126 27.528383
11160 242 3 -17.738999 31.592258 26.945616
11161 243 2 3.868177 -29.158567 16.133011
11162 243 2 5.917841 -27.067425 15.480323
11163 243 2 1.269218 -27.829665 16.825423
11164 243 3 4.811191 -30.788598 18.468332
11165 243 2 3.474457 -30.948580 13.757966
11166 244 2 -35.947220 26.527529 -37.929533
11167 244 2 -37.598083 28.985984 -37.449275
11168 244 3 -35.293935 25.232898 -35.303290
11169 244 2 -33.405113 27.287757 -39.329443
11170 244 2 -37.491747 24.603475 -39.636124
11171 245 2 -34.845351 17.086779 11.809784
11172 245 2 -37.562172 18.278513 12.255492
11173 245 2 -34.021196 17.515150 8.957195
11174 245 3 -34.935493 14.145542 12.393734
11175 245 2 -32.862543 18.407912 13.632716
11176 246 2 43.432431 9.012065 18.810471
11177 246 2 42.357815 8.384463 21.540181
11178 246 2 41.230808 10.118450 17.099106
11179 246 3 44.508774 6.506906 17.559207
11180 246 2 45.632327 11.038443 19.043391
11181 247 2 -19.054739 -29.309716 -38.892407
11182 247 2 -19.353101 -26.831968 -37.227551
11183 247 2 -18.670567 -28.542641 -41.767126
11184 247 3 -21.522486 -30.995090 -38.628329
11185 247 2 -16.672804 -30.869163 -37.946624
11186 248 2 37.693620 32.924678 -37.883358
11187 248 2 36.829274 34.857098 -35.757645
11188 248 2 40.228938 33.903650 -39.153705
11189 248 3 35.548746 32.707785 -39.969616
11190 248 2 38.167524 30.230179 -36.652468
11191 249 2 -21.345259 36.120570 -14.400201
11192 249 2 -19.718285 38.640196 -14.333572
11193 249 3 -22.882730 35.990729 -16.973006
11194 249 2 -23.258851 36.104466 -12.089810
11195 249 2 -19.521169 33.746888 -14.204416
11196 250 2 13.815492 18.519638 40.231254
11197 250 2 15.890600 20.232057 38.904020
11198 250 2 12.188324 17.116691 38.137438
11199 250 3 12.018957 20.242597 41.905731
11200 250 2 15.164088 16.487207 41.977826
11201 251 2 14.432093 39.477554 37.698821
11202 251 2 16.221534 41.691849 36.752883
11203 251 3 14.544237 39.310803 40.692083
11204 251 2 15.349095 36.876937 36.517337
11205 251 2 11.613506 40.030625 36.832981
11206 252 2 2.784129 -27.409577 25.311570
11207 252 2 4.631721 -29.443168 26.516109
11208 252 2 4.137552 -26.081828 22.986634
11209 252 3 2.086784 -25.346030 27.374452
11210 252 2 0.280460 -28.767282 24.369087
11211 253 2 34.054745 0.424741 9.589510
11212 253 3 36.515917 1.651479 10.788570
11213 253 2 33.803124 -2.418504 10.512897
11214 253 2 34.261125 0.489851 6.597325
11215 253 2 31.638813 1.976139 10.459246
11216 254 2 25.594803 29.060068 22.925760
11217 254 2 25.561392 31.598410 24.524418
11218 254 3 25.116822 29.693956 20.032713
11219 254 2 23.438067 27.225466 23.917085
11220 254 2 28.262931 27.722442 23.228825
11221 255 2 24.892125 37.524457 -39.970233
11222 255 2 22.207930 38.863048 -39.913041
11223 255 3 25.800502 36.984845 -37.162445
11224 255 2 26.873922 39.315608 -41.335611
11225 255 2 24.686146 34.934327 -41.469833
11226 256 2 -37.288835 -16.106948 -11.049020
11227 256 2 -34.950186 -17.918103 -10.548587
11228 256 3 -38.786346 -15.675886 -8.485498
11229 256 2 -39.111978 -17.363895 -13.072936
11230 256 2 -36.306832 -13.469906 -12.089060
11231 257 2 -27.358328 -40.523198 -21.070301
11232 257 2 -26.133893 -37.784951 -21.122874
11233 257 3 -27.949082 -41.408480 -23.875169
11234 257 2 -29.905751 -40.449294 -19.487526
11235 257 2 -25.444587 -42.450065 -19.795634
11236 258 2 21.655614 -5.682885 -20.936902
11237 258 3 23.412487 -7.997049 -21.683923
11238 258 2 20.713181 -4.298525 -23.425952
11239 258 2 23.209715 -3.752390 -19.246351
11240 258 2 19.287073 -6.683575 -19.391382
11241 259 2 -2.218769 -19.508930 -25.772679
11242 259 2 0.670383 -20.316769 -25.758650
11243 259 3 -3.175360 -19.167446 -22.949858
11244 259 2 -3.844723 -21.633935 -27.129377
11245 259 2 -2.525376 -16.917571 -27.252832
11246 260 2 39.092270 -42.553180 -36.962589
11247 260 2 37.913634 -41.249473 -34.531301
11248 260 2 38.030494 -45.347834 -37.212677
11249 260 3 42.079791 -42.638008 -36.702732
11250 260 2 38.345161 -40.977407 -39.403648
11251 261 2 -6.074790 19.253777 -26.375743
11252 261 3 -8.814190 18.037974 -26.243413
11253 261 2 -5.041968 19.696914 -23.594213
11254 261 2 -6.214669 21.879188 -27.820613
11255 261 2 -4.228334 17.401031 -27.844733
11256 262 2 -12.796272 -17.687989 20.522684
11257 262 2 -11.371695 -19.760940 18.887614
11258 262 2 -11.896917 -14.954304 19.675262
11259 262 3 -12.160822 -18.094361 23.426314
11260 262 2 -15.755654 -17.942351 20.101547
11261 263 2 -38.044033 -13.285979 5.326037
11262 263 3 -37.926061 -16.160441 4.475419
11263 263 2 -35.557631 -11.872371 4.420767
11264 263 2 -38.247925 -13.135265 8.315304
11265 263 2 -40.444515 -11.975840 4.092659
11266 264 2 -26.557025 -38.975054 37.736699
11267 264 3 -28.804869 -40.193725 36.167610
11268 264 2 -23.936573 -39.765262 36.508365
11269 264 2 -26.669131 -39.954629 40.570047
11270 264 2 -26.817527 -35.986602 37.700772
11271 265 2 -28.178606 -25.566080 -32.630414
11272 265 2 -28.396243 -27.362773 -30.237815
11273 265 2 -25.555151 -26.044289 -34.004749
11274 265 3 -28.338411 -22.702996 -31.748819
11275 265 2 -30.424620 -26.154263 -34.530273
11276 266 2 11.645386 32.113069 18.566615
11277 266 2 13.978773 30.239030 18.358563
11278 266 3 9.278685 30.923437 17.158247
11279 266 2 12.352506 34.735710 17.293142
11280 266 2 10.971582 32.554098 21.456508
11281 267 2 -36.245444 1.717274 -19.241398
11282 267 2 -38.291915 3.826676 -19.843379
11283 267 2 -36.587750 0.769359 -16.415750
11284 267 2 -33.495154 2.865309 -19.584796
11285 267 3 -36.606958 -0.592249 -21.121667
11286 268 2 -22.938496 9.910774 22.287518
11287 268 3 -23.434765 7.966285 24.517469
11288 268 2 -21.170971 8.637210 20.225023
11289 268 2 -21.596559 12.362138 23.378400
11290 268 2 -25.551689 10.677463 21.029182
11291 269 2 28.544135 39.223591 24.768346
11292 269 2 29.994547 36.654068 25.310431
11293 269 2 27.916457 40.585030 27.366904
11294 269 2 25.992221 38.641399 23.302471
11295 269 3 30.273314 41.013868 23.093578
11296 270 2 -19.411115 -35.163068 -34.528413
11297 270 2 -17.922504 -33.395244 -32.615604
11298 270 2 -21.782047 -36.366735 -33.139217
11299 270 2 -17.596368 -37.351300 -35.486711
11300 270 3 -20.343539 -33.538992 -36.872120
11301 271 2 -10.340936 -38.079411 -36.572318
11302 271 2 -7.426424 -38.708925 -36.241660
11303 271 2 -10.767175 -36.656208 -39.178621
11304 271 2 -11.247292 -36.324138 -34.314547
11305 271 3 -11.922853 -40.628376 -36.554447
11306 272 2 3.678219 -39.465301 39.756859
11307 272 2 2.093824 -40.069343 42.231698
11308 272 3 2.042742 -40.137887 37.333464
11309 272 2 6.191238 -41.103814 39.753580
11310 272 2 4.385072 -36.550162 39.708694
11311 273 2 26.189574 -36.722903 -10.125989
11312 273 2 27.007257 -38.539637 -7.883029
11313 273 2 25.153697 -38.363093 -12.414380
11314 273 3 28.560810 -35.124995 -11.033693
11315 273 2 24.036532 -34.863887 -9.172854
11316 274 2 -43.422121 5.961628 -32.090291
11317 274 2 -46.309806 5.716380 -31.314965
11318 274 2 -43.191382 6.023202 -35.080771
11319 274 2 -41.895713 3.612237 -31.017707
11320 274 3 -42.291584 8.494694 -30.947722
11321 275 2 -31.702231 -14.560521 4.525688
11322 275 2 -32.036871 -15.389374 7.389430
11323 275 3 -28.898787 -13.586459 4.087623
11324 275 2 -33.637067 -12.357861 3.889530
11325 275 2 -32.236201 -16.908391 2.736167
11326 276 2 7.287665 41.094527 -28.899544
11327 276 2 5.435637 43.454607 -28.895367
11328 276 2 7.558228 40.030761 -26.107556
11329 276 3 9.981851 41.939390 -29.913234
11330 276 2 6.174944 38.953351 -30.682019
11331 277 2 -5.671007 26.375430 1.990370
11332 277 2 -7.449706 28.692930 1.308149
11333 277 2 -5.039264 24.831744 -0.503209
11334 277 3 -7.069760 24.583739 3.948261
11335 277 2 -3.125300 27.393306 3.208279
11336 278 2 -9.178119 8.594935 29.006307
11337 278 3 -12.091083 7.984922 29.383830
11338 278 2 -8.411220 10.922031 30.737343
11339 278 2 -8.663524 9.275600 26.130218
11340 278 2 -7.546647 6.197186 29.773836
11341 279 2 29.624339 -17.503466 -10.936085
11342 279 3 29.093874 -14.577200 -10.541659
11343 279 2 31.290122 -17.894551 -13.400273
11344 279 2 27.019611 -18.958735 -11.248471
11345 279 2 31.093749 -18.583379 -8.553938
11346 280 2 34.705710 -43.626602 16.808010
11347 280 3 33.609452 -40.849505 16.514840
11348 280 2 36.443920 -43.762987 19.249326
11349 280 2 36.330343 -44.321480 14.383611
11350 280 2 32.439124 -45.572437 17.084263
11351 281 2 43.131000 42.076053 28.737256
11352 281 3 42.003972 40.769827 31.191555
11353 281 2 42.607561 40.337354 26.349174
11354 281 2 46.088580 42.450711 29.072449
11355 281 2 41.823888 44.746321 28.335847
11356 282 2 -38.911553 -5.087536 20.833644
11357 282 2 -41.292977 -3.263314 20.801525
11358 282 2 -38.121069 -5.650156 23.672410
11359 282 2 -36.626383 -3.774135 19.400823
11360 282 3 -39.605782 -7.662540 19.459817
11361 283 2 -28.934285 32.411188 39.357114
11362 283 2 -26.324767 33.841307 39.738131
11363 283 2 -31.199467 34.315614 39.849160
11364 283 2 -29.112785 30.124106 41.290349
11365 283 3 -29.100121 31.363724 36.550814
11366 284 2 -13.985362 1.473428 -0.407377
11367 284 2 -11.922082 3.401854 -1.419331
11368 284 3 -15.314946 0.120646 -2.731637
11369 284 2 -16.041282 2.958383 1.195153
11370 284 2 -12.663138 -0.587170 1.326307
11371 285 2 3.062144 1.422948 10.923380
11372 285 2 0.360433 2.500063 10.188140
11373 285 2 3.170685 0.928409 13.880346
11374 285 3 5.173195 3.414811 10.164466
11375 285 2 3.544265 -1.151491 9.460567
11376 286 2 -27.194443 35.355813 -30.796810
11377 286 2 -27.738343 35.482628 -33.744366
11378 286 3 -24.768383 37.000053 -30.155947
11379 286 2 -26.713001 32.506605 -29.990440
11380 286 2 -29.558046 36.433964 -29.296486
11381 287 2 -5.227050 17.494208 -17.336987
11382 287 2 -2.792786 18.945757 -16.353440
11383 287 2 -4.472437 14.702340 -18.134502
11384 287 2 -6.362986 18.939045 -19.708083
11385 287 3 -7.279991 17.389691 -15.151922
11386 288 2 -27.778073 27.920925 18.016548
11387 288 2 -29.766234 25.682911 17.820301
11388 288 2 -27.786221 29.492705 15.461271
11389 288 2 -25.040016 26.787946 18.484951
11390 288 3 -28.519823 29.720136 20.299670
11391 289 2 10.891104 37.599546 3.906781
11392 289 2 11.600396 39.990399 5.574332
11393 289 3 12.061914 37.911574 1.162360
11394 289 2 7.906705 37.373643 3.701036
11395 289 2 11.995401 35.122566 5.189395
11396 290 2 29.564455 38.477044 -27.959117
11397 290 3 28.416415 40.159071 -25.756212
11398 290 2 27.613792 36.317779 -28.688834
11399 290 2 32.132614 37.233354 -27.032944
11400 290 2 30.095000 40.197972 -30.358477
11401 291 2 13.719073 -34.309017 -41.841904
11402 291 2 15.295198 -31.767933 -42.084235
11403 291 2 11.655899 -34.004264 -39.685417
11404 291 3 15.565803 -36.568782 -41.146887
11405 291 2 12.359393 -34.895088 -44.451078
11406 292 2 -15.285642 4.028789 37.562377
11407 292 3 -15.202252 1.127669 36.803067
11408 292 2 -15.131780 4.286034 40.547364
11409 292 2 -17.847752 5.245143 36.584587
11410 292 2 -12.960784 5.456308 36.314489
11411 293 2 40.465434 -1.209380 -22.625871
11412 293 2 39.610791 1.007588 -24.457437
11413 293 2 39.331269 -0.738491 -19.888731
11414 293 3 43.460535 -1.278353 -22.468985
11415 293 2 39.459142 -3.828265 -23.688329
11416 294 2 1.751898 14.080063 44.419782
11417 294 2 0.654882 16.854690 44.732826
11418 294 2 -0.513246 12.116627 44.301278
11419 294 2 3.515493 13.432242 46.758598
11420 294 3 3.350463 13.916691 41.886425
11421 295 2 -13.183764 -28.197046 -43.315939
11422 295 3 -11.661068 -29.402718 -45.602367
11423 295 2 -14.954228 -26.002423 -44.340190
11424 295 2 -11.254865 -27.072728 -41.312128
11425 295 2 -14.864895 -30.310312 -42.009072
11426 296 2 -17.521547 -12.863042 27.761002
11427 296 2 -15.516260 -11.640184 29.627400
11428 296 2 -16.132311 -13.791799 25.269529
11429 296 2 -19.597922 -10.819342 27.045491
11430 296 3 -18.839695 -15.200844 29.101587
11431 297 2 32.551987 29.454912 41.285364
11432 297 3 29.945663 30.917430 41.546356
11433 297 2 33.999656 29.514733 43.912278
11434 297 2 34.235871 30.779252 39.185208
11435 297 2 32.026757 26.608232 40.497615
11436 298 2 35.572061 -22.001504 4.541919
11437 298 2 38.371490 -23.077427 4.616666
11438 298 3 35.652618 -19.033384 4.113232
11439 298 2 34.201170 -22.599431 7.142522
11440 298 2 34.062967 -23.295774 2.295254
11441 299 2 -0.179915 -19.355008 13.253952
11442 299 3 -1.307308 -21.916642 12.173666
11443 299 2 -1.209349 -17.048296 11.635512
11444 299 2 2.814653 -19.433237 13.091348
11445 299 2 -1.017658 -19.021856 16.115280
11446 300 2 44.496731 41.950900 -13.141694
11447 300 2 43.116849 39.306437 -12.821163
11448 300 2 46.894584 41.619350 -14.913805
11449 300 2 45.371238 42.954878 -10.453336
11450 300 3 42.604255 43.922934 -14.378470
11451 301 2 25.518730 -12.866307 -8.614021
11452 301 2 25.232345 -13.180407 -5.644286
11453 301 3 22.801874 -12.867146 -9.886300
11454 301 2 27.136432 -15.143149 -9.709025
11455 301 2 26.904270 -10.274525 -9.216473
11456 302 2 34.849215 13.763838 -6.160647
11457 302 2 35.167570 12.624710 -8.917645
11458 302 3 31.951208 14.345336 -5.647406
11459 302 2 36.433068 16.301943 -5.938303
11460 302 2 35.845014 11.783365 -4.139234
11461 303 2 -16.688653 42.384655 -42.028901
11462 303 2 -19.103339 41.822183 -40.339843
11463 303 2 -14.416953 43.247980 -40.269909
11464 303 3 -17.323718 44.568007 -43.985854
11465 303 2 -15.910601 39.900451 -43.519996
11466 304 2 -9.001783 34.172836 5.298465
11467 304 3 -8.213410 31.869012 3.546078
11468 304 2 -9.057930 36.693009 3.671941
11469 304 2 -7.011283 34.463236 7.524129
11470 304 2 -11.724507 33.666089 6.451712
11471 305 2 -3.723360 -30.444189 22.384400
11472 305 3 -6.696120 -30.373852 21.987220
11473 305 2 -2.650648 -33.082434 21.441558
11474 305 2 -3.094971 -30.092338 25.296673
11475 305 2 -2.451702 -28.228130 20.812151
11476 306 2 -9.396776 1.739856 2.710549
11477 306 2 -10.437122 -1.047175 3.098028
11478 306 3 -6.874701 2.095216 4.295749
11479 306 2 -11.452756 3.713870 3.646613
11480 306 2 -8.822523 2.197512 -0.198194
11481 307 2 15.388089 -33.087779 -33.627532
11482 307 3 14.460546 -35.895133 -33.119170
11483 307 2 15.476641 -31.579130 -31.035981
11484 307 2 13.485961 -31.731523 -35.509679
11485 307 2 18.129208 -33.145332 -34.845299
11486 308 2 1.185534 -29.571165 41.838458
11487 308 2 3.852340 -30.119929 40.578694
11488 308 2 0.402374 -26.721836 41.320785
11489 308 2 1.361912 -30.038116 44.796641
11490 308 3 -0.874490 -31.404778 40.657711
11491 309 2 37.539627 3.821925 -6.498901
11492 309 2 35.025990 2.267812 -5.982799
11493 309 2 39.811117 2.582426 -4.981016
11494 309 2 37.164394 6.658565 -5.597417
11495 309 3 38.157007 3.778896 -9.434372
11496 310 2 -42.776060 -40.871829 43.118452
11497 310 3 -40.840988 -38.818394 42.099188
11498 310 2 -42.736987 -40.880637 46.118185
11499 310 2 -41.987554 -43.581311 42.100137
11500 310 2 -45.538709 -40.206975 42.156299
11501 311 2 29.456323 36.145170 -9.946874
11502 311 3 30.371873 35.417857 -7.184125
11503 311 2 26.523710 36.775319 -9.895017
11504 311 2 29.951400 33.841178 -11.803355
11505 311 2 30.978311 38.546325 -10.905001
11506 312 2 1.538048 39.856505 -27.638822
11507 312 2 3.879044 40.948447 -29.164405
11508 312 2 2.061249 40.100476 -24.694889
11509 312 2 1.141371 36.968660 -28.348046
11510 312 3 -0.929470 41.408437 -28.347947
11511 313 2 29.722408 -30.870837 13.481695
11512 313 2 28.260873 -33.379542 14.236886
11513 313 3 27.739667 -28.724296 12.802652
11514 313 2 31.468354 -31.408496 11.102074
11515 313 2 31.420739 -29.971013 15.785169
11516 314 2 22.880277 38.339924 7.693367
11517 314 2 24.052091 37.200889 5.177527
11518 314 3 20.312968 39.752576 7.050453
11519 314 2 24.815376 40.285132 8.906446
11520 314 2 22.340675 36.121101 9.639042
11521 315 2 12.845447 -20.176076 37.499911
11522 315 2 10.348408 -21.772031 37.033303
11523 315 2 14.002776 -19.336045 34.862689
11524 315 2 14.843454 -21.854999 38.979499
11525 315 3 12.187150 -17.741227 39.124151
11526 316 2 -28.359344 3.056740 -43.296118
11527 316 3 -26.503832 1.835173 -41.279972
11528 316 2 -27.721728 1.980640 -46.022921
11529 316 2 -28.018036 6.037259 -43.292346
11530 316 2 -31.193780 2.373889 -42.589234
11531 317 2 20.898341 -25.513365 -43.813718
11532 317 3 21.256166 -27.877279 -45.625864
11533 317 2 23.520165 -24.838071 -42.521428
11534 317 2 18.879914 -26.174076 -41.694894
11535 317 2 19.937117 -23.164035 -45.412685
11536 318 2 35.991731 42.356568 -15.613261
11537 318 2 35.647874 39.465698 -16.337578
11538 318 2 36.256479 42.616949 -12.636332
11539 318 2 33.601415 43.911955 -16.544476
11540 318 3 38.461156 43.431671 -16.934660
11541 319 2 -31.473733 -2.377128 -31.456307
11542 319 2 -30.128889 -5.058776 -31.443782
11543 319 2 -31.933341 -1.502136 -34.288823
11544 319 3 -29.726792 -0.375814 -30.062414
11545 319 2 -34.105909 -2.571786 -30.030209
11546 320 2 -16.278644 2.828372 23.519014
11547 320 2 -13.299906 2.905409 23.170899
11548 320 2 -17.607312 3.542017 20.925685
11549 320 3 -17.089636 4.796523 25.632938
11550 320 2 -17.117723 0.069540 24.346534
11551 321 2 -25.207315 -36.503742 6.224965
11552 321 3 -23.143438 -34.444111 6.930892
11553 321 2 -24.747427 -38.979866 7.855093
11554 321 2 -24.995389 -37.172992 3.308256
11555 321 2 -27.943005 -35.418000 6.805621
11556 322 2 -28.507197 42.499568 26.976785
11557 322 2 -28.012770 43.633358 24.243644
11558 322 2 -26.587887 43.724906 28.929935
11559 322 3 -28.108027 39.526917 26.913488
11560 322 2 -31.320106 43.113092 27.820074
11561 323 2 -41.543309 7.337384 15.484710
11562 323 2 -42.846199 8.997438 13.352411
11563 323 2 -39.566445 5.464668 14.225764
11564 323 2 -43.636337 5.753367 16.937336
11565 323 3 -40.124254 9.134061 17.423326
11566 324 2 -13.349477 30.017748 -15.435839
11567 324 3 -11.871323 31.154108 -13.085574
11568 324 2 -11.430064 28.538176 -17.204092
11569 324 2 -14.624481 32.246131 -16.987831
11570 324 2 -15.472041 28.132579 -14.465860
11571 325 2 14.746555 -42.957361 -1.819037
11572 325 2 17.123658 -44.734948 -1.383641
11573 325 2 14.507570 -41.029349 0.466933
11574 325 3 12.262135 -44.631268 -1.979331
11575 325 2 15.092858 -41.433880 -4.380107
11576 326 2 34.772105 -38.106147 -24.936539
11577 326 3 32.841433 -40.318763 -24.322669
11578 326 2 35.899803 -37.023856 -22.375885
11579 326 2 33.346242 -35.913999 -26.406710
11580 326 2 37.000943 -39.167969 -26.640890
11581 327 2 -19.940424 34.119912 21.629802
11582 327 3 -19.061915 31.553787 20.347919
11583 327 2 -21.855907 33.519526 23.859255
11584 327 2 -21.295634 35.846592 19.584813
11585 327 2 -17.548238 35.559744 22.727224
11586 328 2 -21.511268 7.986269 11.050078
11587 328 3 -20.732769 6.093960 8.856198
11588 328 2 -24.332240 8.911407 10.618527
11589 328 2 -19.668385 10.353412 11.029711
11590 328 2 -21.311678 6.586297 13.695875
11591 329 2 15.195012 41.665954 -19.450024
11592 329 2 17.024326 39.288500 -19.413650
11593 329 2 12.547997 40.873209 -20.618298
11594 329 3 16.413987 43.840199 -21.119382
11595 329 2 14.793738 42.661908 -16.648764
11596 330 2 27.942433 16.937324 -1.272136
11597 330 2 30.881730 17.537366 -1.294036
11598 330 3 26.981347 16.749031 1.563505
11599 330 2 27.443318 14.331478 -2.672297
11600 330 2 26.463335 19.131421 -2.685716
11601 331 2 -23.377457 -2.831868 -5.870168
11602 331 3 -21.895784 -0.300192 -5.241467
11603 331 2 -23.701826 -3.089142 -8.841463
11604 331 2 -26.080933 -2.757049 -4.571853
11605 331 2 -21.831286 -5.181087 -4.825888
11606 332 2 13.665780 -20.276955 -26.816344
11607 332 2 14.022997 -22.706971 -25.093724
11608 332 2 15.719557 -20.290648 -29.003080
11609 332 2 14.001056 -17.808309 -25.145004
11610 332 3 10.919512 -20.301893 -28.023567
11611 333 2 -5.743708 3.083576 -17.461898
11612 333 2 -7.210038 5.446783 -18.586679
11613 333 2 -7.718707 0.982288 -16.634875
11614 333 2 -4.141130 3.943965 -15.076218
11615 333 3 -3.904959 1.961269 -19.549822
11616 334 2 -7.915093 29.184327 -21.215300
11617 334 3 -9.595243 26.761789 -21.770642
11618 334 2 -6.734280 30.192219 -23.782367
11619 334 2 -5.708627 28.457277 -19.317167
11620 334 2 -9.622221 31.326023 -19.991023
11621 335 2 -7.865576 42.168025 -2.302072
11622 335 2 -8.901480 42.799895 0.441583
11623 335 2 -4.984276 41.352612 -2.119839
11624 335 2 -8.109207 44.596353 -4.046740
11625 335 3 -9.467343 39.923239 -3.483293
11626 336 2 -4.104609 -39.121845 12.092110
11627 336 2 -4.419737 -36.139314 12.019979
11628 336 3 -3.800982 -40.163266 9.295102
11629 336 2 -6.528719 -40.353165 13.359999
11630 336 2 -1.668999 -39.831636 13.693360
11631 337 2 -43.820431 -7.967512 1.479208
11632 337 2 -41.072630 -7.139164 2.352952
11633 337 3 -45.871403 -6.487700 3.092797
11634 337 2 -44.156248 -10.918839 1.899797
11635 337 2 -44.181442 -7.324346 -1.428714
11636 338 2 43.927971 -30.289482 -19.994001
11637 338 2 46.251657 -31.559753 -18.584427
11638 338 3 42.783541 -28.113551 -18.274815
11639 338 2 41.822520 -32.361205 -20.518444
11640 338 2 44.854167 -29.123421 -22.598317
11641 339 2 42.843756 12.874603 25.127745
11642 339 3 40.577245 10.998891 24.540690
11643 339 2 44.974779 11.419941 26.658333
11644 339 2 41.836212 15.180090 26.761631
11645 339 2 43.986789 13.899490 22.550327
11646 340 2 -8.570268 -6.086058 -20.867312
11647 340 2 -9.937951 -5.956486 -23.534269
11648 340 3 -5.609594 -5.784511 -21.246093
11649 340 2 -9.148777 -8.730541 -19.574241
11650 340 2 -9.584753 -3.872692 -19.114647
11651 341 2 -6.074018 -30.009792 -13.106170
11652 341 3 -3.363708 -29.393715 -11.977158
11653 341 2 -7.791363 -27.553144 -12.981233
11654 341 2 -7.348946 -32.203617 -11.505642
11655 341 2 -5.792056 -30.888691 -15.960646
11656 342 2 36.501687 26.095922 -5.308665
11657 342 2 34.279786 27.876177 -4.363229
11658 342 2 37.024651 23.972712 -3.254769
11659 342 2 38.986159 27.727513 -5.715248
11660 342 3 35.716152 24.807286 -7.901415
11661 343 2 -22.948213 9.621591 -17.934613
11662 343 2 -20.336371 9.322403 -16.489357
11663 343 2 -22.608834 8.787661 -20.796323
11664 343 3 -23.828739 12.487396 -17.825836
11665 343 2 -25.018907 7.888903 -16.626937
11666 344 2 -20.068418 42.443568 -32.369469
11667 344 2 -19.537360 39.606054 -33.185858
11668 344 2 -18.172079 44.269629 -33.808010
11669 344 3 -19.673429 42.722915 -29.408735
11670 344 2 -22.890803 43.175674 -33.075274
11671 345 2 -0.111730 -35.635298 5.326870
11672 345 2 1.502772 -35.715197 7.854121
11673 345 2 -3.012470 -36.033693 5.980314
11674 345 2 0.806968 -37.816949 3.483939
11675 345 3 0.255810 -32.975355 3.989105
11676 346 2 -35.587579 -0.215550 42.264589
11677 346 2 -35.395991 -3.209418 42.271428
11678 346 2 -37.988927 0.636445 43.848139
11679 346 2 -35.852972 0.763065 39.441137
11680 346 3 -33.112425 0.947708 43.497652
11681 347 2 7.474108 -43.938351 4.506401
11682 347 3 8.924545 -41.803720 2.976832
11683 347 2 9.463408 -45.842506 5.696728
11684 347 2 5.646960 -45.430359 2.652905
11685 347 2 5.861518 -42.676821 6.699138
11686 348 2 -32.459642 9.091885 19.244417
11687 348 2 -33.815304 11.353302 17.813272
11688 348 2 -33.418629 8.988142 22.085118
11689 348 3 -29.490727 9.520937 19.206279
11690 348 2 -33.113909 6.505160 17.872999
11691 349 2 25.443613 35.203245 -16.964194
11692 349 2 27.780364 36.991226 -16.378776
11693 349 2 23.908867 34.703211 -14.435455
11694 349 3 26.432312 32.594114 -18.066424
11695 349 2 23.652908 36.524427 -18.976122
11696 350 2 -33.853478 -16.575118 -42.697497
11697 350 2 -35.429141 -16.482048 -45.248697
11698 350 3 -30.921764 -16.603677 -43.333296
11699 350 2 -34.569618 -19.055684 -41.169773
11700 350 2 -34.493389 -14.159064 -41.038220
11701 351 2 41.095418 41.419831 17.529832
11702 351 2 42.343477 39.052166 18.885012
11703 351 2 39.623757 43.071150 19.556494
11704 351 3 39.176018 40.472108 15.427994
11705 351 2 43.238422 43.083900 16.249829
11706 352 2 1.998542 2.326975 35.383614
11707 352 2 2.559258 4.945031 36.736900
11708 352 3 2.246514 0.098018 37.376166
11709 352 2 3.970868 1.906775 33.162497
11710 352 2 -0.782472 2.358078 34.258895
11711 353 2 -24.633759 12.151356 35.756486
11712 353 2 -26.793398 14.198800 35.377103
11713 353 3 -23.866725 11.001787 33.093753
11714 353 2 -25.637155 9.958375 37.540872
11715 353 2 -22.237760 13.446461 37.014217
11716 354 2 31.623406 29.593793 -12.531255
11717 354 2 33.200373 32.125347 -12.854378
11718 354 2 31.158491 29.070706 -9.614025
11719 354 2 33.150490 27.304910 -13.726677
11720 354 3 28.984269 29.874207 -13.929943
11721 355 2 18.923592 -18.513873 -10.544045
11722 355 3 17.160759 -20.858673 -9.916084
11723 355 2 21.263891 -19.432280 -12.180972
11724 355 2 19.909356 -17.291037 -7.988084
11725 355 2 17.360361 -16.473503 -12.091041
11726 356 2 -43.454597 10.967279 8.880363
11727 356 2 -45.564397 13.083000 9.149560
11728 356 2 -42.776996 9.879881 11.593004
11729 356 2 -40.997233 12.157901 7.637872
11730 356 3 -44.479760 8.748336 7.141015
11731 357 2 43.820727 11.455041 -16.176006
11732 357 2 46.588937 12.611052 -16.150462
11733 357 2 42.279412 12.601695 -18.480249
11734 357 2 42.429872 12.133695 -13.605996
11735 357 3 43.984687 8.473724 -16.467318
11736 358 2 27.704348 0.038333 11.766360
11737 358 2 25.034748 0.937313 10.734339
11738 358 2 27.435715 -2.684850 12.996040
11739 358 3 28.681295 1.978114 13.835859
11740 358 2 29.665635 -0.077246 9.499205
11741 359 2 0.137196 -10.018258 43.101403
11742 359 2 -0.640980 -7.144200 42.735028
11743 359 2 -1.528773 -11.742963 41.298645
11744 359 3 -0.318835 -10.821708 45.955611
11745 359 2 3.037373 -10.364162 42.416329
11746 360 2 -24.190173 -21.942144 -28.224896
11747 360 2 -21.385508 -21.613999 -27.211894
11748 360 2 -25.781689 -19.483131 -27.576569
11749 360 3 -25.454419 -24.326038 -26.913891
11750 360 2 -24.139077 -22.345410 -31.197229
11751 361 2 42.215413 26.123711 41.345322
11752 361 2 44.246953 28.315317 41.081292
11753 361 2 41.678977 24.927050 38.647130
11754 361 2 39.669610 27.249493 42.464027
11755 361 3 43.266113 24.002985 43.188838
11756 362 2 -26.102026 -41.322681 -43.037416
11757 362 2 -25.925801 -44.317495 -43.043475
11758 362 2 -26.160475 -40.330115 -40.206976
11759 362 3 -28.606173 -40.465445 -44.449646
11760 362 2 -23.715653 -40.177671 -44.449570
11761 363 2 -41.930984 -33.327993 -43.382144
11762 363 2 -44.265327 -34.430752 -44.910138
11763 363 2 -42.395822 -33.698057 -40.441569
11764 363 3 -41.630727 -30.404990 -43.987036
11765 363 2 -39.432061 -34.778174 -44.189832
11766 364 2 -2.116231 -36.971072 -30.773350
11767 364 2 -2.592880 -38.201855 -28.079286
11768 364 2 -1.478516 -39.127396 -32.759197
11769 364 3 0.185793 -35.054809 -30.604178
11770 364 2 -4.579321 -35.500230 -31.650740
11771 365 2 -7.195201 -0.264351 27.015734
11772 365 2 -8.013095 1.486022 24.720686
11773 365 2 -6.116969 1.438807 29.237596
11774 365 3 -5.074305 -2.180874 26.105383
11775 365 2 -9.576433 -1.801357 27.999271
11776 366 2 33.912707 -11.113244 10.373228
11777 366 2 33.448403 -14.072374 10.205975
11778 366 2 36.713277 -10.592033 11.314050
11779 366 3 31.966063 -9.903400 12.308907
11780 366 2 33.523085 -9.885169 7.663980
11781 367 2 0.716456 -29.492308 -31.277355
11782 367 3 0.662823 -26.517597 -31.662350
11783 367 2 2.383023 -30.749600 -33.431832
11784 367 2 -2.079848 -30.569593 -31.419277
11785 367 2 1.899825 -30.132441 -28.595962
11786 368 2 20.034524 -1.418187 16.790421
11787 368 2 19.149066 1.446754 16.880286
11788 368 2 20.367077 -2.272952 13.934062
11789 368 3 17.970837 -3.144762 18.117121
11790 368 2 22.651119 -1.701789 18.230214
11791 369 2 -17.429617 26.220813 37.095761
11792 369 2 -19.771184 25.010802 38.528569
11793 369 2 -18.157055 26.710626 34.226803
11794 369 3 -15.095582 24.340755 37.228652
11795 369 2 -16.694648 28.821070 38.399020
11796 370 2 16.001195 30.503062 -3.450128
11797 370 2 17.332160 32.983937 -4.486367
11798 370 2 15.957900 28.416770 -5.605474
11799 370 3 13.189687 31.146841 -2.624918
11800 370 2 17.525032 29.464700 -1.083755
11801 371 2 24.792192 -21.522355 34.966168
11802 371 3 26.507724 -21.159042 32.532045
11803 371 2 22.293766 -23.004256 34.216607
11804 371 2 24.063737 -18.836285 36.086159
11805 371 2 26.303540 -23.089838 37.029859
11806 372 2 20.119777 -10.296398 -2.837787
11807 372 2 20.695861 -9.810911 0.066078
11808 372 2 19.932406 -7.668673 -4.273041
11809 372 2 17.521520 -11.771387 -3.108838
11810 372 3 22.329320 -11.934620 -4.035345
11811 373 2 -33.572197 24.137464 -16.343058
11812 373 2 -33.956972 25.657119 -13.785208
11813 373 2 -33.306880 21.211222 -15.737485
11814 373 2 -31.086110 25.103927 -17.716128
11815 373 3 -35.938825 24.577586 -18.133411
11816 374 2 17.563189 5.334731 16.306301
11817 374 2 15.138077 3.690689 15.661352
11818 374 3 17.561733 7.820523 14.626767
11819 374 2 20.036377 3.738337 15.727625
11820 374 2 17.516570 6.089376 19.209461
11821 375 2 16.170611 40.603346 -8.990216
11822 375 2 15.669941 40.432054 -6.037253
11823 375 2 15.869002 43.448585 -9.892239
11824 375 2 14.190937 38.878896 -10.441825
11825 375 3 18.952563 39.653847 -9.589547
11826 376 2 11.636854 37.288451 22.708597
11827 376 2 12.869216 34.555655 22.823080
11828 376 2 11.257158 38.331756 25.495592
11829 376 2 8.977407 37.129168 21.329477
11830 376 3 13.443635 39.137225 21.186238
11831 377 2 42.813927 3.153953 -35.488056
11832 377 2 44.723301 5.453893 -35.742152
11833 377 2 42.425347 1.875421 -38.174013
11834 377 3 40.176445 4.152221 -34.464751
11835 377 2 43.930613 1.134277 -33.571309
11836 378 2 -7.254601 -24.223604 -35.712533
11837 378 3 -7.673095 -24.891141 -32.817839
11838 378 2 -5.209857 -22.041262 -35.950034
11839 378 2 -9.845581 -23.301057 -36.910751
11840 378 2 -6.289870 -26.660956 -37.171509
11841 379 2 -4.395474 -9.515227 43.964711
11842 379 2 -3.167565 -11.531853 42.113911
11843 379 3 -2.568117 -9.057782 46.299558
11844 379 2 -7.037934 -10.539582 44.948632
11845 379 2 -4.808280 -6.931690 42.496743
11846 380 2 -22.538861 6.789302 -33.645313
11847 380 2 -25.530757 7.007536 -33.675821
11848 380 2 -21.511537 6.732816 -36.463365
11849 380 3 -21.734606 4.265467 -32.236968
11850 380 2 -21.378542 9.151386 -32.205098
11851 381 2 -42.168905 0.590478 -14.813621
11852 381 3 -39.897292 -1.365083 -14.938330
11853 381 2 -41.733865 2.759161 -16.840331
11854 381 2 -42.300036 1.797288 -12.070190
11855 381 2 -44.744428 -0.829453 -15.405633
11856 382 2 -17.319582 42.400177 39.484861
11857 382 3 -17.645890 40.780385 41.988818
11858 382 2 -18.662132 40.992359 37.201092
11859 382 2 -14.399662 42.728422 38.879613
11860 382 2 -18.570642 45.099543 39.869924
11861 383 2 34.399243 44.412604 24.510583
11862 383 2 35.684028 42.811387 26.698145
11863 383 2 33.547462 47.078588 25.590861
11864 383 3 31.999847 42.941667 23.471718
11865 383 2 36.365634 44.818776 22.281608
11866 384 2 41.119982 -34.694798 -6.357811
11867 384 3 41.287105 -35.442435 -9.258347
11868 384 2 40.228084 -37.073317 -4.761827
11869 384 2 39.146354 -32.461920 -6.012778
11870 384 2 43.818386 -33.801521 -5.398292
11871 385 2 -40.045201 18.131340 -30.092189
11872 385 2 -39.001122 15.320164 -30.007417
11873 385 2 -38.661387 19.775583 -27.998981
11874 385 3 -42.998059 18.117778 -29.562617
11875 385 2 -39.520237 19.311834 -32.799743
11876 386 2 27.808484 6.758342 34.331524
11877 386 3 26.644376 9.174453 35.675868
11878 386 2 29.988879 5.613828 36.044989
11879 386 2 28.939595 7.544517 31.666469
11880 386 2 25.661086 4.700570 33.938769
11881 387 2 -8.895425 -23.988130 -7.610959
11882 387 2 -11.328934 -25.570891 -8.367861
11883 387 2 -7.357041 -23.274544 -10.085665
11884 387 2 -7.161242 -25.628143 -5.793553
11885 387 3 -9.734481 -21.478943 -6.196759
11886 388 2 -29.748861 4.204440 0.558630
11887 388 2 -29.955548 1.540008 1.921745
11888 388 2 -30.459786 6.378574 2.499693
11889 388 2 -31.638550 4.285656 -1.769992
11890 388 3 -26.941559 4.613522 -0.416926
11891 389 2 -41.131835 -14.389655 -32.978715
11892 389 2 -43.656406 -15.022448 -31.486697
11893 389 3 -41.039694 -15.992174 -35.513167
11894 389 2 -38.762430 -15.079373 -31.272782
11895 389 2 -41.068811 -11.464626 -33.642214
11896 390 2 14.515249 -8.455829 -35.321677
11897 390 3 14.048436 -5.600539 -34.528327
11898 390 2 15.168293 -8.586991 -38.246798
11899 390 2 12.041139 -10.062515 -34.776389
11900 390 2 16.803130 -9.573272 -33.735195
11901 391 2 22.309100 -4.885508 -27.995177
11902 391 2 20.020337 -2.946036 -27.998676
11903 391 2 23.077256 -5.530922 -30.822434
11904 391 3 21.485836 -7.401306 -26.583442
11905 391 2 24.652972 -3.663767 -26.576159
11906 392 2 31.400770 -2.813018 27.879178
11907 392 2 29.661008 -0.455593 28.523984
11908 392 3 30.484683 -4.058455 25.308250
11909 392 2 31.210927 -4.830719 30.091155
11910 392 2 34.246463 -1.907304 27.593323
11911 393 2 -43.868639 12.963508 -24.830495
11912 393 2 -43.366562 12.165920 -21.982377
11913 393 2 -45.468696 15.500459 -24.891309
11914 393 2 -45.391479 10.787105 -26.224851
11915 393 3 -41.247819 13.400548 -26.223441
11916 394 2 26.843648 22.844493 -6.303888
11917 394 2 24.784025 22.241045 -8.400028
11918 394 2 26.249034 21.254136 -3.830590
11919 394 3 26.777587 25.771727 -5.650483
11920 394 2 29.563947 22.111063 -7.334450
11921 395 2 -26.326462 34.801633 34.167413
11922 395 2 -26.041612 34.578518 31.189313
11923 395 3 -26.583709 32.059014 35.355634
11924 395 2 -28.774633 36.407948 34.820261
11925 395 2 -23.905896 36.161050 35.304445
11926 396 2 -43.215008 38.034903 25.371727
11927 396 2 -46.175420 38.172676 25.837536
11928 396 3 -42.627714 35.972378 23.273852
11929 396 2 -41.834542 37.283413 27.927030
11930 396 2 -42.222355 40.711145 24.448489
11931 397 2 4.859385 -10.882904 8.871600
11932 397 2 6.927588 -12.999077 9.365913
11933 397 2 5.550859 -8.422475 10.442635
11934 397 3 2.168728 -11.894331 9.730309
11935 397 2 4.790364 -10.215733 5.947541
11936 398 2 -43.418853 40.989380 -32.949005
11937 398 2 -42.871949 38.498651 -31.368762
11938 398 3 -44.711638 43.034984 -31.175812
11939 398 2 -45.254015 40.342257 -35.232294
11940 398 2 -40.837810 42.081628 -34.019150
11941 399 2 15.580318 -21.474298 12.883403
11942 399 3 15.856811 -20.471723 15.697367
11943 399 2 16.037091 -19.212269 10.966482
11944 399 2 12.821398 -22.582550 12.483230
11945 399 2 17.605972 -23.630648 12.386532
11946 400 2 2.794221 18.022213 -21.502772
11947 400 2 0.520669 17.054049 -23.203836
11948 400 3 1.852921 18.362316 -18.674648
11949 400 2 3.778238 20.654622 -22.552597
11950 400 2 5.025056 16.017865 -21.580007
11951 401 2 41.851854 -19.902502 -33.233808
11952 401 2 39.914458 -18.002327 -34.512803
11953 401 2 42.793416 -21.892832 -35.271465
11954 401 3 40.497189 -21.344680 -30.978812
11955 401 2 44.202352 -18.370170 -32.172151
11956 402 2 8.740437 38.724526 -10.983555
11957 402 2 9.549582 41.556401 -10.412794
11958 402 2 6.275011 38.714097 -12.692812
11959 402 3 8.172993 37.306837 -8.401276
11960 402 2 10.964164 37.320770 -12.427337
11961 403 2 -40.808351 -44.373628 4.993497
11962 403 2 -40.465804 -41.401733 5.218213
11963 403 2 -38.964208 -45.741634 6.924220
11964 403 3 -40.156562 -45.246863 2.198388
11965 403 2 -43.646831 -45.104284 5.633165
11966 404 2 33.357341 34.985894 41.422158
11967 404 3 35.975667 35.253553 39.982462
11968 404 2 32.110739 37.695749 41.742577
11969 404 2 33.822463 33.773042 44.126349
11970 404 2 31.520493 33.221231 39.837242
11971 405 2 -17.961414 -21.313518 7.807385
11972 405 2 -18.167063 -21.347003 4.814629
11973 405 2 -16.448009 -18.874105 8.678517
11974 405 2 -16.516222 -23.772249 8.738008
11975 405 3 -20.714364 -21.260714 8.998385
11976 406 2 -36.880126 -44.041276 -19.084305
11977 406 3 -37.323287 -46.927353 -19.772902
11978 406 2 -37.765138 -42.319166 -21.375831
11979 406 2 -33.964558 -43.576522 -18.551888
11980 406 2 -38.467523 -43.342062 -16.636597
11981 407 2 -36.600388 30.854114 -23.601415
11982 407 2 -35.829889 28.870360 -25.715902
11983 407 2 -38.623292 29.619801 -21.761760
11984 407 3 -37.781107 33.288743 -24.896978
11985 407 2 -34.167264 31.637550 -22.031022
11986 408 2 27.188710 -35.597293 -2.090921
11987 408 2 26.993117 -33.077692 -3.707509
11988 408 2 28.376884 -37.776686 -3.775702
11989 408 3 24.449945 -36.417007 -1.181395
11990 408 2 28.934893 -35.117785 0.300923
11991 409 2 -31.369030 -20.042783 -4.055789
11992 409 3 -28.581869 -21.077166 -3.653566
11993 409 2 -32.025296 -20.049125 -6.983122
11994 409 2 -31.559638 -17.243335 -2.994299
11995 409 2 -33.309317 -21.801506 -2.592171
11996 410 2 43.646875 20.600200 -6.404518
11997 410 2 43.202608 19.149372 -3.816521
11998 410 3 41.065782 20.742724 -7.926899
11999 410 2 45.690678 19.130799 -8.036612
12000 410 2 44.628433 23.377905 -5.838039
12001 411 2 44.297632 -38.243176 -15.952149
12002 411 3 42.571622 -40.191070 -17.444327
12003 411 2 44.866421 -39.310243 -13.206635
12004 411 2 42.872772 -35.612735 -15.727309
12005 411 2 46.879713 -37.858656 -17.430324
12006 412 2 16.734834 -3.531905 -42.594592
12007 412 2 14.432273 -5.451835 -42.484674
12008 412 2 17.714725 -2.985239 -39.812332
12009 412 3 15.836793 -0.964834 -43.860954
12010 412 2 18.955543 -4.725711 -44.220408
12011 413 2 28.362875 -9.495564 16.491524
12012 413 3 26.141761 -11.416142 15.876680
12013 413 2 28.988829 -9.596154 19.423770
12014 413 2 27.516896 -6.715983 15.744364
12015 413 2 30.804013 -10.253977 14.921284
12016 414 2 -10.034157 37.831597 12.003588
12017 414 3 -7.406168 36.384759 11.985300
12018 414 2 -10.911910 38.274938 14.837842
12019 414 2 -12.090706 36.187814 10.565331
12020 414 2 -9.727844 40.478876 10.625878
12021 415 2 22.928529 42.122476 -43.140011
12022 415 3 22.812730 42.373250 -46.127268
12023 415 2 25.522298 40.842508 -42.343742
12024 415 2 20.643412 40.426962 -42.189499
12025 415 2 22.735676 44.847183 -41.899535
12026 416 2 -10.509343 9.114739 42.802444
12027 416 2 -9.654097 6.239829 42.861161
12028 416 2 -10.804355 10.127844 45.610750
12029 416 2 -13.137288 9.347302 41.374222
12030 416 3 -8.441633 10.743979 41.363643
12031 417 2 -43.611872 -1.663414 -42.410578
12032 417 2 -43.762981 -3.398821 -39.968135
12033 417 2 -44.669819 1.068239 -41.763413
12034 417 2 -45.257567 -2.879236 -44.604539
12035 417 3 -40.757122 -1.443838 -43.306225
12036 418 2 41.221697 -17.754935 -23.162617
12037 418 2 39.624069 -20.292990 -23.086044
12038 418 2 41.151887 -16.447549 -20.463383
12039 418 3 40.048860 -15.896270 -25.204630
12040 418 2 44.061972 -18.382933 -23.896412
12041 419 2 -22.774331 20.348255 19.042725
12042 419 2 -22.058399 17.443791 18.815730
12043 419 2 -23.016917 21.535824 16.298488
12044 419 2 -20.632290 21.789755 20.570382
12045 419 3 -25.389719 20.623651 20.486298
12046 420 2 -9.479920 -7.415272 -39.632029
12047 420 2 -10.209820 -8.036664 -36.789298
12048 420 2 -11.173111 -5.147118 -40.626301
12049 420 2 -9.951327 -9.837628 -41.337892
12050 420 3 -6.585421 -6.639681 -39.774623
12051 421 2 42.195043 31.873575 42.917399
12052 421 2 42.255975 34.872442 42.861853
12053 421 2 42.101936 30.823069 40.108882
12054 421 3 39.762958 30.950289 44.411555
12055 421 2 44.659304 30.848502 44.287305
12056 422 2 -34.785862 -3.027225 -1.186311
12057 422 3 -37.504052 -1.997155 -1.928203
12058 422 2 -33.209157 -3.574447 -3.679211
12059 422 2 -35.073594 -5.562438 0.391632
12060 422 2 -33.356647 -0.974861 0.470536
12061 423 2 -40.925391 0.451255 36.324970
12062 423 2 -42.240270 2.376556 34.437032
12063 423 2 -40.975792 -2.304035 35.139290
12064 423 2 -42.403372 0.443666 38.935625
12065 423 3 -38.082131 1.288833 36.787935
12066 424 2 4.553679 13.524381 -43.740737
12067 424 2 7.339866 12.442557 -43.999221
12068 424 2 2.642704 11.722094 -45.189852
12069 424 3 4.434142 16.274559 -44.933312
12070 424 2 3.798003 13.658316 -40.840561
12071 425 2 36.477983 -24.329092 -3.052074
12072 425 2 36.118126 -24.772301 -5.997251
12073 425 3 33.879951 -24.835004 -1.639885
12074 425 2 37.346122 -21.498984 -2.565426
12075 425 2 38.567735 -26.210078 -2.005734
12076 426 2 -20.330802 -29.378764 -16.184856
12077 426 3 -19.917521 -32.348925 -16.270546
12078 426 2 -23.211150 -28.753374 -16.743856
12079 426 2 -18.602505 -28.068438 -18.257543
12080 426 2 -19.592031 -28.344319 -13.467478
12081 427 2 3.732544 33.890678 -19.451444
12082 427 2 1.325710 33.198492 -17.799768
12083 427 3 3.676730 32.320535 -22.007131
12084 427 2 6.223177 33.219557 -17.919666
12085 427 2 3.704557 36.824128 -20.079209
12086 428 2 30.749404 -43.388855 -4.164034
12087 428 2 31.715916 -42.204951 -1.582518
12088 428 2 30.032235 -41.184625 -6.068513
12089 428 3 28.331216 -45.086005 -3.642453
12090 428 2 32.918250 -45.079838 -5.362653
12091 429 2 -30.849826 7.139582 25.825735
12092 429 3 -28.433660 5.710834 24.767048
12093 429 2 -32.520001 8.114364 23.532197
12094 429 2 -29.978956 9.476711 27.492892
12095 429 2 -32.466687 5.256418 27.510803
12096 430 2 -24.750018 -16.984660 41.062404
12097 430 2 -25.083753 -19.329592 39.221232
12098 430 3 -27.201947 -16.694302 42.766440
12099 430 2 -24.356363 -14.490003 39.443230
12100 430 2 -22.358010 -17.424743 42.818714
12101 431 2 2.847506 29.122942 9.094009
12102 431 2 5.825236 29.381503 8.836582
12103 431 2 1.623249 28.901581 6.364138
12104 431 3 1.750560 31.541907 10.488755
12105 431 2 2.190977 26.666775 10.686559
12106 432 2 19.047998 -23.104206 -36.355489
12107 432 2 18.440571 -22.964068 -33.420972
12108 432 2 18.857440 -25.951415 -37.281280
12109 432 2 21.821473 -22.074433 -36.852887
12110 432 3 17.072510 -21.426907 -37.866817
12111 433 2 21.778240 11.460543 -10.180190
12112 433 2 23.199743 11.288847 -7.543933
12113 433 2 22.708225 13.898319 -11.660857
12114 433 2 18.820683 11.642838 -9.711543
12115 433 3 22.384308 9.012169 -11.804426
12116 434 2 -26.881029 14.638133 24.694125
12117 434 2 -26.443364 13.052900 22.185045
12118 434 2 -25.817599 17.418118 24.318890
12119 434 2 -25.446294 13.317913 26.974159
12120 434 3 -29.816860 14.763601 25.298407
12121 435 2 -11.771688 -35.917777 41.079611
12122 435 3 -13.634385 -37.931904 39.865671
12123 435 2 -11.871903 -33.376546 39.488354
12124 435 2 -8.974494 -37.001852 41.057485
12125 435 2 -12.605968 -35.360806 43.906935
12126 436 2 30.067055 -28.338193 -33.166785
12127 436 2 30.285108 -27.201291 -35.934439
12128 436 2 32.507582 -29.975015 -32.562931
12129 436 3 27.628203 -30.076109 -32.988887
12130 436 2 29.847327 -26.100356 -31.180884
12131 437 2 22.103544 17.540156 -13.221789
12132 437 2 24.668382 19.021837 -12.746158
12133 437 2 21.865455 16.862588 -16.134557
12134 437 3 19.787338 19.262036 -12.403059
12135 437 2 22.093000 15.014161 -11.603382
12136 438 2 -6.067577 -43.609538 0.117004
12137 438 2 -5.679210 -44.836226 -2.593052
12138 438 2 -3.678195 -41.931811 0.806994
12139 438 2 -6.388259 -45.781689 2.161246
12140 438 3 -8.524646 -41.888425 0.092830
12141 439 2 34.749887 -6.014541 7.833285
12142 439 3 37.327904 -4.486261 7.968147
12143 439 2 33.490699 -5.615746 5.139698
12144 439 2 32.886600 -5.022508 9.964958
12145 439 2 35.294345 -8.933650 8.260336
12146 440 2 -13.159700 -37.575127 15.538002
12147 440 2 -14.941446 -37.772282 13.132486
12148 440 2 -10.532011 -38.896536 14.947131
12149 440 3 -14.466646 -38.944459 17.865409
12150 440 2 -12.698697 -34.687232 16.206985
12151 441 2 -38.135373 19.889557 2.102410
12152 441 2 -38.520136 19.267178 -0.806989
12153 441 3 -38.032152 17.331955 3.667023
12154 441 2 -40.423766 21.566640 3.077425
12155 441 2 -35.565439 21.392457 2.472181
12156 442 2 38.752904 -12.093033 25.769798
12157 442 3 39.309824 -14.026740 23.544800
12158 442 2 36.217831 -12.880115 27.167620
12159 442 2 38.456153 -9.329083 24.641737
12160 442 2 41.027807 -12.136193 27.725036
12161 443 2 9.676609 -35.472248 -5.701288
12162 443 2 12.579967 -36.077769 -5.249782
12163 443 2 9.165110 -35.162433 -8.641081
12164 443 3 8.954172 -32.927142 -4.286890
12165 443 2 8.007188 -37.721647 -4.627399
12166 444 2 -26.546275 -17.924676 -16.388285
12167 444 3 -28.185196 -20.437421 -16.381418
12168 444 2 -25.999158 -17.079891 -13.562157
12169 444 2 -28.052028 -15.752524 -17.807604
12170 444 2 -23.948717 -18.428866 -17.801963
12171 445 2 6.574399 -14.684425 15.339466
12172 445 3 5.154809 -13.811429 12.844943
12173 445 2 4.572548 -15.106234 17.533701
12174 445 2 8.534345 -12.569274 16.166958
12175 445 2 8.035893 -17.250763 14.812261
12176 446 2 4.582021 -34.475217 2.429260
12177 446 2 5.449498 -37.089046 1.239562
12178 446 2 4.206216 -32.456649 0.241989
12179 446 3 6.679834 -33.500787 4.339670
12180 446 2 1.992536 -34.854386 3.895820
12181 447 2 12.165671 12.163013 -40.253448
12182 447 2 13.751910 9.830442 -39.232197
12183 447 2 10.789448 11.395569 -42.806298
12184 447 3 14.005887 14.476268 -40.765755
12185 447 2 10.115437 12.949775 -38.209543
12186 448 2 20.495949 -17.508166 -37.657996
12187 448 2 17.689763 -18.568969 -37.661926
12188 448 2 21.435188 -17.154254 -40.485111
12189 448 2 22.295564 -19.445963 -36.241548
12190 448 3 20.563280 -14.863476 -36.243400
12191 449 2 0.922299 -17.231132 -6.027441
12192 449 2 -1.524721 -15.496231 -6.074507
12193 449 3 1.594439 -18.088141 -8.822752
12194 449 2 0.398139 -19.653801 -4.337490
12195 449 2 3.221338 -15.686356 -4.875015
12196 450 2 1.478198 -33.930060 38.350403
12197 450 2 0.110420 -33.792995 41.016935
12198 450 2 4.309622 -32.978462 38.628790
12199 450 3 0.024886 -32.184950 36.390179
12200 450 2 1.467863 -36.763832 37.365707
12201 451 2 -27.320434 5.891070 31.865143
12202 451 2 -28.380055 3.249710 32.814049
12203 451 2 -28.800765 8.112487 33.234058
12204 451 2 -27.702751 6.114274 28.897987
12205 451 3 -24.398165 6.087810 32.514479
12206 452 2 30.422935 41.578391 6.228055
12207 452 2 29.409630 39.364961 4.474788
12208 452 2 28.098544 43.055524 7.417712
12209 452 3 32.079251 43.470963 4.592577
12210 452 2 32.104315 40.422114 8.427142
12211 453 2 41.856382 13.692729 -25.117934
12212 453 3 41.752593 16.588231 -25.895941
12213 453 2 39.580749 12.227393 -26.411875
12214 453 2 41.635439 13.449965 -22.135946
12215 453 2 44.456748 12.505327 -26.027973
12216 454 2 38.543204 -17.999972 -17.613608
12217 454 2 37.683272 -19.871320 -19.795024
12218 454 2 37.615277 -15.220561 -18.256903
12219 454 3 41.534900 -18.029361 -17.392494
12220 454 2 37.339367 -18.878645 -15.010013
12221 455 2 -42.022739 6.772908 -5.341273
12222 455 2 -39.330781 5.451019 -5.418571
12223 455 2 -42.069193 9.061198 -7.280750
12224 455 2 -42.554332 7.797914 -2.572380
12225 455 3 -44.136649 4.781501 -6.093392
12226 456 2 29.544248 40.407857 43.681515
12227 456 2 27.436366 42.542146 43.640931
12228 456 3 30.269777 39.665269 40.866881
12229 456 2 28.492583 37.990822 45.113975
12230 456 2 31.978265 41.433193 45.104275
12231 457 2 -35.879580 36.879265 13.328593
12232 457 2 -33.548342 38.049136 14.810729
12233 457 2 -36.753686 38.780383 11.178781
12234 457 2 -38.147570 36.416540 15.237023
12235 457 3 -35.068723 34.271002 12.087838
12236 458 2 -19.521787 33.680565 38.948113
12237 458 2 -22.125384 34.281459 40.312007
12238 458 3 -17.289311 33.824069 40.946978
12239 458 2 -19.045997 35.689676 36.771626
12240 458 2 -19.626455 30.927057 37.761843
12241 459 2 1.400429 19.850664 37.773787
12242 459 2 -0.248822 18.065208 39.532229
12243 459 2 3.994025 20.483125 39.142455
12244 459 3 -0.098227 22.395339 37.245902
12245 459 2 1.954739 18.458985 35.174563
12246 460 2 -13.672273 -21.755342 -5.475124
12247 460 2 -14.222872 -23.811654 -7.588988
12248 460 3 -10.969401 -22.255554 -4.273346
12249 460 2 -15.767032 -21.935410 -3.335133
12250 460 2 -13.729788 -19.018749 -6.703029
12251 461 2 9.186247 36.702826 38.522332
12252 461 2 7.303179 38.410880 40.115005
12253 461 2 7.967578 36.095533 35.849124
12254 461 3 9.698241 34.139002 39.993613
12255 461 2 11.775989 38.165889 38.131585
12256 462 2 -21.019324 15.226791 -15.021699
12257 462 2 -23.591362 16.607761 -14.330653
12258 462 3 -19.425553 16.955248 -16.885117
12259 462 2 -21.617851 12.606458 -16.354222
12260 462 2 -19.442530 14.737697 -12.516802
12261 463 2 33.375962 -11.239820 -42.875090
12262 463 2 31.710020 -9.394515 -41.195957
12263 463 2 35.936280 -11.860130 -41.439823
12264 463 3 33.994011 -9.921028 -45.497837
12265 463 2 31.863538 -13.783607 -43.366741
12266 464 2 -35.140614 -8.174578 -11.823672
12267 464 2 -33.560869 -10.529338 -12.803219
12268 464 2 -35.034902 -8.076154 -8.827151
12269 464 2 -37.992427 -8.442814 -12.715416
12270 464 3 -33.974256 -5.650005 -12.948902
12271 465 2 -35.313845 43.604303 15.087737
12272 465 2 -36.434660 40.853570 15.508740
12273 465 2 -33.015771 44.045854 16.964939
12274 465 3 -37.446764 45.645557 15.620598
12275 465 2 -34.358185 43.872230 12.256672
12276 466 2 -33.078091 -30.198170 -27.871356
12277 466 3 -33.333122 -27.209313 -27.912509
12278 466 2 -31.753950 -31.123718 -30.399203
12279 466 2 -35.804690 -31.431658 -27.661197
12280 466 2 -31.420603 -31.027991 -25.512515
12281 467 2 -15.180802 44.402413 3.500183
12282 467 2 -16.087639 41.849273 2.212114
12283 467 2 -13.485411 45.949787 1.568530
12284 467 3 -13.576032 43.769223 5.954522
12285 467 2 -17.574128 46.041371 4.265567
12286 468 2 42.100898 15.734732 18.751995
12287 468 2 43.593358 16.361329 16.226141
12288 468 2 39.370647 16.972346 18.633498
12289 468 2 43.600767 16.844444 21.101236
12290 468 3 41.838819 12.760808 19.047105
12291 469 2 -15.451740 -24.019669 34.908012
12292 469 3 -13.799087 -23.688749 37.389792
12293 469 2 -15.128325 -21.602029 33.161468
12294 469 2 -18.338684 -24.329004 35.662907
12295 469 2 -14.540864 -26.458894 33.417883
12296 470 2 25.710983 -25.329808 -34.246214
12297 470 2 28.236156 -26.784501 -34.958512
12298 470 3 24.087454 -24.871095 -36.726886
12299 470 2 26.396200 -22.689686 -32.997121
12300 470 2 24.124121 -26.973951 -32.302335
12301 471 2 -1.153299 -24.225153 -7.995800
12302 471 2 -2.904449 -22.419293 -6.361069
12303 471 3 0.961793 -25.425508 -6.239231
12304 471 2 0.146895 -22.641812 -10.187266
12305 471 2 -2.817437 -26.413999 -9.195632
12306 472 2 -38.986788 -26.247448 -5.795386
12307 472 3 -36.577516 -26.751430 -7.510440
12308 472 2 -41.113325 -24.902167 -7.428806
12309 472 2 -38.224474 -24.479225 -3.494894
12310 472 2 -40.031837 -28.856971 -4.747404
12311 473 2 30.063675 30.800728 26.846110
12312 473 2 27.500040 32.339146 26.599040
12313 473 3 30.323272 29.731491 29.637049
12314 473 2 32.378899 32.613078 26.250184
12315 473 2 30.052490 28.519196 24.898165
12316 474 2 19.313239 -4.874544 31.807431
12317 474 3 22.268152 -4.802777 32.320597
12318 474 2 18.225256 -7.555286 32.601103
12319 474 2 18.793338 -4.408239 28.889853
12320 474 2 17.966211 -2.731874 33.418171
12321 475 2 -7.553757 6.333175 19.317450
12322 475 2 -10.409441 5.425751 19.170316
12323 475 2 -6.901315 7.129070 22.135405
12324 475 2 -7.156497 8.684252 17.496840
12325 475 3 -5.747775 4.093629 18.467239
12326 476 2 -15.708065 9.012245 18.207319
12327 476 2 -16.219741 7.393244 20.680581
12328 476 2 -12.919178 8.492948 17.231387
12329 476 3 -16.019790 11.928420 18.838788
12330 476 2 -17.673549 8.234369 16.078521
12331 477 2 -31.581777 -36.723099 -37.356648
12332 477 3 -32.973957 -35.389380 -35.058165
12333 477 2 -29.425674 -38.526996 -36.309186
12334 477 2 -30.363540 -34.636441 -39.134781
12335 477 2 -33.563935 -38.339579 -38.924462
12336 478 2 42.276678 -29.817419 29.636158
12337 478 2 41.859210 -32.781925 29.442704
12338 478 2 42.655653 -28.679372 26.886390
12339 478 3 44.712675 -29.256736 31.294939
12340 478 2 39.879176 -28.551643 30.920601
12341 479 2 -30.190680 -0.180498 9.141412
12342 479 2 -32.613351 -1.067607 7.610496
12343 479 2 -29.049101 -2.511785 10.645371
12344 479 3 -30.965560 1.976011 11.077653
12345 479 2 -28.134708 0.881390 7.232126
12346 480 2 -4.860286 41.557952 -25.294276
12347 480 2 -6.370622 43.790002 -26.612167
12348 480 3 -4.631494 42.105075 -22.353475
12349 480 2 -2.116496 41.363502 -26.491695
12350 480 2 -6.322530 38.973227 -25.719769
12351 481 2 19.078887 33.014587 9.133678
12352 481 3 19.660011 35.610949 10.519751
12353 481 2 19.414539 30.749360 11.071739
12354 481 2 20.979461 32.658201 6.840032
12355 481 2 16.261539 33.039838 8.103188
12356 482 2 39.179812 -37.736073 2.901680
12357 482 2 38.436633 -36.441393 5.503888
12358 482 2 41.136909 -39.952162 3.410325
12359 482 3 40.427665 -35.696088 1.090238
12360 482 2 36.718041 -38.854650 1.602269
12361 483 2 -35.534643 -27.826611 -44.220548
12362 483 2 -37.393388 -26.818977 -46.348867
12363 483 2 -35.943586 -26.244372 -41.704741
12364 483 2 -32.696888 -27.520381 -45.144328
12365 483 3 -36.104710 -30.722715 -43.684258
12366 484 2 10.433299 -2.317932 -35.986061
12367 484 2 9.378862 -5.126253 -35.947355
12368 484 3 10.725671 -1.398607 -38.826723
12369 484 2 13.106963 -2.234836 -34.627893
12370 484 2 8.521701 -0.512033 -34.542273
12371 485 2 8.563864 36.025459 -3.236950
12372 485 2 8.599221 33.341619 -1.896892
12373 485 3 10.874365 37.665734 -2.251514
12374 485 2 5.992935 37.430981 -2.592878
12375 485 2 8.788936 35.663502 -6.206517
12376 486 2 -17.498115 -31.332009 -6.356414
12377 486 2 -17.987307 -33.333124 -8.537291
12378 486 2 -14.560604 -31.198696 -5.762058
12379 486 2 -18.981687 -32.163528 -3.885060
12380 486 3 -18.462860 -28.632687 -7.241245
12381 487 2 31.599536 14.805422 42.429887
12382 487 3 29.574660 16.363698 40.857739
12383 487 2 30.701818 11.952708 42.666795
12384 487 2 31.872726 15.998542 45.168835
12385 487 2 34.248941 14.906741 41.026182
12386 488 2 -30.346397 15.310341 44.479769
12387 488 3 -32.184336 16.465062 42.408875
12388 488 2 -31.948713 14.423114 46.855776
12389 488 2 -28.364652 17.395116 45.332060
12390 488 2 -28.887888 12.958073 43.322364
12391 489 2 -8.670396 -11.480413 38.771937
12392 489 3 -10.679051 -9.402985 39.577914
12393 489 2 -7.870975 -13.084834 41.177506
12394 489 2 -6.249862 -10.136053 37.617073
12395 489 2 -9.881695 -13.297779 36.715257
12396 490 2 -16.762320 -40.307737 -19.758994
12397 490 2 -19.475825 -39.075158 -19.416010
12398 490 2 -16.003228 -40.262995 -22.661024
12399 490 2 -16.822129 -43.144462 -18.784615
12400 490 3 -14.748097 -38.748334 -18.174327
12401 491 2 43.548277 3.882649 -28.302526
12402 491 2 42.225013 5.065764 -30.721040
12403 491 2 45.396835 1.677860 -29.152076
12404 491 2 41.456171 2.778366 -26.457627
12405 491 3 45.115088 6.008608 -26.879360
12406 492 2 26.537978 13.845664 23.848223
12407 492 2 29.526468 13.691321 24.060604
12408 492 2 25.334781 11.257599 24.772475
12409 492 3 25.762823 14.345746 20.993568
12410 492 2 25.527839 16.087988 25.566245
12411 493 2 -26.763460 -41.018653 12.088808
12412 493 3 -27.246912 -39.002741 14.257304
12413 493 2 -27.560682 -43.742810 13.060099
12414 493 2 -23.852588 -41.028030 11.363039
12415 493 2 -28.393655 -40.301030 9.674791
12416 494 2 3.249628 -10.478966 35.736129
12417 494 2 1.036937 -8.455067 35.647632
12418 494 2 3.891283 -11.134852 38.592367
12419 494 2 5.687145 -9.354947 34.396319
12420 494 3 2.383147 -12.970999 34.308199
12421 495 2 -17.552665 18.596810 -8.348244
12422 495 2 -18.626534 16.712386 -6.275625
12423 495 3 -17.309812 17.163871 -10.972688
12424 495 2 -14.852147 19.587218 -7.496012
12425 495 2 -19.422165 20.923766 -8.648650
12426 496 2 21.055591 -36.661648 43.534338
12427 496 3 22.359816 -36.428877 40.842718
12428 496 2 19.027421 -38.871402 43.475059
12429 496 2 19.696595 -34.074943 44.214105
12430 496 2 23.138534 -37.271372 45.605469
12431 497 2 19.514902 -7.442921 36.554440
12432 497 3 17.602151 -5.133598 36.646138
12433 497 2 20.330786 -8.177093 39.346451
12434 497 2 21.944048 -6.667253 34.974064
12435 497 2 18.182623 -9.793741 35.251107
12436 498 2 -13.296670 -9.777888 -30.520481
12437 498 2 -16.130841 -9.997607 -29.561731
12438 498 2 -11.516600 -11.439558 -28.768282
12439 498 2 -12.420862 -6.910958 -30.403546
12440 498 3 -13.118379 -10.763427 -33.348364
12441 499 2 -1.801030 1.477920 40.959971
12442 499 2 -2.697901 1.408421 38.098015
12443 499 2 -0.408787 4.078013 41.508768
12444 499 3 0.088408 -0.795527 41.471306
12445 499 2 -4.185838 1.220773 42.761794
12446 500 2 23.640289 27.191489 -1.045798
12447 500 2 20.813553 26.653924 -1.894675
12448 500 2 25.069777 28.686569 -3.218653
12449 500 2 25.042468 24.589368 -0.533100
12450 500 3 23.635357 28.836094 1.463235
12451 501 2 11.759136 -42.499528 -12.964714
12452 501 2 9.243879 -42.744676 -14.581311
12453 501 2 13.693289 -44.637564 -13.794083
12454 501 3 11.110620 -42.812748 -10.052443
12455 501 2 12.988755 -39.803123 -13.431018
12456 502 2 30.364520 -35.850875 -32.368521
12457 502 3 31.917520 -33.732673 -33.818145
12458 502 2 30.726150 -38.484219 -33.759463
12459 502 2 27.454705 -35.121059 -32.349925
12460 502 2 31.359704 -36.065549 -29.546549
12461 503 2 -29.352172 24.162176 -7.616849
12462 503 2 -29.861802 21.217597 -7.880917
12463 503 2 -29.968678 25.036345 -4.814038
12464 503 3 -31.104931 25.656721 -9.538872
12465 503 2 -26.473278 24.738043 -8.233569
12466 504 2 38.528698 32.065487 5.723849
12467 504 2 37.304007 34.726455 5.076252
12468 504 2 38.638322 31.713093 8.701062
12469 504 3 41.307316 31.943265 4.599417
12470 504 2 36.865148 29.879136 4.518664
12471 505 2 10.357593 -38.756177 -38.697087
12472 505 3 12.651259 -37.576940 -37.164608
12473 505 2 8.370752 -39.928244 -36.779088
12474 505 2 11.375608 -40.908672 -40.522028
12475 505 2 9.032752 -36.610851 -40.322625
12476 506 2 -18.997371 -39.860343 -13.953283
12477 506 2 -21.899622 -39.675246 -13.216617
12478 506 2 -17.317196 -38.992727 -11.624279
12479 506 2 -18.446392 -38.078141 -16.302789
12480 506 3 -18.326273 -42.695257 -14.669445
12481 507 2 -27.626056 -42.295706 17.858491
12482 507 2 -27.804454 -41.403506 14.999793
12483 507 2 -28.483191 -40.055628 19.660538
12484 507 2 -24.795572 -43.061704 18.492215
12485 507 3 -29.421009 -44.661985 18.281418
12486 508 2 41.889935 36.216750 -29.379476
12487 508 3 44.386314 36.228042 -27.715756
12488 508 2 41.544132 38.897028 -30.681985
12489 508 2 39.523131 35.643527 -27.627433
12490 508 2 42.106162 34.098403 -31.492732
12491 509 2 41.357787 -4.972050 1.173763
12492 509 3 40.956384 -2.085318 0.462667
12493 509 2 41.746430 -6.574594 -1.332391
12494 509 2 38.946756 -5.984323 2.644217
12495 509 2 43.781578 -5.243963 2.920561
12496 510 2 37.016322 7.520242 -37.863081
12497 510 2 34.829580 9.235416 -36.733330
12498 510 2 37.622181 8.391801 -40.669025
12499 510 2 36.133220 4.653190 -37.875140
12500 510 3 39.480308 7.800562 -36.174828
12501 511 2 16.359646 3.456659 -37.064468
12502 511 2 14.562031 3.510542 -34.663286
12503 511 2 14.743573 2.815560 -39.509319
12504 511 2 18.472847 1.361367 -36.684813
12505 511 3 17.660135 6.139166 -37.400454
12506 512 2 -14.577812 -33.654439 -29.642450
12507 512 2 -17.532182 -34.175674 -29.638659
12508 512 2 -13.784819 -32.374702 -27.047564
12509 512 2 -13.888971 -31.819766 -31.913897
12510 512 3 -13.105277 -36.247615 -29.969681
12511 513 2 22.712826 23.643897 -13.497134
12512 513 2 20.071647 24.158721 -12.170811
12513 513 2 22.403509 23.890988 -16.470897
12514 513 2 23.651517 20.877185 -12.815836
12515 513 3 24.724630 25.648693 -12.530990
12516 514 2 10.171306 4.708672 28.652004
12517 514 2 12.898497 4.440779 29.872931
12518 514 2 9.158062 7.501143 29.070863
12519 514 3 8.297731 2.759508 29.952188
12520 514 2 10.330934 4.133259 25.712035
12521 515 2 -38.513396 37.691539 37.474081
12522 515 2 -35.810312 38.858317 36.897917
12523 515 2 -40.490853 38.706648 35.459330
12524 515 2 -39.385981 38.501631 40.227687
12525 515 3 -38.366440 34.699561 37.311389
12526 516 2 42.765460 -23.272690 37.139471
12527 516 2 43.492028 -25.478821 39.038179
12528 516 2 41.474704 -24.440747 34.696196
12529 516 2 45.243790 -21.780616 36.344740
12530 516 3 40.851320 -21.390578 38.478770
12531 517 2 36.159630 -36.145221 35.140666
12532 517 2 38.969734 -35.101259 35.256676
12533 517 2 36.122803 -39.016339 36.009760
12534 517 2 35.131058 -35.937892 32.330140
12535 517 3 34.414923 -34.525394 36.966086
12536 518 2 18.376249 29.664859 -21.173691
12537 518 3 18.654029 31.132281 -18.571863
12538 518 2 21.074585 28.718434 -22.081029
12539 518 2 17.214679 31.503793 -23.239866
12540 518 2 16.561703 27.304928 -20.802007
12541 519 2 -2.368280 14.737325 -1.448353
12542 519 2 -4.897636 15.484323 -2.878161
12543 519 3 -2.921925 14.466281 1.487632
12544 519 2 -0.305537 16.871610 -1.884148
12545 519 2 -1.348022 12.127085 -2.518736
12546 520 2 -29.175551 0.113884 -3.014519
12547 520 3 -31.318782 1.986140 -3.963843
12548 520 2 -29.774490 -2.663046 -3.978849
12549 520 2 -29.086669 0.133729 -0.015902
12550 520 2 -26.522264 0.998712 -4.099482
12551 521 2 -22.235272 25.074215 -32.059645
12552 521 2 -20.054594 26.187623 -33.793130
12553 521 2 -21.585381 25.594304 -29.177432
12554 521 3 -22.463915 22.117879 -32.515493
12555 521 2 -24.837196 26.397056 -32.752525
12556 522 2 -6.035104 -20.741302 4.904555
12557 522 2 -5.934009 -23.739094 4.959521
12558 522 3 -7.327240 -19.830892 2.354744
12559 522 2 -3.247452 -19.643701 5.060347
12560 522 2 -7.631713 -19.751520 7.243608
12561 523 2 17.385088 22.835064 -35.872525
12562 523 2 17.389193 20.917402 -38.179592
12563 523 2 18.392175 25.507340 -36.791610
12564 523 2 19.167996 21.788134 -33.698779
12565 523 3 14.590988 23.127381 -34.820121
12566 524 2 36.072113 -26.031233 -37.909511
12567 524 2 37.410363 -27.658297 -40.045337
12568 524 2 33.125146 -26.592640 -37.923713
12569 524 2 36.537002 -23.114529 -38.435550
12570 524 3 37.215944 -26.759465 -35.233445
12571 525 2 33.857817 17.816387 -27.812334
12572 525 3 31.890611 16.570664 -25.920700
12573 525 2 36.542737 16.526460 -27.455553
12574 525 2 34.075044 20.752969 -27.238491
12575 525 2 32.922874 17.415454 -30.634591
12576 526 2 33.570132 26.221101 -44.264807
12577 526 2 33.876280 23.882821 -42.410428
12578 526 3 34.844605 25.578353 -46.903480
12579 526 2 34.905007 28.627055 -43.069191
12580 526 2 30.654638 26.796174 -44.676128
12581 527 2 22.255493 18.978949 18.169088
12582 527 2 24.730708 19.041917 19.863003
12583 527 3 21.806414 21.684701 16.953674
12584 527 2 19.897244 18.243447 19.871351
12585 527 2 22.587606 16.945731 15.988326
12586 528 2 -25.645562 20.634083 -21.793174
12587 528 2 -23.438298 22.664584 -21.864235
12588 528 3 -28.069269 21.836668 -20.497243
12589 528 2 -24.753055 18.241514 -20.218675
12590 528 2 -26.321628 19.793566 -24.592543
12591 529 2 24.341622 35.563585 18.484358
12592 529 2 25.533223 38.122715 17.469005
12593 529 2 26.459619 33.956504 19.874099
12594 529 3 23.242457 33.988709 16.179666
12595 529 2 22.131190 36.186411 20.414663
12596 530 2 15.905217 24.198438 37.500582
12597 530 3 14.778401 25.564224 35.078823
12598 530 2 14.667745 25.363982 39.972458
12599 530 2 18.876777 24.601951 37.584287
12600 530 2 15.297944 21.263593 37.366759
12601 531 2 -26.445807 -2.920940 31.353214
12602 531 2 -23.832727 -1.476629 31.646098
12603 531 2 -26.991224 -4.514676 33.835658
12604 531 3 -26.309868 -4.764927 28.990750
12605 531 2 -28.649407 -0.927529 30.940349
12606 532 2 -41.377588 39.574457 -2.528187
12607 532 3 -40.847404 36.623037 -2.617763
12608 532 2 -43.244294 40.323146 -4.754142
12609 532 2 -38.793450 41.064777 -2.846270
12610 532 2 -42.625205 40.286868 0.105427
12611 533 2 -17.909523 -38.683333 -27.439428
12612 533 2 -15.557788 -40.061787 -26.186747
12613 533 2 -17.738559 -38.928049 -30.424538
12614 533 2 -17.894526 -35.783371 -26.671317
12615 533 3 -20.447217 -39.960125 -26.475109
12616 534 2 14.757392 -26.696284 -31.042447
12617 534 2 16.161751 -24.054205 -31.259696
12618 534 2 14.101775 -27.246847 -28.167200
12619 534 2 16.541452 -28.866560 -32.094604
12620 534 3 12.224593 -26.617524 -32.648286
12621 535 2 19.669755 -41.791672 5.346332
12622 535 2 22.031826 -43.055339 6.696799
12623 535 2 19.920319 -42.124297 2.375376
12624 535 3 19.576883 -38.870034 6.021172
12625 535 2 17.149991 -43.117016 6.291980
12626 536 2 -7.185293 6.726147 11.497967
12627 536 3 -6.256517 9.314926 10.299802
12628 536 2 -7.471271 4.668281 9.333850
12629 536 2 -9.835747 7.139837 12.841080
12630 536 2 -5.177637 5.781545 13.517137
12631 537 2 22.633431 23.566812 -32.666227
12632 537 3 23.706160 26.364439 -32.516109
12633 537 2 20.247015 23.312934 -30.866070
12634 537 2 24.755092 21.634067 -31.792702
12635 537 2 21.825455 22.955810 -35.490028
12636 538 2 36.053342 -15.881648 1.393838
12637 538 2 36.284622 -18.682222 2.444215
12638 538 3 38.296963 -15.344398 -0.523850
12639 538 2 36.203356 -13.941646 3.677233
12640 538 2 33.428429 -15.558324 -0.022245
12641 539 2 2.630616 -13.916290 -22.291758
12642 539 3 -0.020033 -12.832709 -21.397380
12643 539 2 4.359985 -11.661192 -23.252910
12644 539 2 2.208373 -15.874586 -24.524870
12645 539 2 3.974139 -15.296675 -19.991870
12646 540 2 42.404422 -1.912806 -10.797379
12647 540 3 42.577552 1.077468 -10.629189
12648 540 2 41.807878 -2.722547 -13.623765
12649 540 2 40.215657 -2.890777 -8.993805
12650 540 2 45.016599 -3.115367 -9.942760
12651 541 2 38.452149 -2.585620 36.545047
12652 541 3 36.870079 -2.883582 34.013590
12653 541 2 41.264379 -1.781656 35.877962
12654 541 2 38.481959 -5.198371 38.019036
12655 541 2 37.192179 -0.478870 38.269600
12656 542 2 16.044466 -10.061298 -24.243256
12657 542 2 15.256391 -12.363071 -25.998471
12658 542 3 13.912440 -9.598179 -22.184134
12659 542 2 16.370960 -7.593256 -25.917224
12660 542 2 18.638074 -10.690688 -22.873195
12661 543 2 43.366654 9.170568 -21.505055
12662 543 2 41.529831 7.966075 -23.548405
12663 543 3 45.356164 10.950164 -22.874321
12664 543 2 44.816135 6.983429 -20.050603
12665 543 2 41.764487 10.782603 -19.546892
12666 544 2 -42.802577 7.373161 43.454343
12667 544 2 -40.738808 5.424901 44.426527
12668 544 2 -43.598791 9.191868 45.703419
12669 544 2 -45.211679 5.874576 42.479422
12670 544 3 -41.661030 9.001297 41.208003
12671 545 2 30.877793 -36.435679 9.716512
12672 545 3 28.509555 -35.458754 11.277622
12673 545 2 33.392278 -35.312678 10.906570
12674 545 2 30.634199 -35.538894 6.864067
12675 545 2 30.975142 -39.432388 9.817787
12676 546 2 -38.296992 -5.511240 -41.786647
12677 546 3 -36.076541 -3.506358 -41.562936
12678 546 2 -40.425434 -4.875271 -39.770394
12679 546 2 -37.217141 -8.261516 -41.267125
12680 546 2 -39.468852 -5.401814 -44.546135
12681 547 2 22.769973 -21.303401 18.931057
12682 547 3 23.303124 -19.090523 16.976852
12683 547 2 22.411943 -23.884933 17.445287
12684 547 2 20.276978 -20.688429 20.482439
12685 547 2 25.087848 -21.549722 20.819650
12686 548 2 19.896660 -41.432108 -10.597477
12687 548 2 20.697540 -44.294257 -10.189194
12688 548 3 19.942051 -40.789198 -13.527427
12689 548 2 21.818566 -39.639751 -9.150503
12690 548 2 17.128482 -41.005226 -9.522784
12691 549 2 40.521694 -37.364584 -27.446004
12692 549 3 42.105193 -37.783506 -24.932633
12693 549 2 40.107180 -34.426532 -27.888757
12694 549 2 37.859048 -38.722508 -27.188408
12695 549 2 42.015355 -38.525789 -29.774218
12696 550 2 16.769951 7.186054 -1.670590
12697 550 3 16.203186 5.807375 -4.274054
12698 550 2 15.858374 5.449692 0.599668
12699 550 2 15.300611 9.800114 -1.582699
12700 550 2 19.717635 7.687033 -1.425277
12701 551 2 -12.915345 22.861223 -16.191404
12702 551 2 -14.404310 23.776515 -18.629687
12703 551 2 -14.619757 23.288429 -13.759846
12704 551 3 -10.375488 24.434811 -15.921323
12705 551 2 -12.261826 19.945137 -16.454760
12706 552 2 20.145816 10.768642 35.397003
12707 552 3 19.388872 12.455123 33.034204
12708 552 2 19.667768 12.314511 37.923217
12709 552 2 23.047595 10.030538 35.210241
12710 552 2 18.479027 8.274394 35.420349
12711 553 2 -17.373625 -7.912433 -0.347667
12712 553 3 -17.805683 -6.773841 2.394035
12713 553 2 -16.273740 -5.783522 -2.152658
12714 553 2 -19.985759 -8.900794 -1.443065
12715 553 2 -15.429317 -10.191575 -0.188983
12716 554 2 35.369285 41.418393 32.692045
12717 554 2 37.242980 42.518706 30.623572
12718 554 3 36.382096 42.112778 35.429205
12719 554 2 35.210075 38.435778 32.411584
12720 554 2 32.641991 42.606309 32.303818
12721 555 2 -35.527831 -19.252570 36.637149
12722 555 3 -38.286743 -19.182945 37.813396
12723 555 2 -33.655447 -20.596031 38.557902
12724 555 2 -34.589785 -16.450134 36.120987
12725 555 2 -35.579348 -20.781170 34.056311
12726 556 2 34.716644 44.049946 -26.897534
12727 556 3 35.622352 44.417823 -24.061276
12728 556 2 35.359908 41.261850 -27.799050
12729 556 2 36.129194 46.022439 -28.662180
12730 556 2 31.755123 44.497672 -27.067630
12731 557 2 2.954976 -42.106605 14.653510
12732 557 2 4.057247 -40.493193 12.377131
12733 557 3 0.119555 -41.281919 15.182928
12734 557 2 4.610058 -41.630863 17.110006
12735 557 2 3.033044 -45.020445 13.943974
12736 558 2 13.977151 -3.306729 41.741314
12737 558 2 13.301322 -0.752974 40.319487
12738 558 2 11.865214 -5.359065 41.168914
12739 558 2 14.106684 -2.802274 44.695760
12740 558 3 16.635383 -4.312603 40.781097
12741 559 2 -28.970460 -1.163482 -16.746038
12742 559 2 -31.543617 -1.050753 -15.207808
12743 559 2 -29.355434 -2.817487 -19.219105
12744 559 2 -26.837413 -2.400802 -15.037485
12745 559 3 -28.145374 1.615114 -17.519753
12746 560 2 -7.379829 -10.629200 24.871625
12747 560 2 -9.594765 -10.762135 26.890631
12748 560 3 -8.351877 -11.711856 22.248082
12749 560 2 -5.054646 -12.265437 25.828838
12750 560 2 -6.518026 -7.777373 24.518949
12751 561 2 -25.894985 -30.068285 -25.604951
12752 561 3 -27.426010 -30.600423 -28.129390
12753 561 2 -27.813385 -29.744703 -23.321305
12754 561 2 -24.285268 -27.556687 -25.922262
12755 561 2 -24.055279 -32.371326 -25.046846
12756 562 2 10.678186 10.658660 16.665625
12757 562 2 12.640139 12.920300 16.854649
12758 562 2 10.202385 9.986037 13.780977
12759 562 2 8.088488 11.471958 17.943126
12760 562 3 11.781734 8.256347 18.083747
12761 563 2 -6.909432 -0.810859 12.500830
12762 563 3 -8.216841 1.774593 11.722290
12763 563 2 -7.004611 -1.121263 15.483210
12764 563 2 -4.051985 -0.801392 11.587099
12765 563 2 -8.364292 -3.095372 11.210722
12766 564 2 -23.921730 -14.214408 -41.913479
12767 564 3 -21.489035 -14.722518 -40.233058
12768 564 2 -26.079279 -13.011030 -40.211462
12769 564 2 -24.892707 -16.803916 -43.076084
12770 564 2 -23.225900 -12.320166 -44.133315
12771 565 2 -16.744292 -16.497521 14.298642
12772 565 2 -16.192126 -19.013303 15.836807
12773 565 2 -16.088411 -16.931192 11.403517
12774 565 3 -15.053186 -14.270090 15.384326
12775 565 2 -19.643446 -15.775497 14.569919
12776 566 2 -43.798579 31.973725 -12.456228
12777 566 2 -46.588127 32.895558 -13.063393
12778 566 3 -42.389756 31.296104 -15.016706
12779 566 2 -43.908356 29.542806 -10.701639
12780 566 2 -42.308079 34.160432 -11.043174
12781 567 2 7.687658 -20.681176 -23.330445
12782 567 2 9.108664 -18.564485 -24.911698
12783 567 3 6.078338 -22.404024 -25.185677
12784 567 2 5.861777 -19.382461 -21.335578
12785 567 2 9.701855 -22.373734 -21.888829
12786 568 2 -5.654778 -2.034339 -3.299325
12787 568 2 -3.356463 -1.002481 -1.670517
12788 568 3 -7.016829 0.259146 -4.672185
12789 568 2 -7.610234 -3.426595 -1.499933
12790 568 2 -4.635585 -3.967425 -5.354666
12791 569 2 8.917078 -28.811322 -10.388389
12792 569 2 9.059929 -26.598359 -8.367898
12793 569 2 6.116445 -29.880454 -10.504191
12794 569 3 10.795580 -31.011975 -9.595701
12795 569 2 9.696358 -27.754499 -13.085767
12796 570 2 -40.627722 -33.802687 -9.170950
12797 570 2 -41.863157 -33.112878 -6.525602
12798 570 2 -42.067738 -32.340110 -11.358922
12799 570 3 -40.842579 -36.758860 -9.634499
12800 570 2 -37.737412 -32.998900 -9.164776
12801 571 2 16.041412 -23.448708 43.198568
12802 571 2 16.895802 -26.135461 44.223935
12803 571 2 13.756116 -23.789115 41.285051
12804 571 3 18.341745 -22.139619 41.786212
12805 571 2 15.171983 -21.730637 45.499074
12806 572 2 40.990966 16.152863 -42.979789
12807 572 2 43.608245 17.589989 -42.689069
12808 572 3 40.623698 15.312022 -45.836028
12809 572 2 38.751579 17.981911 -42.179955
12810 572 2 40.980340 13.727530 -41.214102
12811 573 2 6.981401 10.928354 -26.682592
12812 573 2 4.894494 10.779726 -24.532539
12813 573 2 7.821297 13.782836 -27.065356
12814 573 3 5.849647 9.866131 -29.249851
12815 573 2 9.360167 9.284723 -25.882624
12816 574 2 -27.550408 3.343579 -8.613840
12817 574 2 -29.071800 1.139912 -7.261354
12818 574 2 -29.055410 4.251973 -11.044846
12819 574 3 -24.845405 2.335950 -9.430934
12820 574 2 -27.229017 5.646481 -6.718227
12821 575 2 14.919778 44.039409 -37.647902
12822 575 3 15.380905 44.873670 -40.492436
12823 575 2 17.543676 43.940443 -36.196914
12824 575 2 13.645444 41.324008 -37.596218
12825 575 2 13.109089 46.019513 -36.306041
12826 576 2 -26.325637 40.667406 5.513688
12827 576 2 -29.015884 40.643298 6.841088
12828 576 2 -26.587979 41.785570 2.742247
12829 576 2 -25.258521 37.867530 5.365509
12830 576 3 -24.440163 42.373226 7.105909
12831 577 2 -27.938801 22.562183 -38.264506
12832 577 2 -27.917505 21.794669 -35.364425
12833 577 2 -29.414148 25.152362 -38.602628
12834 577 2 -29.305309 20.417797 -39.856443
12835 577 3 -25.118242 22.883906 -39.234527
12836 578 2 -24.228504 38.731882 21.270770
12837 578 2 -22.336377 36.403851 21.259732
12838 578 2 -26.985045 37.783481 20.562238
12839 578 2 -23.323155 40.765889 19.260010
12840 578 3 -24.269441 39.974308 24.001100
12841 579 2 10.328129 28.305115 21.716523
12842 579 2 8.142451 30.207468 22.493610
12843 579 3 12.868263 29.075535 23.114441
12844 579 2 10.745760 28.420564 18.747978
12845 579 2 9.556043 25.516893 22.510062
12846 580 2 39.339511 -8.488984 15.436021
12847 580 2 41.473226 -9.243441 17.405298
12848 580 2 36.801489 -9.941351 16.106150
12849 580 3 40.221359 -9.241158 12.668968
12850 580 2 38.861970 -5.529988 15.563667
12851 581 2 -35.955308 22.016663 19.532715
12852 581 2 -33.691302 21.888628 21.496865
12853 581 3 -38.263031 23.488071 20.761281
12854 581 2 -36.813148 19.233550 18.812720
12855 581 2 -35.053751 23.456402 17.059995
12856 582 2 -20.150663 41.623083 -2.635957
12857 582 2 -18.672923 39.036311 -2.989358
12858 582 2 -21.449474 42.394946 -5.227736
12859 582 3 -18.226007 43.768659 -1.803970
12860 582 2 -22.254249 41.292416 -0.522764
12861 583 2 -13.606523 -19.035831 -0.890067
12862 583 2 -13.149932 -16.899839 -2.946535
12863 583 2 -12.479277 -21.633949 -1.879564
12864 583 2 -16.550948 -19.343538 -0.404602
12865 583 3 -12.245934 -18.266000 1.670433
12866 584 2 35.649524 14.140895 7.274244
12867 584 3 35.703463 15.545991 4.624188
12868 584 2 37.015278 15.840200 9.335088
12869 584 2 37.075567 11.511797 7.041337
12870 584 2 32.803789 13.665593 8.096362
12871 585 2 -34.192941 -11.321369 20.736047
12872 585 3 -31.935156 -12.818658 19.447431
12873 585 2 -34.038513 -11.647990 23.714213
12874 585 2 -36.807801 -12.407928 19.745140
12875 585 2 -33.990294 -8.410899 20.037404
12876 586 2 -36.640358 -30.038875 -36.877311
12877 586 2 -33.709180 -30.136278 -36.245881
12878 586 2 -38.186022 -29.481495 -34.367281
12879 586 2 -37.505290 -32.674487 -38.019870
12880 586 3 -37.160941 -27.863239 -38.876212
12881 587 2 42.235175 26.452879 5.621837
12882 587 2 39.832354 25.189544 6.898721
12883 587 2 41.348704 28.291175 3.423011
12884 587 3 44.004114 24.313460 4.484412
12885 587 2 43.755528 28.017339 7.681204
12886 588 2 3.750807 22.818037 -41.024295
12887 588 2 5.037208 24.054988 -38.612838
12888 588 2 3.214180 24.943490 -43.072338
12889 588 3 1.165024 21.523818 -40.225092
12890 588 2 5.586816 20.749849 -42.186910
12891 589 2 37.053790 36.744190 -19.599570
12892 589 2 38.912157 39.096115 -19.721710
12893 589 3 34.565139 37.354008 -21.159935
12894 589 2 36.331036 36.188144 -16.741522
12895 589 2 38.406828 34.338492 -20.775115
12896 590 2 -26.307648 -8.148158 -3.144888
12897 590 2 -25.326356 -7.372764 -0.418016
12898 590 2 -27.423386 -10.931415 -3.052113
12899 590 3 -24.028734 -8.048794 -5.093394
12900 590 2 -28.452116 -6.239658 -4.016029
12901 591 2 -15.244377 -0.393856 -23.317395
12902 591 2 -15.907726 2.426630 -22.539687
12903 591 3 -14.648634 -1.997008 -20.852645
12904 591 2 -12.843849 -0.396794 -25.116688
12905 591 2 -17.577298 -1.608250 -24.760559
12906 592 2 28.888339 12.200503 0.512164
12907 592 2 30.729423 13.602496 2.421306
12908 592 2 30.024603 12.344327 -2.260600
12909 592 3 26.198205 13.527469 0.560544
12910 592 2 28.601123 9.327719 1.327405
12911 593 2 -19.100370 14.072613 -3.207705
12912 593 3 -21.306113 13.545541 -1.243807
12913 593 2 -16.656247 15.005972 -1.739677
12914 593 2 -19.972072 16.189868 -5.146097
12915 593 2 -18.467048 11.549070 -4.701236
12916 594 2 -4.883811 -8.605101 -29.617046
12917 594 2 -4.128667 -5.780625 -28.944667
12918 594 2 -7.090354 -8.593465 -31.649541
12919 594 3 -5.817578 -10.008378 -27.135335
12920 594 2 -2.498647 -10.037935 -30.738642
12921 595 2 40.519321 7.459646 -3.418869
12922 595 3 41.818957 10.121121 -2.941901
12923 595 2 40.886246 5.720203 -1.002320
12924 595 2 41.782180 6.142528 -5.800126
12925 595 2 37.589901 7.854731 -3.931126
12926 596 2 -39.953653 43.630898 30.010750
12927 596 2 -37.234401 42.580225 30.719095
12928 596 2 -40.983712 45.333741 32.255590
12929 596 3 -41.827317 41.332030 29.558436
12930 596 2 -39.769183 45.277597 27.509880
12931 597 2 -16.997442 7.092856 0.587687
12932 597 3 -19.058144 9.045359 1.557861
12933 597 2 -18.279759 5.136159 -1.290343
12934 597 2 -15.836461 5.618631 2.928367
12935 597 2 -14.815404 8.571276 -0.845136
12936 598 2 12.337792 -14.902319 -8.709041
12937 598 2 11.560353 -12.111847 -9.489333
12938 598 2 10.057880 -16.207535 -7.260451
12939 598 2 14.739363 -14.806292 -6.913705
12940 598 3 12.993571 -16.483602 -11.172677
12941 599 2 -21.786737 6.623514 -28.922256
12942 599 2 -20.531201 4.186751 -30.141196
12943 599 3 -22.883589 5.935750 -26.215986
12944 599 2 -24.011768 7.590869 -30.686757
12945 599 2 -19.720392 8.780687 -28.645084
12946 600 2 39.030173 43.246640 -29.351109
12947 600 2 37.279573 44.267465 -27.139025
12948 600 3 41.839956 42.944445 -28.344233
12949 600 2 38.990269 45.190408 -31.635879
12950 600 2 38.010895 40.584242 -30.285299
12951 601 2 17.338889 43.191729 9.714928
12952 601 2 17.662998 42.974716 12.689463
12953 601 2 19.808088 44.412560 8.526389
12954 601 2 14.968396 44.921261 9.090841
12955 601 3 16.916073 40.458380 8.553021
12956 602 2 20.757159 -14.878601 1.899737
12957 602 3 23.660094 -14.939324 2.654244
12958 602 2 19.589441 -12.213661 2.630849
12959 602 2 19.296290 -17.047725 3.369691
12960 602 2 20.482810 -15.313697 -1.055839
12961 603 2 -2.027282 -18.714698 -14.976502
12962 603 2 -1.133519 -21.479465 -15.722996
12963 603 3 -2.820678 -17.217637 -17.452251
12964 603 2 0.221085 -17.271112 -13.612353
12965 603 2 -4.376017 -18.890578 -13.118409
12966 604 2 22.196415 -35.360114 12.092411
12967 604 2 24.356036 -37.335795 12.750225
12968 604 3 21.600120 -33.688207 14.510915
12969 604 2 19.717920 -36.829226 11.256483
12970 604 2 23.111583 -33.587229 9.852022
12971 605 2 -12.623920 -44.325813 -13.038584
12972 605 3 -13.756871 -41.588441 -12.566126
12973 605 2 -11.034735 -44.324849 -15.583086
12974 605 2 -14.862863 -46.310429 -13.258669
12975 605 2 -10.841212 -45.079534 -10.746455
12976 606 2 28.903221 -17.608720 36.227046
12977 606 3 30.773392 -15.269500 36.401715
12978 606 2 27.662639 -18.100005 38.913976
12979 606 2 30.427615 -20.045839 35.368749
12980 606 2 26.749239 -17.019536 34.223743
12981 607 2 -37.336952 5.353128 -35.466214
12982 607 2 -38.382515 4.466461 -32.797765
12983 607 2 -36.106190 3.014099 -36.885428
12984 607 3 -35.264503 7.485692 -35.069824
12985 607 2 -39.594601 6.446259 -37.111840
12986 608 2 -35.646869 13.111340 -24.620938
12987 608 3 -35.679997 10.200211 -25.344973
12988 608 2 -35.894083 13.404668 -21.645565
12989 608 2 -37.945805 14.500366 -25.957164
12990 608 2 -33.067590 14.340116 -25.536050
12991 609 2 -38.115600 19.693440 -13.316323
12992 609 2 -35.538028 18.639472 -14.432242
12993 609 2 -37.532551 21.537937 -11.023315
12994 609 3 -39.799385 17.404169 -12.355017
12995 609 2 -39.592437 21.192180 -15.454717
12996 610 2 39.867787 -39.922858 14.648875
12997 610 3 42.306224 -41.537004 13.979134
12998 610 2 37.810336 -41.699158 15.918385
12999 610 2 38.742322 -38.723481 12.139927
13000 610 2 40.612265 -37.731789 16.558055
13001 611 2 -4.399844 -15.176643 32.470808
13002 611 3 -1.774223 -13.984275 33.298079
13003 611 2 -4.822051 -17.768864 33.920680
13004 611 2 -4.383439 -15.676477 29.512785
13005 611 2 -6.619661 -13.276955 33.151687
13006 612 2 4.655575 0.138012 43.785463
13007 612 3 2.119023 1.649621 44.315505
13008 612 2 6.550217 0.528646 46.078439
13009 612 2 5.917331 1.155797 41.261164
13010 612 2 4.035729 -2.782015 43.486746
13011 613 2 -44.492593 -23.333587 -35.932305
13012 613 2 -47.249447 -23.473310 -37.107138
13013 613 3 -42.772050 -21.554488 -37.627751
13014 613 2 -43.302680 -26.086084 -35.843637
13015 613 2 -44.646196 -22.220465 -33.150693
13016 614 2 0.620129 -41.314201 29.322813
13017 614 2 -2.378796 -41.285359 29.247875
13018 614 3 1.552614 -41.006310 32.157539
13019 614 2 1.683611 -39.048673 27.668609
13020 614 2 1.623087 -43.916461 28.217227
13021 615 2 -27.444939 29.955650 26.251599
13022 615 2 -25.713391 28.103355 27.854954
13023 615 2 -29.453140 31.261385 28.057750
13024 615 3 -28.876739 28.396623 24.125715
13025 615 2 -25.736484 32.061237 24.967977
13026 616 2 6.320520 -44.165977 -30.640597
13027 616 2 6.388414 -46.673871 -28.995648
13028 616 2 4.708688 -42.076992 -29.212963
13029 616 3 5.066962 -44.749891 -33.302859
13030 616 2 9.118016 -43.163154 -31.050920
13031 617 2 -26.508139 27.390523 -41.052846
13032 617 2 -24.496996 25.600120 -42.375630
13033 617 3 -25.204238 28.851753 -38.780260
13034 617 2 -28.782259 25.737820 -40.005490
13035 617 2 -27.549064 29.372400 -43.050004
13036 618 2 -18.726223 -6.432301 31.714115
13037 618 2 -17.804196 -8.970734 33.020339
13038 618 2 -19.670709 -4.511758 33.816367
13039 618 3 -20.979675 -7.039045 29.828958
13040 618 2 -16.450313 -5.207665 30.190796
13041 619 2 33.370782 -8.524419 19.329366
13042 619 2 32.098172 -6.746121 21.383172
13043 619 3 31.892324 -8.269098 16.731488
13044 619 2 33.261320 -11.372166 20.266572
13045 619 2 36.231314 -7.710291 18.936232
13046 620 2 10.171478 -29.046011 -35.465704
13047 620 3 10.794381 -26.112321 -35.539565
13048 620 2 9.908005 -30.083233 -38.268337
13049 620 2 7.596144 -29.484667 -33.990835
13050 620 2 12.387381 -30.503823 -34.064077
13051 621 2 -0.636211 41.502399 -16.589960
13052 621 2 -0.697996 38.665148 -15.617238
13053 621 3 -2.607351 43.138113 -15.028216
13054 621 2 -1.358195 41.577525 -19.500818
13055 621 2 2.118699 42.628810 -16.213569
13056 622 2 2.012809 36.588889 8.039597
13057 622 2 1.616040 33.620283 7.866529
13058 622 2 3.391077 37.559917 5.558169
13059 622 2 3.697063 37.234603 10.436750
13060 622 3 -0.652944 37.940753 8.296939
13061 623 2 -13.264894 38.949434 -22.846871
13062 623 3 -15.427880 41.026061 -22.942322
13063 623 2 -12.523153 38.408650 -19.990759
13064 623 2 -10.857017 39.944430 -24.334188
13065 623 2 -14.251525 36.418593 -24.120215
13066 624 2 -42.685035 -19.720607 -7.498011
13067 624 2 -42.198002 -19.382074 -10.438792
13068 624 2 -45.098047 -21.452666 -7.076889
13069 624 3 -43.151288 -17.034572 -6.245884
13070 624 2 -40.292802 -21.013116 -6.230477
13071 625 2 -29.321568 44.121524 -17.938725
13072 625 2 -28.968700 47.097723 -17.805605
13073 625 2 -29.614465 43.276334 -20.802266
13074 625 2 -31.779300 43.336456 -16.407966
13075 625 3 -26.923809 42.775581 -16.739063
13076 626 2 -33.163786 -34.056986 3.276245
13077 626 2 -35.692006 -32.839393 2.215316
13078 626 2 -33.799034 -36.653817 4.637468
13079 626 3 -31.898914 -32.179347 5.244637
13080 626 2 -31.265191 -34.555387 1.007560
13081 627 2 37.424573 23.014273 -39.919811
13082 627 2 37.513560 22.730200 -42.905005
13083 627 3 39.732567 21.531919 -38.704990
13084 627 2 34.849041 21.877363 -38.883437
13085 627 2 37.603125 25.917610 -39.185812
13086 628 2 -35.263525 -0.063099 12.455241
13087 628 3 -38.148094 -0.544635 11.786372
13088 628 2 -33.578864 -0.541303 10.019418
13089 628 2 -34.417309 -1.936833 14.639970
13090 628 2 -34.909834 2.770373 13.375206
13091 629 2 2.360126 8.568686 -41.412676
13092 629 2 4.048728 8.433882 -43.888652
13093 629 3 0.938513 5.955022 -41.028264
13094 629 2 0.343550 10.771638 -41.696266
13095 629 2 4.109715 9.114204 -39.037524
13096 630 2 9.275248 -15.975931 -0.782840
13097 630 2 7.810507 -18.131065 0.703742
13098 630 2 7.629189 -13.467849 -0.786739
13099 630 2 9.756757 -16.860442 -3.608754
13100 630 3 11.904539 -15.444367 0.560390
13101 631 2 -12.361218 -30.396019 -38.712797
13102 631 3 -14.599177 -29.769575 -36.815665
13103 631 2 -12.436566 -33.310330 -39.420692
13104 631 2 -9.736544 -29.750682 -37.411019
13105 631 2 -12.672586 -28.753491 -41.203810
13106 632 2 24.445359 -14.626427 38.150801
13107 632 2 25.940410 -17.224503 38.029056
13108 632 3 24.487708 -13.320805 35.450142
13109 632 2 25.748038 -12.816127 40.157250
13110 632 2 21.605279 -15.144273 38.966755
13111 633 2 -4.455531 22.560985 -40.641772
13112 633 2 -2.817549 24.707747 -39.334704
13113 633 3 -4.278080 20.042006 -39.022125
13114 633 2 -3.409068 22.048206 -43.406184
13115 633 2 -7.317426 23.445979 -40.804075
13116 634 2 9.842507 -37.990597 32.655390
13117 634 2 9.132812 -39.779443 34.956773
13118 634 2 12.492934 -36.687554 33.182003
13119 634 2 7.734523 -35.878991 32.343104
13120 634 3 10.009761 -39.616399 30.139681
13121 635 2 -2.298214 -16.058444 40.809045
13122 635 2 -3.029690 -18.850165 41.628334
13123 635 3 -1.158206 -14.591300 43.164437
13124 635 2 -4.747684 -14.629172 39.830638
13125 635 2 -0.257277 -16.163138 38.612772
13126 636 2 -23.145839 44.252917 -16.915403
13127 636 2 -22.568618 41.351086 -17.411579
13128 636 2 -23.120708 44.786997 -13.963433
13129 636 2 -25.843343 44.941309 -18.033254
13130 636 3 -21.050688 45.932278 -18.253345
13131 637 2 -6.351034 9.382540 -2.586670
13132 637 2 -5.521725 12.032877 -1.451786
13133 637 3 -9.277678 8.952390 -2.086940
13134 637 2 -4.779109 7.194005 -1.267819
13135 637 2 -5.825626 9.350888 -5.540133
13136 638 2 12.384753 40.985740 -43.676120
13137 638 2 11.588122 40.610948 -40.808209
13138 638 3 11.839245 43.817274 -44.503667
13139 638 2 10.801145 39.115437 -45.406482
13140 638 2 15.310498 40.399300 -43.986120
13141 639 2 -2.294755 -3.268025 -32.172457
13142 639 2 -5.178795 -3.963340 -31.726530
13143 639 2 -0.638389 -4.390031 -29.936936
13144 639 2 -1.985199 -0.284959 -32.246587
13145 639 3 -1.376638 -4.433769 -34.779774
13146 640 2 -41.997872 21.423142 -10.432975
13147 640 2 -44.738622 22.273300 -9.558037
13148 640 2 -42.104775 18.606296 -11.459596
13149 640 2 -40.114539 21.567236 -8.102247
13150 640 3 -41.033550 23.245735 -12.612021
13151 641 2 38.234805 21.000616 -22.002902
13152 641 2 37.018493 18.874633 -20.270625
13153 641 3 39.810862 22.899799 -20.297280
13154 641 2 36.058445 22.501023 -23.421435
13155 641 2 40.051419 19.727008 -24.022268
13156 642 2 20.671148 41.253412 -14.954201
13157 642 3 22.157950 41.052387 -17.552086
13158 642 2 22.618708 41.133066 -12.675489
13159 642 2 18.731477 38.975506 -14.733248
13160 642 2 19.176456 43.852691 -14.855979
13161 643 2 -29.302220 24.221071 42.049730
13162 643 2 -29.726355 21.291970 42.540119
13163 643 2 -31.065925 25.123504 39.796963
13164 643 3 -26.431205 24.708906 41.329113
13165 643 2 -29.985395 25.759903 44.532726
13166 644 2 0.320817 -4.349885 12.181685
13167 644 2 0.800744 -2.583528 9.804785
13168 644 3 2.779449 -4.404235 13.899874
13169 644 2 -0.309645 -7.130927 11.249846
13170 644 2 -1.987281 -3.280850 13.772235
13171 645 2 -44.350465 -5.831526 24.897279
13172 645 2 -41.889031 -7.530136 25.134065
13173 645 2 -44.185833 -3.555358 26.844574
13174 645 3 -46.773932 -7.492712 25.503309
13175 645 2 -44.553064 -4.747900 22.107171
13176 646 2 -22.912990 -43.783358 1.182573
13177 646 2 -20.485270 -43.870081 -0.577728
13178 646 3 -22.439425 -45.463097 3.622698
13179 646 2 -25.278288 -44.850864 -0.322683
13180 646 2 -23.448975 -40.949388 2.008004
13181 647 2 23.252350 7.767047 -38.461011
13182 647 2 23.542576 10.696215 -39.040447
13183 647 2 23.950580 6.188324 -40.914601
13184 647 3 20.419348 7.180597 -37.667173
13185 647 2 25.096894 7.003053 -36.221822
13186 648 2 30.294170 -4.128282 -24.537338
13187 648 3 30.965472 -7.051755 -24.485778
13188 648 2 27.835375 -3.696045 -26.200917
13189 648 2 32.585435 -2.596879 -25.722628
13190 648 2 29.790400 -3.168448 -21.740030
13191 649 2 5.726437 -41.020108 25.476421
13192 649 3 3.015030 -40.009021 26.267609
13193 649 2 7.677290 -40.490182 27.693029
13194 649 2 6.632654 -39.610073 22.988335
13195 649 2 5.580772 -43.971156 24.956710
13196 650 2 7.633358 -8.190022 -0.808540
13197 650 3 4.875686 -8.941728 -1.719683
13198 650 2 9.485018 -8.131873 -3.168196
13199 650 2 8.613702 -10.208730 1.182376
13200 650 2 7.559028 -5.477758 0.471341
13201 651 2 40.819134 -33.238635 -41.221680
13202 651 2 39.338988 -30.640070 -41.459635
13203 651 2 40.038224 -35.045256 -43.485814
13204 651 2 40.127144 -34.548388 -38.612907
13205 651 3 43.772183 -32.720828 -41.328366
13206 652 2 -11.553866 -23.655018 23.025714
13207 652 2 -14.553046 -23.725150 23.027857
13208 652 2 -10.549006 -23.764869 25.850282
13209 652 3 -10.613823 -21.118927 21.727809
13210 652 2 -10.499591 -26.011128 21.496907
13211 653 2 -20.767069 1.090260 -18.682295
13212 653 2 -22.524436 3.308119 -17.685919
13213 653 3 -20.792837 -1.169300 -16.709042
13214 653 2 -17.962230 2.104745 -19.004318
13215 653 2 -21.788773 0.117475 -21.329899
13216 654 2 38.662788 20.503118 30.759049
13217 654 2 37.236783 23.125498 30.459660
13218 654 3 38.302044 19.482375 33.556895
13219 654 2 41.585958 20.885218 30.203100
13220 654 2 37.526367 18.519383 28.816540
13221 655 2 27.429072 5.021590 -18.056166
13222 655 2 30.258892 5.966092 -17.739887
13223 655 3 26.713662 4.964168 -20.969049
13224 655 2 25.582899 6.892263 -16.609711
13225 655 2 27.160834 2.263837 -16.906015
13226 656 2 21.034433 34.966597 -28.710605
13227 656 2 19.740145 37.038950 -26.969867
13228 656 2 22.487290 36.316926 -30.961342
13229 656 2 18.930124 33.144387 -29.829279
13230 656 3 22.980174 33.366124 -27.081931
13231 657 2 6.224462 19.283971 20.706432
13232 657 2 7.898575 16.795702 20.629862
13233 657 2 5.868893 20.162814 23.552694
13234 657 2 3.540142 18.721016 19.490904
13235 657 3 7.590237 21.456350 19.152269
13236 658 2 -36.326446 22.377055 8.763194
13237 658 2 -35.691839 19.806676 7.352369
13238 658 2 -36.079821 21.978661 11.726378
13239 658 3 -39.128012 23.218157 8.097028
13240 658 2 -34.406113 24.504725 7.877002
13241 659 2 -13.441786 23.310818 -0.893927
13242 659 2 -11.798534 25.156143 -2.595249
13243 659 2 -15.827238 24.788141 0.167742
13244 659 2 -11.779580 22.317441 1.397421
13245 659 3 -14.361793 20.981549 -2.545620
13246 660 2 4.555771 1.201474 -9.801423
13247 660 2 6.839777 -0.638785 -9.171532
13248 660 2 4.016241 1.152082 -12.752096
13249 660 2 5.260021 3.993678 -8.960217
13250 660 3 2.107046 0.298920 -8.321849
13251 661 2 -2.393909 26.937316 42.965666
13252 661 2 -1.176741 29.592124 43.651593
13253 661 2 -2.153039 25.089421 45.316679
13254 661 2 -0.955264 25.755487 40.613309
13255 661 3 -5.290594 27.312232 42.281080
13256 662 2 -34.554353 -38.580550 -29.587213
13257 662 2 -34.234149 -35.953838 -31.000666
13258 662 3 -32.530122 -38.782958 -27.382328
13259 662 2 -34.137269 -40.822457 -31.536545
13260 662 2 -37.315874 -38.762949 -28.429312
13261 663 2 -7.750582 24.038139 -8.856614
13262 663 2 -8.495871 21.298776 -9.826372
13263 663 2 -9.613594 26.063219 -10.051704
13264 663 2 -4.934460 24.659703 -9.683122
13265 663 3 -7.958404 24.130860 -5.865258
13266 664 2 1.967676 -36.012300 -20.277634
13267 664 3 -0.020367 -38.169735 -20.904659
13268 664 2 4.639646 -36.750596 -21.424583
13269 664 2 2.206393 -35.706312 -17.302842
13270 664 2 1.045031 -33.422558 -21.478450
13271 665 2 -10.454232 26.281735 43.273772
13272 665 2 -10.209953 28.977703 44.566862
13273 665 3 -7.716700 25.184389 42.724458
13274 665 2 -11.963026 26.543034 40.693992
13275 665 2 -11.927251 24.421813 45.109775
13276 666 2 -4.881888 43.584267 33.784583
13277 666 2 -5.459956 46.524425 33.638606
13278 666 2 -4.744864 42.733525 36.658163
13279 666 2 -2.258263 43.013311 32.446449
13280 666 3 -7.064467 42.065808 32.395113
13281 667 2 -40.758108 16.088701 17.234446
13282 667 2 -40.493327 18.559461 18.915291
13283 667 3 -40.628742 16.835342 14.331725
13284 667 2 -43.387822 14.764643 17.810185
13285 667 2 -38.522541 14.195359 17.880584
13286 668 2 12.330187 42.454062 23.945549
13287 668 3 14.637869 40.587167 23.510453
13288 668 2 9.757331 41.002612 23.422381
13289 668 2 12.562420 44.784907 22.071188
13290 668 2 12.363129 43.441561 26.778173
13291 669 2 -15.908631 39.444489 27.082453
13292 669 2 -13.581969 40.971456 25.962178
13293 669 3 -18.140472 39.409937 25.078035
13294 669 2 -16.850757 40.766314 29.605383
13295 669 2 -15.061325 36.630247 27.684215
13296 670 2 -15.614424 -11.948503 -20.312757
13297 670 2 -16.093893 -10.712882 -17.621410
13298 670 2 -18.199980 -12.077716 -21.828740
13299 670 2 -14.522263 -14.720319 -19.960305
13300 670 3 -13.641559 -10.283095 -21.840573
13301 671 2 -8.462457 15.967905 40.297802
13302 671 2 -6.795249 14.110946 41.962770
13303 671 3 -11.299045 15.910858 41.272744
13304 671 2 -8.372973 15.092324 37.429815
13305 671 2 -7.382560 18.757494 40.525879
13306 672 2 -16.339781 4.519541 10.806970
13307 672 2 -16.564331 7.170422 12.193479
13308 672 3 -16.744791 2.312218 12.797873
13309 672 2 -13.617994 4.264710 9.571278
13310 672 2 -18.432009 4.330813 8.665250
13311 673 2 -11.733578 5.407407 -9.670438
13312 673 2 -9.108278 6.020550 -10.986438
13313 673 3 -11.512821 5.902379 -6.719799
13314 673 2 -12.446308 2.533318 -10.151713
13315 673 2 -13.866904 7.173383 -10.823802
13316 674 2 -5.714952 7.101106 44.358637
13317 674 2 -5.600637 4.103423 44.329890
13318 674 2 -5.432450 8.139506 41.558294
13319 674 2 -3.481448 8.170815 46.051913
13320 674 3 -8.345273 7.990681 45.494449
13321 675 2 18.938046 -13.734305 32.322844
13322 675 2 21.295499 -12.012133 31.632526
13323 675 2 16.487375 -12.667813 30.960196
13324 675 3 18.519744 -13.712938 35.293461
13325 675 2 19.449564 -16.544334 31.405193
13326 676 2 -39.588364 -34.394051 -29.079858
13327 676 2 -40.399853 -37.235517 -29.597116
13328 676 2 -38.397807 -33.224459 -31.572774
13329 676 3 -37.558415 -34.319870 -26.872189
13330 676 2 -41.997381 -32.796359 -28.277354
13331 677 2 -7.428248 -13.023170 -20.780014
13332 677 2 -5.463144 -15.276001 -21.031244
13333 677 2 -8.292150 -12.764154 -17.918793
13334 677 2 -9.820821 -13.586714 -22.499902
13335 677 3 -6.136879 -10.465812 -21.670117
13336 678 2 -25.189372 -7.233067 -35.100839
13337 678 2 -26.559176 -4.648298 -35.766124
13338 678 2 -23.619243 -8.173441 -37.477894
13339 678 3 -27.243795 -9.296765 -34.379384
13340 678 2 -23.335275 -6.813764 -32.779954
13341 679 2 43.937803 0.647743 22.102436
13342 679 3 43.266624 2.781604 20.103398
13343 679 2 45.779436 1.773155 24.186143
13344 679 2 45.285569 -1.640927 20.707617
13345 679 2 41.419582 -0.322862 23.412585
13346 680 2 29.423844 -8.121674 -30.725672
13347 680 3 27.820625 -7.255226 -33.108729
13348 680 2 29.431984 -5.931213 -28.675839
13349 680 2 32.240973 -8.707046 -31.574862
13350 680 2 28.201793 -10.593210 -29.543259
13351 681 2 -13.468970 -0.383735 42.788959
13352 681 2 -13.228990 -2.649361 44.740714
13353 681 2 -16.246002 0.745360 42.904004
13354 681 3 -12.911846 -1.388085 40.017516
13355 681 2 -11.489041 1.757144 43.493601
13356 682 2 -31.681511 5.841943 -32.423777
13357 682 2 -30.285135 5.150931 -29.860061
13358 682 2 -32.140676 3.342185 -34.017634
13359 682 2 -29.982154 7.739990 -34.007949
13360 682 3 -34.318078 7.134665 -31.809463
13361 683 2 30.226448 8.403619 12.078306
13362 683 2 29.662025 5.566054 12.871812
13363 683 2 30.906072 10.008514 14.520113
13364 683 3 27.801053 9.573488 10.755859
13365 683 2 32.536642 8.466420 10.165439
13366 684 2 -17.273219 -2.536713 -44.413865
13367 684 2 -18.561632 -0.240144 -45.851141
13368 684 2 -15.608350 -4.117548 -46.344971
13369 684 2 -19.397597 -4.303587 -43.245456
13370 684 3 -15.525299 -1.485575 -42.213891
13371 685 2 -44.480652 -33.707018 40.111985
13372 685 3 -43.616136 -35.908989 41.956961
13373 685 2 -47.435220 -33.269255 40.392862
13374 685 2 -43.847319 -34.468609 37.280224
13375 685 2 -43.023934 -31.181217 40.817892
13376 686 2 34.124681 42.499503 -41.501954
13377 686 2 33.848727 45.360214 -40.641615
13378 686 2 34.108661 42.350368 -44.498202
13379 686 2 31.833358 40.901052 -40.408889
13380 686 3 36.707980 41.386378 -40.459110
13381 687 2 -43.029325 -35.283356 -18.612870
13382 687 2 -41.264858 -34.909240 -21.010096
13383 687 2 -41.548945 -34.446920 -16.141261
13384 687 2 -43.805989 -38.172017 -18.383895
13385 687 3 -45.497507 -33.605248 -18.916229
13386 688 2 13.946440 37.508108 44.278602
13387 688 2 16.098215 37.514092 46.369014
13388 688 3 11.262014 37.338659 45.607189
13389 688 2 14.317314 35.144653 42.468482
13390 688 2 14.108215 40.035029 42.669721
13391 689 2 -35.564035 8.079498 31.572546
13392 689 3 -33.968634 9.819927 29.721708
13393 689 2 -37.884017 9.639551 32.660626
13394 689 2 -33.821551 7.167684 33.838014
13395 689 2 -36.581938 5.690830 30.069836
13396 690 2 9.731971 0.240134 -22.239363
13397 690 3 9.915817 1.150507 -25.091979
13398 690 2 11.495088 -2.153679 -21.838019
13399 690 2 6.892707 -0.491337 -21.604121
13400 690 2 10.624271 2.455045 -20.423332
13401 691 2 -5.607534 -2.702605 41.925954
13402 691 2 -7.045760 -4.030467 44.199341
13403 691 2 -7.608862 -1.660449 39.948937
13404 691 2 -3.813861 -4.693982 40.577935
13405 691 3 -3.961652 -0.425522 42.977602
13406 692 2 -21.671748 -15.320596 -12.174092
13407 692 3 -21.906926 -17.805617 -13.838233
13408 692 2 -19.264511 -15.531729 -10.396275
13409 692 2 -24.134545 -15.008250 -10.489733
13410 692 2 -21.381008 -12.936789 -13.972128
13411 693 2 13.410330 -8.085738 -6.296277
13412 693 2 15.426207 -10.144345 -7.131968
13413 693 3 11.403675 -7.701666 -8.493052
13414 693 2 14.803849 -5.486002 -5.749032
13415 693 2 12.007591 -9.010940 -3.811056
13416 694 2 32.769833 -24.131894 37.552862
13417 694 2 33.840984 -26.929283 37.387792
13418 694 3 30.325129 -24.098154 39.291333
13419 694 2 32.054339 -23.171136 34.802405
13420 694 2 34.858882 -22.329003 38.729918
13421 695 2 -7.950410 -28.439899 -25.245355
13422 695 2 -7.306253 -28.145851 -28.160590
13423 695 3 -10.424803 -30.106831 -24.931163
13424 695 2 -8.411438 -25.729542 -24.044765
13425 695 2 -5.659145 -29.777373 -23.844901
13426 696 2 17.200787 4.810852 23.099571
13427 696 2 14.950777 6.791674 23.217052
13428 696 2 17.899308 4.259699 20.234559
13429 696 2 16.356967 2.258819 24.431899
13430 696 3 19.596094 5.933216 24.514776
13431 697 2 -1.766551 -29.783394 -19.815773
13432 697 2 -2.746441 -31.534514 -22.045884
13433 697 2 1.043319 -30.553471 -19.100504
13434 697 2 -3.538871 -30.129400 -17.420118
13435 697 3 -1.824211 -26.916193 -20.696586
13436 698 2 11.198731 -3.803071 -16.497061
13437 698 2 10.060719 -6.577346 -16.405789
13438 698 2 10.835152 -2.484720 -13.826900
13439 698 2 9.776355 -2.207499 -18.602054
13440 698 3 14.122698 -3.942721 -17.153501
13441 699 2 -21.474687 -8.771382 -22.407471
13442 699 3 -23.040655 -7.045346 -24.296530
13443 699 2 -19.106347 -7.240574 -21.383954
13444 699 2 -20.531105 -11.228631 -23.846770
13445 699 2 -23.220643 -9.570978 -20.102632
13446 700 2 29.274376 13.616983 -10.355356
13447 700 2 29.168972 10.619505 -10.418695
13448 700 3 31.752560 14.500216 -8.913654
13449 700 2 26.856635 14.672662 -8.927045
13450 700 2 29.319338 14.675550 -13.162029
13451 701 2 -22.018088 -43.978004 -12.224544
13452 701 2 -24.453061 -45.699736 -12.550954
13453 701 2 -21.151386 -44.005782 -9.352601
13454 701 3 -22.663987 -41.166179 -13.047015
13455 701 2 -19.803918 -45.040317 -13.947606
13456 702 2 31.515372 3.001510 40.176668
13457 702 3 29.654297 5.277714 39.580598
13458 702 2 30.141634 1.030945 41.973809
13459 702 2 33.974573 4.050578 41.537471
13460 702 2 32.290983 1.646804 37.614794
13461 703 2 38.891003 -4.507810 23.175491
13462 703 2 41.666388 -3.519459 23.741533
13463 703 2 37.062138 -3.685473 25.406862
13464 703 3 38.920009 -7.499733 22.957426
13465 703 2 37.915478 -3.326573 20.596145
13466 704 2 5.241210 41.720183 -43.429096
13467 704 2 4.186137 43.008087 -45.924717
13468 704 2 6.505547 43.807554 -41.684294
13469 704 2 7.289062 39.653108 -44.159507
13470 704 3 2.984094 40.411984 -41.947867
13471 705 2 16.617939 18.429858 32.191319
13472 705 2 18.447543 20.758924 32.668811
13473 705 2 18.114386 15.871308 32.654419
13474 705 2 15.618946 18.506279 29.363568
13475 705 3 14.290879 18.582922 34.078477
13476 706 2 -32.046987 -29.215953 36.111770
13477 706 2 -30.851536 -30.543262 38.521988
13478 706 2 -31.106296 -26.370919 35.967256
13479 706 2 -35.039174 -29.270439 36.321167
13480 706 3 -31.190941 -30.679191 33.636670
13481 707 2 29.171470 -12.948106 25.433209
13482 707 2 30.109653 -15.444213 26.807713
13483 707 2 30.487952 -12.731022 22.746250
13484 707 3 29.894128 -10.558524 27.096839
13485 707 2 26.194147 -13.058664 25.082033
13486 708 2 11.103394 -18.179692 -40.704802
13487 708 3 14.093431 -18.423877 -40.697525
13488 708 2 10.141479 -17.589714 -37.925117
13489 708 2 9.892153 -20.753891 -41.656849
13490 708 2 10.286513 -15.951284 -42.539715
13491 709 2 31.969833 -41.875283 2.487603
13492 709 2 31.250047 -38.962970 2.506171
13493 709 3 32.226943 -42.859840 5.309755
13494 709 2 34.579066 -42.251384 1.055663
13495 709 2 29.823276 -43.426938 1.078823
13496 710 2 34.262012 2.322037 33.550311
13497 710 3 34.911466 5.235473 33.250145
13498 710 2 33.635994 1.154557 30.858640
13499 710 2 31.885337 2.007941 35.353852
13500 710 2 36.615250 0.890177 34.738606
13501 711 2 -8.254450 -20.482406 33.463123
13502 711 2 -7.374186 -19.424555 30.797399
13503 711 2 -9.745945 -18.342553 34.945174
13504 711 2 -5.849575 -21.310114 35.054185
13505 711 3 -10.048093 -22.852402 33.055736
13506 712 2 36.312417 21.595089 -13.617979
13507 712 3 34.435308 20.051025 -11.859478
13508 712 2 38.416949 22.904420 -11.927832
13509 712 2 34.780688 23.696640 -15.113737
13510 712 2 37.616723 19.728273 -15.570870
13511 713 2 5.558597 -27.304239 -18.378072
13512 713 2 4.602181 -26.089502 -15.807142
13513 713 2 8.557829 -27.279031 -18.441126
13514 713 2 4.496371 -25.715700 -20.690694
13515 713 3 4.578009 -30.132723 -18.573326
13516 714 2 -43.266279 -2.489286 -29.447695
13517 714 2 -41.444971 -0.106117 -29.505474
13518 714 2 -46.089499 -1.579609 -28.998342
13519 714 2 -42.441013 -4.324876 -27.222937
13520 714 3 -43.089634 -3.946545 -32.064028
13521 715 2 -25.089594 15.937649 -26.988277
13522 715 3 -22.423418 14.575259 -26.800128
13523 715 2 -26.409452 15.928774 -24.294229
13524 715 2 -26.821808 14.478098 -28.955292
13525 715 2 -24.703697 18.768466 -27.903460
13526 716 2 22.133128 -28.332508 14.803017
13527 716 3 22.296470 -25.386828 15.347343
13528 716 2 21.292483 -28.778603 11.957966
13529 716 2 20.122602 -29.580242 16.647183
13530 716 2 24.820956 -29.584359 15.259577
13531 717 2 -30.685575 -17.677239 -20.158505
13532 717 2 -27.800891 -18.422016 -20.510512
13533 717 2 -31.135391 -14.899646 -21.199006
13534 717 3 -31.397055 -17.781476 -17.245958
13535 717 2 -32.408962 -19.605819 -21.678544
13536 718 2 27.421371 -16.429582 19.639426
13537 718 2 29.195807 -14.828658 17.826026
13538 718 2 29.100508 -18.263950 21.317398
13539 718 2 25.509794 -18.051377 17.991503
13540 718 3 25.879377 -14.574342 21.422776
13541 719 2 32.087466 4.420745 28.220256
13542 719 2 29.671656 6.141386 28.671098
13543 719 3 34.546185 5.899813 29.096074
13544 719 2 32.308540 3.751668 25.304186
13545 719 2 31.823483 1.890114 29.809665
13546 720 2 -16.314203 14.524801 29.885409
13547 720 2 -13.949797 15.005220 31.668322
13548 720 2 -18.762682 14.096649 31.565182
13549 720 3 -15.818845 12.091956 28.201400
13550 720 2 -16.725489 16.905378 28.106731
13551 721 2 -18.877722 0.715667 -37.392803
13552 721 2 -17.470936 -1.873810 -36.831054
13553 721 2 -18.816561 1.267880 -40.340907
13554 721 3 -17.497484 2.941454 -35.929651
13555 721 2 -21.725907 0.527143 -36.469600
13556 722 2 -3.890874 -15.023324 -40.231605
13557 722 2 -5.032988 -14.332985 -37.544784
13558 722 3 -3.053340 -12.509296 -41.638090
13559 722 2 -5.968800 -16.439620 -41.867554
13560 722 2 -1.508368 -16.811396 -39.875991
13561 723 2 4.294571 1.618966 -32.077336
13562 723 2 3.513939 2.465472 -29.307130
13563 723 2 6.967494 2.794123 -32.766169
13564 723 2 2.240338 2.590416 -34.036012
13565 723 3 4.456513 -1.374146 -32.200034
13566 724 2 18.478795 -21.246144 32.574727
13567 724 2 19.814949 -20.877605 29.914112
13568 724 2 15.505789 -21.368535 32.192296
13569 724 2 19.162533 -18.938281 34.365333
13570 724 3 19.431911 -23.800154 33.827165
13571 725 2 -44.009760 -22.077455 38.646668
13572 725 2 -45.190992 -19.321542 38.744842
13573 725 2 -43.628065 -22.900557 35.787156
13574 725 3 -45.861589 -24.008113 40.004345
13575 725 2 -41.358396 -22.079606 40.050329
13576 726 2 34.450430 -14.824947 16.622895
13577 726 3 35.274017 -16.532871 14.298094
13578 726 2 32.780529 -12.534939 15.639385
13579 726 2 36.895346 -13.761469 17.998179
13580 726 2 32.851830 -16.470510 18.555924
13581 727 2 -6.310824 -26.629982 41.364724
13582 727 3 -8.513299 -28.655038 41.584385
13583 727 2 -5.882514 -25.927309 38.479797
13584 727 2 -3.781818 -27.775867 42.500980
13585 727 2 -7.065665 -24.161714 42.893733
13586 728 2 33.493123 8.891103 3.566557
13587 728 2 33.938882 11.594080 2.343766
13588 728 3 30.741288 7.920115 2.870434
13589 728 2 33.760241 9.086053 6.548275
13590 728 2 35.532082 6.964164 2.503751
13591 729 2 -42.793843 25.860125 -44.163457
13592 729 3 -40.577717 23.849711 -44.380297
13593 729 2 -43.554882 26.809220 -46.905726
13594 729 2 -41.870482 28.192764 -42.518403
13595 729 2 -45.172290 24.588807 -42.849403
13596 730 2 21.650707 -20.211016 -29.554602
13597 730 2 19.411319 -18.426436 -30.449264
13598 730 2 22.837429 -19.131945 -27.019391
13599 730 3 23.761776 -20.310431 -31.683804
13600 730 2 20.592302 -22.975251 -29.065949
13601 731 2 -21.013806 37.994462 28.826185
13602 731 2 -20.364807 36.669230 26.214182
13603 731 2 -23.188375 40.018325 28.407587
13604 731 2 -18.564846 39.363239 29.888750
13605 731 3 -21.937195 35.927052 30.794222
13606 732 2 4.016181 40.994770 23.004977
13607 732 3 2.242951 38.763597 23.941739
13608 732 2 5.481690 42.158997 25.349515
13609 732 2 2.345131 43.124685 21.712284
13610 732 2 5.994952 39.931800 21.016369
13611 733 2 -15.641137 30.658514 16.266097
13612 733 2 -14.544339 29.902217 13.578152
13613 733 2 -18.431001 29.591110 16.544138
13614 733 2 -15.683551 33.647107 16.523996
13615 733 3 -13.905656 29.493621 18.418103
13616 734 2 -40.390181 26.552726 44.333331
13617 734 2 -38.468620 28.051712 46.082801
13618 734 3 -43.003172 26.224130 45.770099
13619 734 2 -39.256797 23.850911 43.688632
13620 734 2 -40.832134 28.084151 41.791793
13621 735 2 -14.762069 3.767170 -14.756280
13622 735 2 -16.085902 6.407038 -14.228492
13623 735 2 -15.978696 2.507640 -17.192138
13624 735 3 -15.156219 1.960754 -12.393758
13625 735 2 -11.827460 4.193247 -15.210732
13626 736 2 21.008588 38.794881 35.722100
13627 736 3 20.149453 35.945773 35.342011
13628 736 2 22.247876 39.812394 33.186586
13629 736 2 23.015532 38.945866 37.946821
13630 736 2 18.621492 40.475492 36.412983
13631 737 2 -26.366636 36.357003 -38.556887
13632 737 3 -25.551784 33.562259 -37.832030
13633 737 2 -24.952239 38.306675 -36.768519
13634 737 2 -29.332034 36.654826 -38.213784
13635 737 2 -25.630488 36.904253 -41.413214
13636 738 2 7.731605 24.259872 31.378996
13637 738 3 5.790359 24.066083 33.658034
13638 738 2 9.612977 21.924757 31.466615
13639 738 2 9.292915 26.811182 31.609489
13640 738 2 6.230167 24.237466 28.781847
13641 739 2 11.172652 -33.414788 0.095308
13642 739 2 13.868543 -33.885096 -1.133913
13643 739 3 9.254635 -32.497960 -2.021444
13644 739 2 11.396431 -31.310115 2.221402
13645 739 2 10.171000 -35.965982 1.315186
13646 740 2 36.608823 27.503444 0.352134
13647 740 2 39.058587 29.175535 -0.098164
13648 740 2 35.946411 27.467685 3.277870
13649 740 3 37.122726 24.702346 -0.591132
13650 740 2 34.307569 28.668210 -1.180037
13651 741 2 -5.514898 -42.546587 -9.650049
13652 741 2 -4.525362 -39.937518 -10.751674
13653 741 2 -7.019990 -44.025878 -11.782276
13654 741 3 -7.333489 -42.023758 -7.322093
13655 741 2 -3.180751 -44.199193 -8.744151
13656 742 2 20.384782 3.070923 41.426860
13657 742 2 20.090432 1.425860 43.918270
13658 742 2 23.036586 4.473315 41.462013
13659 742 3 18.180750 5.102445 41.303727
13660 742 2 20.231360 1.282073 39.023430
13661 743 2 12.567912 -14.536385 43.423262
13662 743 2 15.223049 -14.072016 42.106216
13663 743 3 12.966517 -16.096134 45.954723
13664 743 2 10.787374 -16.080537 41.567117
13665 743 2 11.294710 -11.896851 44.064993
13666 744 2 -39.642538 29.707701 34.786248
13667 744 2 -42.322600 29.589481 36.129115
13668 744 3 -38.952749 27.001442 33.690640
13669 744 2 -37.560924 30.539703 36.779902
13670 744 2 -39.733879 31.700177 32.545334
13671 745 2 -15.548494 -26.754839 -15.805073
13672 745 2 -18.121474 -25.228553 -15.580959
13673 745 2 -15.266223 -27.835720 -18.589317
13674 745 3 -15.559952 -29.027292 -13.846546
13675 745 2 -13.246329 -24.927791 -15.203469
13676 746 2 -24.530443 44.206380 -44.171269
13677 746 2 -24.332612 46.566582 -42.329990
13678 746 3 -23.603689 44.996509 -46.912952
13679 746 2 -27.380708 43.280388 -44.307371
13680 746 2 -22.804761 41.982042 -43.134765
13681 747 2 -0.608860 -12.249918 -36.904143
13682 747 2 1.898012 -10.658216 -36.477440
13683 747 2 -2.967113 -10.397544 -36.989886
13684 747 2 -0.950739 -14.200392 -34.650530
13685 747 3 -0.415599 -13.743520 -39.498715
13686 748 2 -27.072888 28.919347 -6.777843
13687 748 2 -25.569933 26.793540 -8.268504
13688 748 2 -26.694883 28.528962 -3.827468
13689 748 2 -29.991908 28.734714 -7.445105
13690 748 3 -26.034830 31.620172 -7.570295
13691 749 2 20.178173 3.396735 29.460932
13692 749 3 17.645659 4.954940 29.062969
13693 749 2 21.415192 2.800716 26.793621
13694 749 2 19.557652 0.823532 30.872873
13695 749 2 22.094187 5.007755 31.114263
13696 750 2 -0.405698 -9.226548 -27.147849
13697 750 2 -2.734215 -11.110097 -26.973922
13698 750 2 0.134194 -8.566845 -30.024185
13699 750 3 2.019454 -10.520949 -25.946529
13700 750 2 -1.042223 -6.708302 -25.646759
13701 751 2 10.153987 24.418364 -4.250046
13702 751 3 10.821862 22.726829 -6.635974
13703 751 2 7.670432 23.362732 -2.939473
13704 751 2 9.694793 27.249838 -5.128622
13705 751 2 12.428859 24.334056 -2.296114
13706 752 2 8.488344 -33.340021 -43.070640
13707 752 2 6.427466 -31.747340 -41.581967
13708 752 3 7.707744 -33.532171 -45.960924
13709 752 2 8.662799 -36.095244 -41.896625
13710 752 2 11.155366 -31.985329 -42.843044
13711 753 2 -11.796110 -6.592940 -1.966467
13712 753 2 -11.289902 -9.539876 -2.210032
13713 753 3 -12.176775 -5.879086 0.922392
13714 753 2 -14.266263 -5.871782 -3.508633
13715 753 2 -9.451500 -5.081016 -3.069595
13716 754 2 30.778019 36.910173 -43.239258
13717 754 2 29.568688 36.680751 -45.975110
13718 754 2 28.849032 35.849560 -41.201095
13719 754 3 31.374551 39.790182 -42.647903
13720 754 2 33.319806 35.320200 -43.132924
13721 755 2 12.943991 -43.979584 -24.088641
13722 755 3 10.336443 -45.124126 -25.032419
13723 755 2 13.348470 -41.270663 -25.312627
13724 755 2 15.187965 -45.793309 -24.910216
13725 755 2 12.903086 -43.730239 -21.099301
13726 756 2 15.988792 1.436054 34.493586
13727 756 2 14.507555 4.028105 34.788895
13728 756 2 15.788189 0.487480 31.654578
13729 756 2 14.786257 -0.616735 36.321144
13730 756 3 18.873165 1.845365 35.209725
13731 757 2 23.078281 -4.536159 11.666430
13732 757 2 24.658945 -7.085933 11.678728
13733 757 2 22.465954 -3.752832 8.835979
13734 757 2 24.674704 -2.363578 12.982230
13735 757 3 20.513521 -4.942291 13.168783
13736 758 2 43.161925 -15.203479 23.662266
13737 758 2 40.238986 -14.552127 23.482911
13738 758 2 44.154146 -14.595313 26.427340
13739 758 2 44.678687 -13.551498 21.669682
13740 758 3 43.575882 -18.114979 23.069132
13741 759 2 12.415333 -12.974589 -38.479310
13742 759 2 11.631625 -10.138502 -39.064472
13743 759 2 13.371543 -14.288463 -41.001094
13744 759 3 10.042536 -14.467740 -37.411446
13745 759 2 14.615629 -13.003649 -36.440228
13746 760 2 -23.939054 1.285726 20.558973
13747 760 2 -23.644492 -0.329682 23.069688
13748 760 3 -26.489222 0.525208 19.173963
13749 760 2 -21.614172 0.743147 18.742236
13750 760 2 -24.008329 4.204232 21.250004
13751 761 2 -37.209648 15.258399 41.267455
13752 761 2 -38.918234 13.096021 40.082189
13753 761 2 -38.275550 16.006595 43.970057
13754 761 3 -37.253435 17.663190 39.474395
13755 761 2 -34.391374 14.267790 41.543180
13756 762 2 16.044961 14.487291 19.481000
13757 762 3 16.943006 16.940452 20.955963
13758 762 2 13.565497 13.396718 20.770538
13759 762 2 18.213228 12.415974 19.571899
13760 762 2 15.458113 15.196020 16.625599
13761 763 2 12.029750 -38.352313 -29.741069
13762 763 3 12.389020 -41.319071 -30.004266
13763 763 2 10.895644 -37.252204 -32.291277
13764 763 2 14.684826 -37.068333 -29.191553
13765 763 2 10.149511 -37.769644 -27.477179
13766 764 2 -44.394257 -4.819872 10.155870
13767 764 2 -45.405906 -2.138547 9.268706
13768 764 2 -46.558893 -6.868611 9.813784
13769 764 3 -43.595587 -4.681700 13.044301
13770 764 2 -42.016644 -5.590631 8.496688
13771 765 2 -37.948890 -42.816556 37.711578
13772 765 3 -36.145688 -41.628354 39.794038
13773 765 2 -39.841085 -44.747892 39.011400
13774 765 2 -36.297517 -44.259098 35.664131
13775 765 2 -39.511269 -40.630878 36.376743
13776 766 2 -17.523903 43.023031 15.137752
13777 766 2 -14.876533 41.940084 14.232955
13778 766 3 -17.438221 43.533861 18.092699
13779 766 2 -19.680779 41.028452 14.529855
13780 766 2 -18.100078 45.589728 13.695500
13781 767 2 -6.356153 24.391512 28.954340
13782 767 3 -7.480118 27.172510 29.006806
13783 767 2 -6.046509 23.491583 26.109301
13784 767 2 -8.219374 22.532564 30.394034
13785 767 2 -3.678611 24.369392 30.307218
13786 768 2 -43.761230 -39.409028 -13.716952
13787 768 2 -45.644024 -41.211958 -12.232187
13788 768 2 -41.237694 -39.073321 -12.129795
13789 768 2 -45.051543 -36.731147 -14.121974
13790 768 3 -43.111658 -40.619687 -16.383853
13791 769 2 -32.257509 -43.204221 -1.648099
13792 769 3 -30.535439 -42.321605 0.644381
13793 769 2 -31.359959 -41.830830 -4.159712
13794 769 2 -35.116137 -42.489670 -1.084479
13795 769 2 -32.018503 -46.174777 -1.992584
13796 770 2 32.029663 -24.886069 15.292302
13797 770 2 34.858373 -23.916030 15.531932
13798 770 2 30.464812 -24.009558 17.697083
13799 770 3 32.010502 -27.881285 15.124035
13800 770 2 30.784964 -23.737403 12.816157
13801 771 2 -12.866403 34.154697 42.126866
13802 771 2 -15.672566 33.562997 41.246330
13803 771 2 -12.922452 36.124720 44.388695
13804 771 3 -11.320881 35.312020 39.830791
13805 771 2 -11.549715 31.619050 43.041649
13806 772 2 -23.033203 19.181948 -9.527000
13807 772 2 -20.246505 18.280712 -8.877318
13808 772 3 -23.948257 21.164377 -7.469659
13809 772 2 -24.876070 16.814707 -9.523811
13810 772 2 -23.061979 20.467997 -12.237212
13811 773 2 5.661462 25.427550 -33.365608
13812 773 3 7.829527 24.575279 -35.255881
13813 773 2 3.332269 23.551956 -33.604370
13814 773 2 4.777304 28.211898 -34.048012
13815 773 2 6.706748 25.371068 -30.554170
13816 774 2 -22.953318 -15.339906 17.133753
13817 774 2 -23.827795 -18.013938 16.092195
13818 774 3 -20.271565 -15.608242 18.451401
13819 774 2 -24.954764 -14.342423 19.133564
13820 774 2 -22.759148 -13.395021 14.857853
13821 775 2 24.447197 -27.657169 -13.518565
13822 775 3 26.077685 -29.429577 -11.729689
13823 775 2 25.295691 -24.804352 -13.142409
13824 775 2 21.542040 -27.936257 -12.824181
13825 775 2 24.873373 -28.458489 -16.377981
13826 776 2 -29.315783 2.512406 43.299652
13827 776 3 -32.156617 1.550681 43.368514
13828 776 2 -29.265789 5.436127 42.629309
13829 776 2 -27.792377 0.982669 41.216593
13830 776 2 -28.048347 2.080149 45.984194
13831 777 2 -34.004554 23.813432 -23.851285
13832 777 2 -31.974783 25.954043 -24.397008
13833 777 2 -34.603524 23.729025 -20.912900
13834 777 2 -32.917502 21.157959 -24.726946
13835 777 3 -36.522406 24.412701 -25.368287
13836 778 2 -35.898456 -3.929313 34.837994
13837 778 3 -34.552417 -4.299006 32.182527
13838 778 2 -37.571628 -6.341621 35.455460
13839 778 2 -37.649982 -1.495640 34.741087
13840 778 2 -33.819795 -3.580984 36.972903
13841 779 2 42.628169 -41.587255 35.348876
13842 779 2 45.256790 -40.341485 36.082641
13843 779 2 42.891936 -44.575373 35.388623
13844 779 3 41.829211 -40.690371 32.599828
13845 779 2 40.534740 -40.741792 37.324413
13846 780 2 12.425573 4.814790 -11.733433
13847 780 2 12.048301 7.691518 -10.970477
13848 780 2 11.876665 4.477023 -14.663385
13849 780 2 10.529906 3.105316 -10.157315
13850 780 3 15.247419 3.985302 -11.142556
13851 781 2 -34.209044 28.318976 13.260629
13852 781 3 -35.800736 28.562992 10.729429
13853 781 2 -31.395879 27.513613 12.599199
13854 781 2 -35.454848 26.240170 15.028831
13855 781 2 -34.184715 30.959130 14.685058
13856 782 2 -18.920575 43.518839 -22.248623
13857 782 2 -20.664855 45.959281 -22.290207
13858 782 2 -20.593269 41.085018 -22.776458
13859 782 3 -17.613161 43.269827 -19.560006
13860 782 2 -16.811013 43.761229 -24.367820
13861 783 2 28.645557 18.765257 -10.129102
13862 783 2 30.144738 21.318539 -9.646185
13863 783 2 27.613119 17.703085 -7.520297
13864 783 2 30.483128 16.746746 -11.373667
13865 783 3 26.341244 19.292659 -11.976258
13866 784 2 -35.290637 19.049949 35.575932
13867 784 2 -32.405984 19.710382 36.068485
13868 784 2 -36.656643 18.521335 38.194061
13869 784 2 -35.475650 16.609622 33.840831
13870 784 3 -36.624271 21.358455 34.200353
13871 785 2 -24.412880 -21.980016 22.713650
13872 785 2 -22.948815 -24.582438 23.003319
13873 785 2 -23.860668 -20.818250 20.003418
13874 785 2 -23.482091 -20.068060 24.829793
13875 785 3 -27.359947 -22.451314 23.018072
13876 786 2 24.551850 -6.908478 -3.239373
13877 786 2 22.845826 -5.242853 -5.060135
13878 786 2 23.189223 -9.528578 -2.711808
13879 786 3 24.962693 -5.455213 -0.647225
13880 786 2 27.209657 -7.407268 -4.538322
13881 787 2 -38.082238 -42.265510 -7.463179
13882 787 3 -36.301369 -44.380142 -8.628013
13883 787 2 -38.025984 -39.832866 -9.217909
13884 787 2 -37.111641 -41.541339 -4.718454
13885 787 2 -40.889956 -43.307694 -7.288341
13886 788 2 -34.174521 14.316753 -8.587913
13887 788 2 -33.519069 15.623110 -5.968025
13888 788 3 -37.135186 14.443178 -9.055331
13889 788 2 -33.293798 11.449663 -8.523723
13890 788 2 -32.750031 15.751063 -10.804574
13891 789 2 -36.685282 13.608779 6.944762
13892 789 3 -38.728663 15.738715 7.481390
13893 789 2 -34.488585 14.736900 5.241276
13894 789 2 -37.984104 11.315203 5.512082
13895 789 2 -35.539778 12.644299 9.544300
13896 790 2 -4.411028 5.384205 -6.591641
13897 790 2 -3.670305 8.266425 -6.971292
13898 790 2 -3.917929 3.880871 -9.140531
13899 790 2 -7.313440 5.185745 -5.859097
13900 790 3 -2.742439 4.203778 -4.395643
13901 791 2 23.328342 44.109541 21.178751
13902 791 2 21.403116 41.808787 21.185017
13903 791 2 22.049681 46.479820 19.857086
13904 791 2 25.803809 43.337929 19.669885
13905 791 3 24.056761 44.811626 24.003018
13906 792 2 3.832467 31.974347 -41.604899
13907 792 2 2.934287 29.113380 -41.514648
13908 792 2 3.890459 33.092536 -38.821683
13909 792 2 1.924799 33.568885 -43.283664
13910 792 3 6.580323 32.122586 -42.799602
13911 793 2 2.579085 42.635850 16.162369
13912 793 3 0.498888 40.885940 14.893277
13913 793 2 3.906357 41.147172 18.403393
13914 793 2 1.278098 45.114629 17.240834
13915 793 2 4.632998 43.395659 14.111971
13916 794 2 -22.213802 33.194962 -25.834151
13917 794 2 -23.195106 34.267027 -28.458598
13918 794 2 -23.991292 30.948038 -24.944284
13919 794 2 -22.261308 35.381119 -23.780262
13920 794 3 -19.407503 32.183663 -26.153461
13921 795 2 -2.957212 7.214996 31.508194
13922 795 2 -0.625939 8.047659 33.202844
13923 795 2 -1.966259 5.678877 29.129466
13924 795 2 -4.438624 9.652340 30.578261
13925 795 3 -4.798027 5.481109 33.122207
13926 796 2 35.103387 29.717853 12.383375
13927 796 2 35.471831 32.407485 11.106609
13928 796 2 35.796372 29.890680 15.297118
13929 796 3 36.898689 27.721302 11.045213
13930 796 2 32.246656 28.851945 12.084558
13931 797 2 -3.397325 -32.652043 33.875677
13932 797 2 -2.011934 -30.031723 33.412413
13933 797 3 -1.686397 -34.393219 35.619532
13934 797 2 -3.859248 -34.017838 31.244854
13935 797 2 -6.031722 -32.165392 35.225909
13936 798 2 -34.413701 2.891935 0.885912
13937 798 2 -34.563123 1.940240 -1.955206
13938 798 3 -36.997748 4.220461 1.632718
13939 798 2 -32.162533 4.855065 1.165846
13940 798 2 -33.931400 0.551975 2.700291
13941 799 2 25.016245 -35.134891 34.510824
13942 799 2 24.276941 -37.468967 36.244467
13943 799 2 22.565912 -33.503962 33.931219
13944 799 2 26.185380 -36.133309 31.934725
13945 799 3 27.036746 -33.433326 35.932883
13946 800 2 36.119030 -30.300573 0.865681
13947 800 2 34.745270 -30.726491 3.498432
13948 800 3 34.121405 -29.355766 -1.163317
13949 800 2 37.336129 -32.882873 -0.056489
13950 800 2 38.273316 -28.237163 1.184099
13951 801 2 -38.095880 -19.582101 8.279745
13952 801 2 -35.501865 -20.717849 9.270282
13953 801 2 -37.544131 -17.219803 6.514775
13954 801 2 -39.765578 -18.715949 10.616813
13955 801 3 -39.571945 -21.674804 6.717110
13956 802 2 11.085868 4.668754 8.069509
13957 802 2 13.440433 4.207542 6.268589
13958 802 3 9.838673 2.034260 8.779401
13959 802 2 9.068046 6.382482 6.658294
13960 802 2 11.996321 6.050731 10.571751
13961 803 2 -9.414391 43.251809 39.567635
13962 803 2 -11.302127 45.579810 39.437769
13963 803 3 -8.699832 42.387355 36.785168
13964 803 2 -10.730128 40.976963 41.014671
13965 803 2 -6.925476 44.063109 41.032933
13966 804 2 29.074992 38.105292 -1.018742
13967 804 2 27.555210 35.864715 0.273573
13968 804 2 27.142979 40.099125 -2.155385
13969 804 3 30.792251 37.009238 -3.220942
13970 804 2 30.809527 39.448091 1.027787
13971 805 2 6.376686 -10.509212 -27.467351
13972 805 3 5.792441 -12.960429 -29.095292
13973 805 2 4.005095 -8.673293 -27.537775
13974 805 2 8.767219 -9.098921 -28.605960
13975 805 2 6.941989 -11.304204 -24.630378
13976 806 2 42.960886 26.189309 -38.396980
13977 806 2 42.300819 23.264016 -38.313502
13978 806 3 44.782955 26.868901 -36.112639
13979 806 2 40.434473 27.791339 -38.171720
13980 806 2 44.325296 26.832982 -40.990062
13981 807 2 -37.534653 24.279811 39.616648
13982 807 3 -37.992644 21.445759 38.745791
13983 807 2 -36.829892 24.328548 42.532285
13984 807 2 -40.031128 25.880774 39.164395
13985 807 2 -35.284949 25.464164 38.024122
13986 808 2 -11.553115 -18.051672 -28.763247
13987 808 2 -12.561680 -20.873857 -28.897662
13988 808 2 -11.906006 -16.995224 -25.977679
13989 808 3 -13.100782 -16.344099 -30.683904
13990 808 2 -8.643993 -17.993507 -29.493742
13991 809 2 -41.151819 -28.047268 26.663502
13992 809 2 -43.502029 -29.854492 27.122253
13993 809 3 -40.854242 -27.520113 23.725211
13994 809 2 -38.662405 -29.361301 27.700871
13995 809 2 -41.588599 -25.453166 28.105673
13996 810 2 -33.244182 2.447159 -25.972983
13997 810 3 -36.116939 1.791666 -25.409427
13998 810 2 -31.762042 2.755053 -23.382912
13999 810 2 -33.089068 5.010008 -27.524673
14000 810 2 -32.008678 0.231908 -27.574918
14001 811 2 -33.300962 -13.998586 -27.716917
14002 811 3 -33.928244 -12.707370 -25.082665
14003 811 2 -32.269617 -11.926695 -29.625737
14004 811 2 -35.790044 -15.241512 -28.839237
14005 811 2 -31.215940 -16.118766 -27.320027
14006 812 2 41.024730 -25.513099 -36.344033
14007 812 2 40.124486 -27.599510 -38.302718
14008 812 3 43.680200 -24.413629 -37.204058
14009 812 2 41.286771 -26.744595 -33.621029
14010 812 2 39.007461 -23.294660 -36.248327
14011 813 2 -0.549135 -35.871872 -40.021262
14012 813 2 -3.343991 -36.960299 -40.085328
14013 813 3 0.462441 -35.547974 -42.826936
14014 813 2 1.230043 -37.771949 -38.529876
14015 813 2 -0.545033 -33.207266 -38.642909
14016 814 2 -24.108014 21.022864 36.724394
14017 814 2 -24.733753 18.152319 37.331370
14018 814 3 -25.569517 21.861732 34.242398
14019 814 2 -21.154659 21.334284 36.299293
14020 814 2 -24.974126 22.743122 39.024517
14021 815 2 -15.235783 35.903221 32.556747
14022 815 2 -17.518625 33.957281 32.600896
14023 815 2 -14.469855 36.610182 35.369852
14024 815 2 -16.066583 38.386308 31.092489
14025 815 3 -12.888070 34.659113 31.163751
14026 816 2 -4.404336 36.067099 -28.468550
14027 816 2 -7.188438 37.105424 -28.881659
14028 816 2 -3.101121 35.612438 -31.132178
14029 816 2 -4.516506 33.479092 -26.955394
14030 816 3 -2.811281 38.071441 -26.904968
14031 817 2 41.255775 5.906157 28.529222
14032 817 2 38.517387 6.025195 27.309769
14033 817 2 42.285222 3.091150 28.402838
14034 817 2 41.114947 6.791842 31.392040
14035 817 3 43.105542 7.716440 27.012240
14036 818 2 39.538092 -12.407027 -31.300755
14037 818 2 37.532857 -13.445728 -33.275629
14038 818 3 38.384710 -12.550580 -28.535054
14039 818 2 40.206274 -9.557401 -31.958910
14040 818 2 42.028529 -14.074398 -31.433427
14041 819 2 -13.548749 -26.851687 26.334112
14042 819 2 -14.455820 -29.708566 26.458483
14043 819 3 -13.974027 -25.550353 29.003506
14044 819 2 -15.130772 -25.390206 24.245745
14045 819 2 -10.634377 -26.757624 25.628712
14046 820 2 -6.171260 30.302975 36.395225
14047 820 3 -7.380822 32.943765 37.145683
14048 820 2 -6.007903 28.551230 38.825185
14049 820 2 -3.416229 30.742313 35.292143
14050 820 2 -7.880084 28.974593 34.317891
14051 821 2 33.532498 20.780320 19.989522
14052 821 2 35.755879 22.005523 21.588100
14053 821 2 31.515175 22.891248 19.300760
14054 821 3 32.211734 18.623392 21.602979
14055 821 2 34.647203 19.601116 17.466248
14056 822 2 10.297419 17.361364 -42.517668
14057 822 2 13.051175 18.044824 -41.543137
14058 822 2 10.302101 17.226362 -45.514625
14059 822 3 8.364885 19.470856 -41.614697
14060 822 2 9.471514 14.703413 -41.398213
14061 823 2 12.121830 11.224348 26.599675
14062 823 2 14.726360 12.694582 26.833842
14063 823 2 11.097777 11.445704 23.788569
14064 823 2 10.123538 12.422896 28.489203
14065 823 3 12.539645 8.334210 27.287086
14066 824 2 -30.844335 9.296954 -17.161408
14067 824 3 -32.324477 10.765366 -19.318476
14068 824 2 -28.714989 7.583428 -18.398225
14069 824 2 -32.760215 7.565117 -15.634927
14070 824 2 -29.577658 11.273904 -15.294004
14071 825 2 1.683505 41.027640 -3.751961
14072 825 2 0.712633 42.193735 -6.339939
14073 825 2 3.451872 38.671246 -4.317900
14074 825 3 -0.666177 40.143055 -2.109857
14075 825 2 3.235691 43.102523 -2.240148
14076 826 2 -37.212108 -20.776795 -20.740226
14077 826 2 -39.084692 -22.838004 -19.624499
14078 826 2 -38.036151 -20.089117 -23.541664
14079 826 3 -34.418374 -21.869808 -20.759430
14080 826 2 -37.309217 -18.310251 -19.035312
14081 827 2 -7.598758 16.614915 -6.610179
14082 827 2 -7.324060 16.226071 -3.648196
14083 827 3 -6.921913 19.451709 -7.313375
14084 827 2 -10.421197 16.025440 -7.438643
14085 827 2 -5.727860 14.756442 -8.040500
14086 828 2 15.237500 5.903841 -28.486671
14087 828 3 14.805614 8.842977 -28.068393
14088 828 2 16.428174 5.444476 -31.201681
14089 828 2 12.610007 4.469233 -28.291268
14090 828 2 17.106203 4.858679 -26.385342
14091 829 2 31.391994 -27.492061 -6.582184
14092 829 2 33.811806 -25.949921 -5.706791
14093 829 3 31.368868 -27.702419 -9.574711
14094 829 2 28.914604 -26.073399 -5.660265
14095 829 2 31.472699 -30.242507 -5.386970
14096 830 2 1.012728 28.492868 16.958115
14097 830 3 -1.804513 29.523442 16.990830
14098 830 2 1.849032 27.957909 14.127141
14099 830 2 1.166030 25.950620 18.543508
14100 830 2 2.840362 30.539501 18.170982
14101 831 2 -15.447056 -43.287202 24.402952
14102 831 2 -17.398773 -44.947443 25.963210
14103 831 3 -15.155062 -44.419745 21.640329
14104 831 2 -12.783046 -43.315789 25.782167
14105 831 2 -16.451344 -40.465832 24.226102
14106 832 2 22.159492 21.946117 42.041451
14107 832 2 23.615716 19.448640 41.240191
14108 832 2 21.107871 23.320377 39.590838
14109 832 3 24.041855 23.781148 43.486917
14110 832 2 19.872526 21.234304 43.847859
14111 833 2 -44.119280 43.845881 2.563827
14112 833 2 -46.172072 42.482627 4.274846
14113 833 3 -44.609900 43.169098 -0.317363
14114 833 2 -41.379435 42.916204 3.356891
14115 833 2 -44.315713 46.815595 2.940936
14116 834 2 37.885952 44.020636 39.974981
14117 834 2 36.095708 44.968197 37.762029
14118 834 2 40.555818 45.369903 39.748497
14119 834 2 38.246133 41.049601 39.767091
14120 834 3 36.646148 44.694844 42.622306
14121 835 2 -31.696771 16.217020 -0.155803
14122 835 2 -31.904871 17.810606 -2.689017
14123 835 2 -34.444819 15.450950 0.772296
14124 835 2 -30.351952 17.868598 1.956957
14125 835 3 -30.085440 13.737925 -0.663446
14126 836 2 32.791800 -43.910701 35.148239
14127 836 2 30.146710 -42.889413 34.168203
14128 836 2 32.424373 -46.624593 36.372899
14129 836 3 33.891321 -42.025335 37.206502
14130 836 2 34.704795 -44.103465 32.845352
14131 837 2 21.947244 -18.161553 23.447300
14132 837 3 20.436660 -15.833367 22.308139
14133 837 2 22.522192 -20.142795 21.269201
14134 837 2 20.299658 -19.473894 25.583470
14135 837 2 24.530465 -17.196156 24.628391
14136 838 2 -25.117855 2.083925 -29.967841
14137 838 2 -25.332312 4.479240 -28.174388
14138 838 2 -27.456990 0.266519 -29.492993
14139 838 2 -22.571799 0.613338 -29.372042
14140 838 3 -25.110318 2.976603 -32.831941
14141 839 2 -44.426044 -34.310464 23.170677
14142 839 3 -46.039703 -31.881443 22.466435
14143 839 2 -44.461348 -34.706885 26.144161
14144 839 2 -41.597153 -33.934470 22.245474
14145 839 2 -45.605973 -36.719060 21.826640
14146 840 2 -10.550676 28.098247 16.543740
14147 840 2 -10.963024 30.941296 15.679428
14148 840 2 -7.611803 27.513734 16.689941
14149 840 2 -11.839787 26.253116 14.560388
14150 840 3 -11.788088 27.684839 19.245204
14151 841 2 -20.698968 13.115627 -31.711244
14152 841 2 -22.833440 15.116459 -32.375097
14153 841 2 -21.028685 10.689390 -33.444639
14154 841 2 -20.933026 12.323452 -28.827206
14155 841 3 -18.000722 14.333208 -32.198033
14156 842 2 -21.467279 9.871458 43.303696
14157 842 3 -23.090800 10.294532 40.816693
14158 842 2 -22.147078 11.991582 45.314404
14159 842 2 -18.547935 10.030271 42.631229
14160 842 2 -22.083302 7.169448 44.452459
14161 843 2 7.072173 18.341106 -35.953236
14162 843 3 7.736711 21.236035 -36.374872
14163 843 2 4.320942 17.782329 -37.010827
14164 843 2 7.163685 17.710782 -33.021630
14165 843 2 9.067353 16.635279 -37.405617
14166 844 2 -30.599176 -22.839996 43.756043
14167 844 2 -33.277723 -22.581335 45.082120
14168 844 3 -30.823241 -22.015426 40.880303
14169 844 2 -29.678248 -25.690993 43.910022
14170 844 2 -28.617491 -21.072230 45.151726
14171 845 2 22.380447 7.434720 27.224239
14172 845 2 22.973113 4.782683 28.495242
14173 845 3 21.403845 9.350314 29.316307
14174 845 2 20.267932 7.086692 25.122774
14175 845 2 24.876900 8.519191 25.962633
14176 846 2 -15.824921 36.047237 -33.660293
14177 846 2 -13.501891 35.349088 -35.425547
14178 846 3 -18.315429 34.761219 -34.729654
14179 846 2 -16.181000 39.025559 -33.607323
14180 846 2 -15.301365 35.053081 -30.878650
14181 847 2 6.479852 22.783386 7.540581
14182 847 2 4.558449 21.036875 9.043214
14183 847 2 6.914210 25.332225 9.062012
14184 847 3 5.350692 23.414513 4.833798
14185 847 2 9.096059 21.349930 7.223300
14186 848 2 15.395610 14.353771 37.434208
14187 848 2 17.459726 16.187966 36.261538
14188 848 3 12.858160 15.880538 37.914135
14189 848 2 16.403234 13.246300 40.033862
14190 848 2 14.861319 12.100281 35.527295
14191 849 2 36.001429 -21.158586 26.944015
14192 849 2 37.391645 -22.120586 29.422292
14193 849 2 37.981923 -19.790281 25.153656
14194 849 2 33.834358 -19.226352 27.699179
14195 849 3 34.797791 -23.497126 25.500932
14196 850 2 35.906686 40.353371 5.734325
14197 850 3 34.866118 38.425207 3.685080
14198 850 2 38.123223 39.060923 7.288847
14199 850 2 33.688865 41.119407 7.603672
14200 850 2 36.948537 42.807949 4.359698
14201 851 2 -16.068883 44.435042 24.969981
14202 851 2 -16.829138 47.214603 24.135680
14203 851 2 -18.273965 42.534786 24.244281
14204 851 3 -15.626170 44.367200 27.936360
14205 851 2 -13.546259 43.623581 23.563603
14206 852 2 7.008292 27.490909 43.497299
14207 852 2 4.036524 27.869768 43.338992
14208 852 2 7.892858 25.607801 41.335946
14209 852 3 7.729455 26.348437 46.175859
14210 852 2 8.374331 30.137629 43.138399
14211 853 2 -7.168656 35.287277 -2.241172
14212 853 2 -9.723672 33.746850 -2.555779
14213 853 2 -6.631665 35.748722 0.674082
14214 853 3 -7.414099 37.928202 -3.643054
14215 853 2 -4.905187 33.725333 -3.439939
14216 854 2 40.227983 -1.723100 31.287441
14217 854 2 37.434923 -1.232944 30.308380
14218 854 2 40.415286 -0.981826 34.188377
14219 854 2 42.150840 -0.052767 29.702321
14220 854 3 40.910884 -4.624866 30.950687
14221 855 2 25.348320 3.726660 -7.870041
14222 855 2 23.507451 1.380037 -8.193406
14223 855 2 25.781053 4.263286 -4.950319
14224 855 3 24.124627 6.142842 -9.160251
14225 855 2 27.980148 3.120474 -9.176187
14226 856 2 -15.501825 13.839740 43.070044
14227 856 2 -14.187289 15.353858 45.301511
14228 856 3 -17.190052 15.715236 41.447575
14229 856 2 -17.232278 11.673115 44.215151
14230 856 2 -13.397682 12.616752 41.315940
14231 857 2 -4.879231 5.954954 26.058305
14232 857 2 -2.777525 5.239154 24.040767
14233 857 3 -6.003010 8.660998 25.414530
14234 857 2 -3.659135 6.004920 28.798536
14235 857 2 -7.077256 3.914743 25.979386
14236 858 2 41.519188 -32.574421 39.031011
14237 858 2 40.840072 -34.370507 41.335978
14238 858 3 40.529401 -33.803913 36.479801
14239 858 2 44.494493 -32.220373 38.881976
14240 858 2 40.212788 -29.902891 39.426287
14241 859 2 30.493275 22.927167 -1.909432
14242 859 2 30.839889 19.953587 -1.715320
14243 859 2 28.102807 23.546195 -3.613094
14244 859 2 32.942936 24.140959 -3.144692
14245 859 3 30.087467 24.067927 0.835379
14246 860 2 13.060473 37.318588 -23.761677
14247 860 2 10.294900 36.195638 -23.460694
14248 860 3 13.256356 38.812368 -26.355950
14249 860 2 15.056509 35.079050 -23.744095
14250 860 2 13.634126 39.187297 -21.485969
14251 861 2 32.431995 43.948479 39.418202
14252 861 2 31.427351 41.290754 38.455297
14253 861 2 34.080462 45.233765 37.266320
14254 861 3 34.118316 43.552399 41.867578
14255 861 2 30.101851 45.716997 40.083614
14256 862 2 17.646214 14.777916 -22.705668
14257 862 2 15.926035 12.758751 -24.107082
14258 862 3 18.859167 16.633323 -24.727106
14259 862 2 19.828698 13.365300 -21.208578
14260 862 2 15.970955 16.354290 -20.779908
14261 863 2 13.552288 5.385415 -19.245216
14262 863 3 10.580737 5.744786 -19.043377
14263 863 2 14.694860 4.946791 -16.506213
14264 863 2 14.776482 7.841167 -20.457912
14265 863 2 14.157072 3.008916 -20.973363
14266 864 2 37.270250 -35.915231 39.907388
14267 864 2 35.990949 -33.201786 39.931983
14268 864 2 36.901660 -37.170144 37.207511
14269 864 2 35.988281 -37.644186 41.997190
14270 864 3 40.200111 -35.644810 40.492869
14271 865 2 17.524642 -6.560470 -13.970644
14272 865 2 14.996381 -8.173204 -13.887066
14273 865 3 18.339862 -5.833485 -11.176560
14274 865 2 17.062819 -4.058676 -15.560532
14275 865 2 19.699505 -8.176517 -15.258419
14276 866 2 12.529859 -19.977024 8.706998
14277 866 2 12.451790 -21.815315 11.076511
14278 866 2 9.735072 -19.472540 7.740219
14279 866 3 14.134249 -21.243597 6.511155
14280 866 2 13.798324 -17.376644 9.500107
14281 867 2 35.049004 26.193863 -20.505879
14282 867 3 32.619076 25.567546 -22.150012
14283 867 2 36.766482 28.168951 -21.971927
14284 867 2 36.607712 23.675954 -20.025709
14285 867 2 34.202748 27.363002 -17.875866
14286 868 2 -31.737920 -41.342625 -11.342470
14287 868 3 -30.146788 -38.819214 -11.025143
14288 868 2 -33.050721 -41.364498 -14.039891
14289 868 2 -33.840007 -41.474672 -9.206167
14290 868 2 -29.914165 -43.712115 -11.098681
14291 869 2 -24.702963 -26.286767 8.525491
14292 869 2 -23.849692 -27.427888 5.885459
14293 869 3 -26.460979 -28.259291 9.946240
14294 869 2 -26.221888 -23.740096 8.070150
14295 869 2 -22.279293 -25.719792 10.200114
14296 870 2 -25.766641 -42.644130 -30.811843
14297 870 2 -25.793923 -44.894261 -32.795820
14298 870 2 -27.601268 -43.300017 -28.530625
14299 870 3 -26.693111 -40.122418 -32.146993
14300 870 2 -22.978263 -42.259823 -29.773934
14301 871 2 31.248386 2.185831 -26.487058
14302 871 2 28.604351 1.116692 -25.556456
14303 871 3 33.464395 0.570889 -25.269987
14304 871 2 31.520610 5.052135 -25.644326
14305 871 2 31.404187 2.003609 -29.477463
14306 872 2 27.877026 17.964659 -43.073398
14307 872 2 25.919266 20.078547 -43.909257
14308 872 3 30.381907 18.220431 -44.704394
14309 872 2 26.669902 15.253655 -43.513068
14310 872 2 28.537026 18.306004 -40.166874
14311 873 2 -35.539289 -31.395484 -4.766497
14312 873 2 -32.897495 -31.131090 -6.163286
14313 873 2 -37.756333 -30.811386 -6.701321
14314 873 3 -35.663819 -29.450242 -2.486031
14315 873 2 -35.839509 -34.189220 -3.715350
14316 874 2 32.300516 19.659583 43.287250
14317 874 3 30.052043 17.681746 43.467605
14318 874 2 34.316622 19.079976 45.431865
14319 874 2 31.222404 22.435295 43.652076
14320 874 2 33.610996 19.441316 40.597454
14321 875 2 -16.377868 7.347394 -7.366015
14322 875 2 -13.976226 8.909460 -6.476036
14323 875 3 -15.588239 5.465712 -9.565051
14324 875 2 -18.481683 9.234648 -8.372113
14325 875 2 -17.465325 5.779755 -5.050859
14326 876 2 -41.195977 -11.192640 -27.405255
14327 876 2 -44.018085 -11.237875 -28.421945
14328 876 3 -40.798601 -8.781641 -25.664802
14329 876 2 -39.298726 -11.074251 -29.726122
14330 876 2 -40.668495 -13.676794 -25.808151
14331 877 2 34.233998 36.151367 7.458327
14332 877 2 36.473072 38.086504 6.966604
14333 877 2 31.731924 37.163322 6.148528
14334 877 3 33.777455 35.879594 10.410903
14335 877 2 34.953540 33.476048 6.307271
14336 878 2 -27.047490 -11.852275 -21.894009
14337 878 3 -27.444828 -9.123485 -23.075461
14338 878 2 -25.501823 -13.559135 -23.816908
14339 878 2 -29.718522 -13.110958 -21.363627
14340 878 2 -25.524786 -11.615521 -19.320038
14341 879 2 -41.448349 -10.710107 -38.811480
14342 879 2 -43.364652 -12.770184 -39.852569
14343 879 2 -39.498226 -9.976994 -40.970083
14344 879 3 -39.961227 -11.826822 -36.457460
14345 879 2 -42.969293 -8.266427 -37.965810
14346 880 2 -18.687986 34.116689 1.686337
14347 880 2 -19.265553 32.589980 -0.830720
14348 880 2 -21.198371 34.351074 3.312076
14349 880 3 -17.690203 36.857985 0.986532
14350 880 2 -16.597816 32.667717 3.277458
14351 881 2 2.192369 -34.186007 18.201354
14352 881 2 2.347894 -31.199419 18.438215
14353 881 2 2.451080 -35.419867 20.923606
14354 881 2 4.416617 -35.166901 16.443353
14355 881 3 -0.446116 -34.957842 17.000242
14356 882 2 23.835078 10.781123 -18.956908
14357 882 3 25.878738 12.435053 -17.511927
14358 882 2 22.476895 12.462857 -21.037079
14359 882 2 21.797663 9.773958 -16.998705
14360 882 2 25.187015 8.452625 -20.279921
14361 883 2 -44.010938 5.285507 -26.131596
14362 883 2 -44.561478 6.563047 -28.789565
14363 883 2 -43.405540 2.374046 -26.527690
14364 883 2 -46.418377 5.575002 -24.365122
14365 883 3 -41.658357 6.629933 -24.844009
14366 884 2 -10.894480 31.515110 33.561793
14367 884 3 -9.004454 29.190199 33.411489
14368 884 2 -13.617826 30.540122 34.357273
14369 884 2 -11.054006 32.849205 30.879491
14370 884 2 -9.901635 33.480913 35.598917
14371 885 2 -39.332855 -0.306412 -38.923787
14372 885 2 -37.336395 1.075447 -40.685778
14373 885 2 -41.895241 -0.700292 -40.433436
14374 885 2 -39.852449 1.372991 -36.492815
14375 885 3 -38.247337 -2.973795 -38.083120
14376 886 2 29.009597 11.761129 -33.150903
14377 886 2 30.843064 11.808002 -35.524972
14378 886 2 29.019420 14.452951 -31.826518
14379 886 2 29.950672 9.684085 -31.201476
14380 886 3 26.225234 11.099479 -34.050646
14381 887 2 22.891649 -8.035848 -44.080794
14382 887 2 20.146688 -8.853515 -44.973325
14383 887 3 24.077628 -6.152512 -46.092386
14384 887 2 24.631200 -10.468241 -43.841154
14385 887 2 22.711079 -6.669124 -41.416313
14386 888 2 25.190836 -35.188407 -17.625648
14387 888 3 22.743919 -33.492176 -17.993614
14388 888 2 26.622904 -35.460006 -20.247749
14389 888 2 24.385474 -37.904999 -16.639992
14390 888 2 27.011048 -33.896446 -15.621236
14391 889 2 -21.695234 -9.866466 35.115738
14392 889 2 -23.276795 -7.332734 35.396573
14393 889 2 -20.653161 -10.089194 32.311371
14394 889 2 -23.458620 -12.217841 35.716993
14395 889 3 -19.392362 -9.826095 37.038015
14396 890 2 -36.330782 -17.820684 -0.770458
14397 890 2 -38.530019 -17.260484 1.191565
14398 890 2 -34.817869 -20.262902 0.093643
14399 890 3 -34.464640 -15.474195 -0.877703
14400 890 2 -37.510599 -18.285157 -3.489335
14401 891 2 -13.967585 0.140034 15.754120
14402 891 3 -13.534814 -1.335301 13.178058
14403 891 2 -16.795915 -0.258294 16.671663
14404 891 2 -13.456795 3.065510 15.329053
14405 891 2 -12.082817 -0.911780 17.837707
14406 892 2 41.802577 33.232288 -0.827850
14407 892 2 39.514128 34.848848 0.244408
14408 892 2 43.454351 34.933687 -2.665479
14409 892 2 40.736724 30.870617 -2.339957
14410 892 3 43.505104 32.276000 1.449630
14411 893 2 27.381506 21.660688 15.647562
14412 893 3 25.594582 24.011759 16.176111
14413 893 2 28.005596 20.277248 18.235342
14414 893 2 29.930323 22.606977 14.379465
14415 893 2 25.995524 19.746767 13.799331
14416 894 2 -35.623004 -5.433494 -26.011296
14417 894 3 -36.498078 -3.702681 -28.300080
14418 894 2 -33.068974 -4.357139 -24.863086
14419 894 2 -35.177623 -8.234513 -26.989013
14420 894 2 -37.747342 -5.439644 -23.893006
14421 895 2 -30.780628 26.157617 35.596801
14422 895 2 -30.490333 23.910010 37.562505
14423 895 3 -31.843634 28.585015 37.003128
14424 895 2 -32.684164 25.346666 33.424496
14425 895 2 -28.104381 26.788775 34.397076
14426 896 2 31.732465 -1.654033 -12.361365
14427 896 2 34.095980 -3.480833 -12.084600
14428 896 2 29.435089 -2.742876 -10.768731
14429 896 2 30.946511 -1.466396 -15.250494
14430 896 3 32.452280 1.073973 -11.341635
14431 897 2 -15.535137 -11.060977 37.478400
14432 897 3 -18.358209 -10.354554 36.749544
14433 897 2 -14.084925 -12.030455 35.037703
14434 897 2 -15.550411 -13.223626 39.557514
14435 897 2 -14.147003 -8.635275 38.568836
14436 898 2 -19.950908 34.695650 8.175881
14437 898 2 -17.994345 36.671983 7.050727
14438 898 2 -20.018148 34.945817 11.164676
14439 898 3 -19.109154 31.916136 7.423719
14440 898 2 -22.681987 35.248666 7.064402
14441 899 2 -44.476093 -13.908373 37.470960
14442 899 2 -41.806914 -12.713094 38.139380
14443 899 3 -44.704090 -14.247066 34.498872
14444 899 2 -46.656844 -12.090590 38.440491
14445 899 2 -44.736527 -16.582744 38.805095
14446 900 2 -7.757172 0.386838 -28.655839
14447 900 2 -4.791526 0.705902 -28.334681
14448 900 3 -9.016641 -0.019165 -25.963461
14449 900 2 -8.324637 -1.991425 -30.394186
14450 900 2 -8.895885 2.852041 -29.931029
14451 901 2 -7.130646 -4.395991 -11.274536
14452 901 2 -10.026643 -3.640996 -11.066724
14453 901 2 -5.493807 -1.941348 -11.818125
14454 901 3 -6.766796 -6.357057 -13.515481
14455 901 2 -6.235338 -5.644563 -8.697815
14456 902 2 21.583921 40.488993 15.677154
14457 902 2 20.639269 42.225120 17.934032
14458 902 2 24.577351 40.302312 15.744438
14459 902 2 20.714877 41.682851 13.065744
14460 902 3 20.404187 37.745689 15.964403
14461 903 2 -0.768098 -30.764765 -43.873997
14462 903 2 0.151119 -28.145501 -45.011756
14463 903 2 -1.254350 -32.709130 -46.106261
14464 903 3 -3.311045 -30.350166 -42.337270
14465 903 2 1.341884 -31.854263 -42.040702
14466 904 2 -2.320411 42.995083 0.792172
14467 904 2 -5.233091 43.634110 1.120715
14468 904 3 -1.174777 44.661529 -1.423788
14469 904 2 -2.003718 40.087782 0.123367
14470 904 2 -0.870058 43.596913 3.348396
14471 905 2 -42.791981 -18.339623 -15.477508
14472 905 2 -42.339066 -15.376820 -15.348402
14473 905 3 -45.738881 -18.901554 -15.480729
14474 905 2 -41.526799 -19.649468 -13.093473
14475 905 2 -41.563175 -19.430650 -17.987428
14476 906 2 -35.051229 16.834186 -34.223964
14477 906 2 -35.144684 19.826600 -34.415605
14478 906 2 -35.063822 15.654608 -36.982304
14479 906 3 -37.446212 15.854051 -32.706273
14480 906 2 -32.550196 16.001487 -32.791676
14481 907 2 -10.583731 -36.507003 20.576341
14482 907 2 -8.562280 -37.626909 22.489335
14483 907 3 -12.560139 -34.825019 22.081247
14484 907 2 -12.021621 -38.757658 19.209950
14485 907 2 -9.190885 -34.818426 18.524833
14486 908 2 -10.100297 -20.323071 13.267196
14487 908 2 -7.128865 -20.726962 13.180774
14488 908 2 -11.007437 -20.180280 16.123190
14489 908 2 -11.461869 -22.619701 11.899126
14490 908 3 -10.803014 -17.765342 11.865692
14491 909 2 -21.128897 -22.966436 14.206315
14492 909 2 -18.505499 -22.328925 12.898124
14493 909 3 -22.536347 -25.100934 12.636920
14494 909 2 -22.831769 -20.497912 14.287651
14495 909 2 -20.641973 -23.937974 17.002566
14496 910 2 -4.643209 21.531814 -32.320033
14497 910 3 -2.471540 22.192142 -34.281620
14498 910 2 -5.204816 18.586048 -32.404045
14499 910 2 -7.132327 23.045217 -33.036900
14500 910 2 -3.764151 22.303849 -29.557566
14501 911 2 -7.148418 43.729177 10.231212
14502 911 3 -5.901417 41.039958 9.769597
14503 911 2 -9.225563 44.242524 8.128370
14504 911 2 -5.032479 45.850884 10.085723
14505 911 2 -8.434210 43.783343 12.941157
14506 912 2 -12.886544 12.310276 24.557793
14507 912 2 -9.906829 12.183840 24.882310
14508 912 2 -14.122243 13.376605 27.074932
14509 912 3 -13.950318 9.559402 24.009089
14510 912 2 -13.566786 14.121255 22.264842
14511 913 2 -33.003977 -0.043514 31.434997
14512 913 2 -30.916162 -1.914589 30.367239
14513 913 2 -35.666111 -1.426369 31.462512
14514 913 2 -33.157924 2.387430 29.683766
14515 913 3 -32.275712 0.779470 34.226471
14516 914 2 -38.189102 -12.238317 33.854978
14517 914 2 -38.040022 -15.186891 33.322353
14518 914 2 -38.569906 -11.770990 36.793786
14519 914 2 -40.502840 -11.065617 32.347865
14520 914 3 -35.643639 -10.929771 32.955908
14521 915 2 34.067292 13.631802 -23.803720
14522 915 3 34.359926 11.123817 -25.423713
14523 915 2 35.875901 13.495464 -21.414086
14524 915 2 31.222836 13.906297 -22.890638
14525 915 2 34.810507 16.001628 -25.486442
14526 916 2 42.278365 -15.525048 -6.889239
14527 916 2 44.935255 -14.212453 -6.422298
14528 916 2 40.983978 -16.129049 -4.251106
14529 916 2 42.678153 -18.077210 -8.414571
14530 916 3 40.516074 -13.681479 -8.468981
14531 917 2 -2.890245 19.883263 -0.651540
14532 917 2 -0.365948 20.237872 0.930288
14533 917 2 -3.943771 22.570528 -1.469275
14534 917 3 -4.936436 18.477134 1.032473
14535 917 2 -2.314823 18.247518 -3.099647
14536 918 2 21.634289 -15.207681 -17.240255
14537 918 2 18.962895 -14.152134 -18.105977
14538 918 3 21.751678 -15.295159 -14.243829
14539 918 2 23.802471 -13.410315 -18.273917
14540 918 2 22.020112 -17.973118 -18.337297
14541 919 2 -21.109575 17.760230 28.937777
14542 919 3 -23.709534 16.463448 29.685154
14543 919 2 -19.854702 16.250366 26.669385
14544 919 2 -19.262112 17.731763 31.301264
14545 919 2 -21.611954 20.595341 28.095306
14546 920 2 13.520286 30.128652 1.397260
14547 920 2 11.617639 29.613988 3.658909
14548 920 2 12.692166 28.515785 -0.992902
14549 920 2 16.293790 29.338963 2.224346
14550 920 3 13.477551 33.045872 0.698690
14551 921 2 -20.828698 -1.662979 44.033026
14552 921 2 -20.551270 -4.518467 43.155974
14553 921 3 -19.362580 -1.264462 46.619854
14554 921 2 -23.731919 -1.012859 44.418586
14555 921 2 -19.669024 0.143874 41.937688
14556 922 2 -5.188304 -4.041192 -43.617426
14557 922 2 -4.760598 -1.079187 -43.408634
14558 922 2 -2.604316 -5.375174 -44.354647
14559 922 2 -7.244115 -4.608435 -45.727373
14560 922 3 -6.144188 -5.101972 -40.979049
14561 923 2 43.540571 -21.898636 -5.652952
14562 923 3 44.345490 -19.166572 -6.595251
14563 923 2 41.291752 -22.921221 -7.355049
14564 923 2 42.641950 -21.746156 -2.794765
14565 923 2 45.883091 -23.760595 -5.866741
14566 924 2 -25.414732 5.891522 7.993015
14567 924 2 -27.093264 8.376901 7.919378
14568 924 3 -24.370805 5.471888 10.774045
14569 924 2 -23.111052 6.184009 6.093670
14570 924 2 -27.083805 3.533291 7.184967
14571 925 2 3.585042 -4.415061 -18.810103
14572 925 2 3.085839 -7.116062 -17.603708
14573 925 2 2.342910 -4.293267 -21.538156
14574 925 2 6.540390 -3.951172 -19.035331
14575 925 3 2.371030 -2.299744 -17.063217
14576 926 2 20.583798 5.977902 -23.805395
14577 926 2 17.751680 6.913912 -24.126323
14578 926 2 21.163002 3.833829 -25.822194
14579 926 2 20.966675 4.879416 -21.040122
14580 926 3 22.453835 8.284451 -24.232942
14581 927 2 44.085305 -42.679043 40.584650
14582 927 3 44.955761 -40.515948 42.472326
14583 927 2 46.496406 -44.135603 39.552651
14584 927 2 42.593828 -41.459121 38.285240
14585 927 2 42.295223 -44.605501 42.028384
14586 928 2 15.914783 -35.752049 4.785539
14587 928 2 18.538861 -37.076227 5.386178
14588 928 2 15.564566 -35.528163 1.814474
14589 928 3 15.874745 -33.012028 6.006473
14590 928 2 13.680962 -37.391778 5.935029
14591 929 2 22.515828 -41.312294 -20.619948
14592 929 2 20.492187 -39.316706 -19.659476
14593 929 3 22.523101 -43.689193 -18.789567
14594 929 2 25.237481 -40.050358 -20.631039
14595 929 2 21.810543 -42.192917 -23.399710
14596 930 2 41.415704 24.133267 12.506518
14597 930 2 41.113822 21.273511 13.361307
14598 930 2 44.263248 24.996233 12.889648
14599 930 3 39.613643 25.867699 14.163116
14600 930 2 40.672105 24.395624 9.612001
14601 931 2 -24.535280 42.371793 14.760283
14602 931 2 -23.690343 45.226874 14.393418
14603 931 2 -24.240891 40.900132 12.162679
14604 931 2 -27.401722 42.282493 15.640930
14605 931 3 -22.808164 41.077672 16.844107
14606 932 2 17.362096 7.256811 -41.315990
14607 932 3 14.740334 6.036411 -40.517873
14608 932 2 18.813284 5.389985 -43.162342
14609 932 2 19.027961 7.737383 -38.867737
14610 932 2 16.866805 9.863463 -42.716008
14611 933 2 35.604623 -36.352416 -15.989033
14612 933 2 36.509594 -38.075191 -13.705817
14613 933 2 32.606320 -36.301516 -16.076161
14614 933 3 36.661071 -37.469921 -18.564901
14615 933 2 36.641507 -33.563036 -15.609251
14616 934 2 4.206208 -43.257667 -1.226052
14617 934 2 3.537511 -41.794794 1.306309
14618 934 2 1.737353 -43.522439 -2.909693
14619 934 3 5.257547 -45.986526 -0.556715
14620 934 2 6.292421 -41.726907 -2.744107
14621 935 2 -40.009073 -8.659129 -19.625519
14622 935 3 -42.664999 -7.390285 -19.045786
14623 935 2 -38.080179 -6.559529 -20.558819
14624 935 2 -40.338787 -10.736103 -21.765021
14625 935 2 -38.952327 -9.950599 -17.132450
14626 936 2 -11.352528 -1.043035 -2.740287
14627 936 2 -14.290041 -1.357565 -2.218664
14628 936 3 -9.802243 -2.614333 -0.708628
14629 936 2 -10.606778 1.856141 -2.543725
14630 936 2 -10.711051 -2.056381 -5.490129
14631 937 2 -9.572374 -30.848845 -30.255337
14632 937 2 -10.566358 -28.046679 -30.655167
14633 937 3 -9.298864 -32.202436 -32.918603
14634 937 2 -11.522727 -32.368894 -28.556640
14635 937 2 -6.901548 -30.777370 -28.890940
14636 938 2 -35.508125 18.305511 23.584688
14637 938 3 -37.798646 17.241308 21.965743
14638 938 2 -33.906108 20.215470 21.915677
14639 938 2 -33.758519 16.030354 24.457924
14640 938 2 -36.569226 19.734912 25.999409
14641 939 2 -0.716692 -9.329538 3.056987
14642 939 2 -3.552780 -9.913997 2.272758
14643 939 3 0.089975 -11.136477 5.311817
14644 939 2 -0.491482 -6.470411 3.937141
14645 939 2 1.087518 -9.797268 0.706230
14646 940 2 -16.964035 11.437878 -19.835607
14647 940 2 -18.527271 9.049515 -18.912560
14648 940 2 -17.917992 13.881135 -18.379426
14649 940 2 -17.360451 11.813366 -22.785499
14650 940 3 -14.050427 11.007497 -19.264943
14651 941 2 11.306566 12.570321 -7.105689
14652 941 2 12.502994 14.354024 -9.200197
14653 941 2 13.500261 11.177686 -5.606267
14654 941 2 9.541540 10.530539 -8.418690
14655 941 3 9.681468 14.219036 -5.197602
14656 942 2 17.619488 26.446044 44.127323
14657 942 3 19.329580 26.165311 41.678492
14658 942 2 15.299735 28.250658 43.525565
14659 942 2 19.248798 27.621041 46.355491
14660 942 2 16.599840 23.747167 44.949745
14661 943 2 43.520111 1.767009 -43.739719
14662 943 3 42.785768 -0.668809 -42.149897
14663 943 2 43.628487 4.151800 -41.922847
14664 943 2 41.461061 2.227412 -45.872403
14665 943 2 46.205127 1.357631 -45.013728
14666 944 2 40.010905 20.634627 41.028524
14667 944 2 38.844044 23.312396 41.712621
14668 944 2 42.861964 20.519981 41.954978
14669 944 3 39.907601 20.228169 38.057981
14670 944 2 38.430011 18.477962 42.388513
14671 945 2 -7.792983 34.241962 19.038043
14672 945 2 -6.956517 32.088493 17.124175
14673 945 2 -6.432595 33.817307 21.677932
14674 945 3 -10.767121 34.141983 19.418182
14675 945 2 -7.015699 36.920066 17.931884
14676 946 2 -7.123569 -39.203935 26.701361
14677 946 2 -5.064957 -37.469794 28.026076
14678 946 3 -6.208592 -39.904109 23.931420
14679 946 2 -9.729250 -37.724926 26.549841
14680 946 2 -7.491477 -41.716910 28.298107
14681 947 2 31.366612 29.814919 35.775995
14682 947 3 31.667303 27.012878 34.747328
14683 947 2 29.898338 29.767742 38.391706
14684 947 2 29.820599 31.448483 33.790721
14685 947 2 34.080208 31.030572 36.174224
14686 948 2 -4.477352 -12.479202 -4.162090
14687 948 2 -5.348656 -14.909919 -5.689323
14688 948 3 -3.718300 -13.271423 -1.369918
14689 948 2 -6.729729 -10.500082 -4.062679
14690 948 2 -2.112724 -11.235384 -5.526439
14691 949 2 -23.856758 25.350553 32.501575
14692 949 3 -22.024937 26.137119 34.743392
14693 949 2 -24.678303 27.799267 30.975513
14694 949 2 -26.293108 24.008227 33.625121
14695 949 2 -22.430682 23.457599 30.662272
14696 950 2 21.824006 0.333842 -14.486803
14697 950 3 20.108519 -0.821212 -16.660038
14698 950 2 24.705752 -0.273536 -15.058321
14699 950 2 21.050398 -0.875859 -11.852765
14700 950 2 21.431356 3.305974 -14.376086
14701 951 2 22.791708 11.838801 -43.265502
14702 951 2 20.124250 13.117795 -42.766659
14703 951 3 24.436562 13.614845 -45.037540
14704 951 2 22.392991 9.183627 -44.603812
14705 951 2 24.213027 11.438938 -40.653997
14706 952 2 16.349540 -26.010086 15.956137
14707 952 2 18.280761 -24.208597 14.533106
14708 952 2 17.712322 -27.277734 18.308985
14709 952 3 15.405384 -28.148532 14.075813
14710 952 2 13.999693 -24.405483 16.906645
14711 953 2 15.013158 -23.834902 -41.152248
14712 953 2 17.348406 -25.681106 -41.523931
14713 953 3 13.739626 -23.285291 -43.812332
14714 953 2 15.958970 -21.256725 -39.944589
14715 953 2 13.005629 -25.116488 -39.328141
14716 954 2 -25.709260 -26.935774 -38.902710
14717 954 3 -22.887763 -26.684130 -37.914869
14718 954 2 -26.999525 -29.333617 -37.643518
14719 954 2 -25.699622 -27.256219 -41.885531
14720 954 2 -27.250129 -24.469129 -38.166922
14721 955 2 7.989426 -40.802525 -23.825277
14722 955 2 7.209336 -40.886251 -20.929685
14723 955 3 7.331910 -43.430392 -25.114458
14724 955 2 10.935984 -40.286652 -24.052597
14725 955 2 6.480476 -38.606807 -25.204366
14726 956 2 -14.154859 0.507953 8.032302
14727 956 2 -16.538093 2.318496 7.827048
14728 956 3 -14.799865 -1.792324 9.846881
14729 956 2 -11.828629 2.039431 9.147304
14730 956 2 -13.452849 -0.533793 5.307977
14731 957 2 -38.810937 -0.006881 19.155434
14732 957 2 -36.035776 -0.717000 18.264246
14733 957 2 -38.689478 2.318311 21.047186
14734 957 2 -40.048855 -2.361186 20.542808
14735 957 3 -40.469638 0.732348 16.767495
14736 958 2 24.195093 -18.768359 1.438273
14737 958 3 25.876928 -19.218443 3.881397
14738 958 2 22.410132 -16.397204 1.875921
14739 958 2 22.517491 -21.200253 0.917175
14740 958 2 25.975823 -18.257536 -0.921402
14741 959 2 -44.338191 -29.232918 1.619366
14742 959 2 -44.146825 -31.341889 3.744365
14743 959 2 -41.657770 -27.936333 1.253021
14744 959 3 -46.346422 -27.162224 2.443526
14745 959 2 -45.201748 -30.491225 -0.963449
14746 960 2 -43.373609 34.895210 -28.789331
14747 960 2 -41.251959 36.926781 -29.398692
14748 960 2 -43.663980 34.613380 -25.816747
14749 960 3 -42.595512 32.250807 -29.973263
14750 960 2 -45.982986 35.789874 -29.968623
14751 961 2 -36.740953 -8.978488 14.892735
14752 961 2 -39.005167 -10.901293 14.473024
14753 961 3 -35.920356 -7.808772 12.254860
14754 961 2 -34.413227 -10.425542 16.112460
14755 961 2 -37.625062 -6.778347 16.730595
14756 962 2 28.201406 -24.404855 -41.844744
14757 962 2 30.078180 -24.928444 -39.563610
14758 962 3 25.526884 -23.574541 -40.768869
14759 962 2 27.890897 -26.902295 -43.477649
14760 962 2 29.309664 -22.214142 -43.568849
14761 963 2 2.725524 28.818425 -0.354442
14762 963 2 0.964744 28.291236 -2.725460
14763 963 2 1.631502 31.133662 1.208501
14764 963 2 5.499740 29.467642 -1.293720
14765 963 3 2.806111 26.381159 1.392911
14766 964 2 -5.289871 -43.062614 16.320752
14767 964 3 -7.597368 -41.494438 17.423601
14768 964 2 -5.887098 -43.865468 13.492547
14769 964 2 -4.862217 -45.519328 17.988586
14770 964 2 -2.812798 -41.371223 16.378274
14771 965 2 30.838504 29.959298 -29.584760
14772 965 2 33.655049 29.057434 -30.088465
14773 965 2 30.596812 30.956418 -26.765658
14774 965 3 28.962126 27.654697 -29.994657
14775 965 2 30.140031 32.168643 -31.490260
14776 966 2 -39.907899 -34.305423 38.872290
14777 966 3 -37.626838 -34.872908 40.736350
14778 966 2 -41.668339 -32.187499 40.061931
14779 966 2 -41.502766 -36.811311 38.451668
14780 966 2 -38.833651 -33.349973 36.239210
14781 967 2 -20.737427 10.857209 5.435533
14782 967 3 -20.608482 8.432532 3.673627
14783 967 2 -22.953301 12.652788 4.505050
14784 967 2 -18.129411 12.333429 5.297578
14785 967 2 -21.258514 10.010089 8.265879
14786 968 2 31.502755 -1.400163 13.932429
14787 968 2 30.524258 0.886059 12.254415
14788 968 2 30.572962 -3.989025 12.735231
14789 968 2 30.412731 -1.136621 16.714945
14790 968 3 34.501067 -1.361066 14.025125
14791 969 2 34.166456 -28.896402 29.509640
14792 969 2 32.405122 -27.437040 31.450766
14793 969 2 35.511411 -26.919217 27.698056
14794 969 3 32.503533 -30.782129 27.872959
14795 969 2 36.245756 -30.447221 31.016780
14796 970 2 11.135927 -22.949875 -11.811080
14797 970 2 13.437563 -21.155015 -11.117576
14798 970 3 11.005439 -23.304044 -14.787242
14799 970 2 8.579213 -21.718907 -10.837460
14800 970 2 11.521491 -25.621534 -10.502042
14801 971 2 -27.242760 -20.158110 -38.453395
14802 971 3 -29.951211 -19.038657 -37.812215
14803 971 2 -25.292784 -19.338669 -36.325930
14804 971 2 -26.327686 -19.103245 -41.108560
14805 971 2 -27.399358 -23.151870 -38.566877
14806 972 2 -37.326918 32.434328 41.647361
14807 972 3 -36.001445 30.003850 42.803172
14808 972 2 -37.598391 34.532214 43.774608
14809 972 2 -40.046402 31.696095 40.618079
14810 972 2 -35.661436 33.505153 39.393586
14811 973 2 26.261874 -7.953558 -39.320685
14812 973 2 24.720049 -10.495290 -38.917729
14813 973 3 24.434774 -5.604677 -38.940597
14814 973 2 27.394223 -7.900494 -42.098268
14815 973 2 28.498449 -7.813769 -37.326145
14816 974 2 5.357448 -16.917412 -15.450292
14817 974 2 3.380365 -18.321044 -13.683669
14818 974 2 6.764484 -14.784147 -13.878850
14819 974 2 3.917810 -15.667791 -17.766732
14820 974 3 7.367133 -18.896666 -16.471918
14821 975 2 12.736924 38.476423 30.860117
14822 975 2 12.042911 37.844391 28.010751
14823 975 2 11.144992 40.849142 31.774422
14824 975 3 15.664739 39.098684 31.061835
14825 975 2 12.095055 36.113473 32.593458
14826 976 2 19.560472 -40.525198 15.190448
14827 976 2 20.455983 -40.834702 18.036896
14828 976 2 19.976321 -37.686265 14.314361
14829 976 2 16.650319 -41.221731 14.976320
14830 976 3 21.159264 -42.358095 13.434215
14831 977 2 -26.029567 -3.790141 6.690846
14832 977 2 -25.377149 -3.720779 9.618224
14833 977 2 -26.452544 -6.631966 5.827641
14834 977 3 -23.760056 -2.598778 5.132009
14835 977 2 -28.528519 -2.209042 6.185511
14836 978 2 -42.050829 1.552813 1.294803
14837 978 2 -39.570613 3.154962 0.764102
14838 978 2 -42.464534 1.301475 4.255492
14839 978 3 -41.753269 -1.178998 0.091196
14840 978 2 -44.414901 2.933811 0.068423
14841 979 2 -23.836357 41.113324 43.268747
14842 979 2 -24.537434 38.743774 41.567652
14843 979 3 -25.560345 43.443874 42.496474
14844 979 2 -20.951119 41.823117 42.854506
14845 979 2 -24.296531 40.442532 46.156354
14846 980 2 -5.927655 -40.875241 -31.130696
14847 980 3 -8.126946 -39.031081 -32.003733
14848 980 2 -4.644967 -42.114321 -33.543037
14849 980 2 -7.065874 -43.032599 -29.384194
14850 980 2 -3.872834 -39.322965 -29.591818
14851 981 2 42.995487 -27.563164 -27.271353
14852 981 2 44.265686 -29.754646 -28.878837
14853 981 2 43.260839 -28.184448 -24.348411
14854 981 2 40.090281 -27.351685 -27.989024
14855 981 3 44.365143 -24.961878 -27.869143
14856 982 2 32.651356 6.316374 -21.128988
14857 982 2 35.344456 5.279754 -20.308847
14858 982 2 32.299036 5.955368 -24.086275
14859 982 2 32.451393 9.230860 -20.446503
14860 982 3 30.510539 4.799514 -19.674328
14861 983 2 -37.980625 37.323496 -21.778721
14862 983 3 -40.615048 38.533303 -22.550848
14863 983 2 -37.678029 37.406843 -18.795184
14864 983 2 -35.754159 38.878428 -23.053489
14865 983 2 -37.875263 34.475408 -22.715361
14866 984 2 -33.689900 -13.073110 -17.370296
14867 984 2 -32.374395 -11.328824 -19.426242
14868 984 2 -31.709585 -15.081285 -16.347759
14869 984 3 -36.014782 -14.504796 -18.613357
14870 984 2 -34.660839 -11.377536 -15.093829
14871 985 2 -3.895330 -26.698015 -1.533592
14872 985 3 -4.881694 -28.702608 0.468579
14873 985 2 -3.429204 -28.059794 -4.165756
14874 985 2 -1.324964 -25.494897 -0.561109
14875 985 2 -5.945459 -24.534760 -1.876084
14876 986 2 39.491031 -33.270438 7.893120
14877 986 3 41.234084 -30.865048 7.473759
14878 986 2 36.680103 -32.624653 7.067501
14879 986 2 39.529856 -34.040305 10.792396
14880 986 2 40.520080 -35.551746 6.238825
14881 987 2 -33.094789 -7.884081 -30.617554
14882 987 2 -34.084952 -5.156989 -29.854305
14883 987 3 -33.534697 -9.782294 -28.336486
14884 987 2 -30.165763 -7.743435 -31.250820
14885 987 2 -34.593743 -8.853604 -33.028603
14886 988 2 16.245748 31.804419 -36.487572
14887 988 3 19.045644 32.106587 -35.453514
14888 988 2 14.370627 33.406683 -34.779744
14889 988 2 15.454044 28.912099 -36.399905
14890 988 2 16.112675 32.792310 -39.317124
14891 989 2 4.534751 -37.660622 -31.419134
14892 989 2 7.354623 -38.579261 -30.967002
14893 989 3 4.092852 -37.193604 -34.349428
14894 989 2 4.061889 -35.107150 -29.917075
14895 989 2 2.629640 -39.762473 -30.443033
14896 990 2 39.575778 -43.171447 -18.878085
14897 990 3 42.096912 -42.095065 -17.659362
14898 990 2 39.494490 -46.151203 -18.539786
14899 990 2 39.509296 -42.494569 -21.799971
14900 990 2 37.202414 -41.944951 -17.513223
14901 991 2 28.088329 17.906442 -29.602139
14902 991 2 26.623043 20.137870 -30.970957
14903 991 2 27.151994 17.690483 -26.760197
14904 991 3 31.034465 18.470813 -29.644205
14905 991 2 27.543816 15.326602 -31.033198
14906 992 2 33.778904 -41.748876 -9.853007
14907 992 3 32.031661 -39.733131 -8.480449
14908 992 2 36.578830 -41.528125 -8.798643
14909 992 2 33.778626 -41.225922 -12.807075
14910 992 2 32.726500 -44.508326 -9.325860
14911 993 2 -0.293213 37.802872 -36.460636
14912 993 2 -0.926774 37.977633 -39.387761
14913 993 2 0.561343 40.498786 -35.459747
14914 993 3 1.924799 35.828500 -36.033695
14915 993 2 -2.732221 36.906567 -34.961343
14916 994 2 36.449163 -7.960134 -9.177878
14917 994 2 36.194040 -8.924551 -12.007155
14918 994 2 33.901376 -8.521028 -7.696603
14919 994 2 36.980122 -5.007500 -9.171881
14920 994 3 38.721117 -9.387456 -7.835873
14921 995 2 39.041141 -19.632931 -6.699054
14922 995 2 36.193156 -19.699997 -5.758582
14923 995 2 40.195619 -22.399758 -6.590198
14924 995 2 40.636954 -17.813060 -4.926640
14925 995 3 39.138834 -18.618909 -9.520793
14926 996 2 2.258544 -43.828563 -11.434653
14927 996 2 3.998229 -46.268355 -11.579253
14928 996 2 1.685638 -43.177672 -8.562699
14929 996 2 -0.320414 -44.352504 -12.874952
14930 996 3 3.670723 -41.515720 -12.721707
14931 997 2 11.947516 -15.343376 24.526893
14932 997 3 13.601247 -13.606145 22.724893
14933 997 2 11.001048 -13.733721 26.874916
14934 997 2 13.608737 -17.645398 25.496965
14935 997 2 9.579031 -16.388238 23.010798
14936 998 2 11.408485 -44.072114 9.592552
14937 998 2 13.368115 -42.010292 8.639272
14938 998 2 10.766048 -43.580850 12.481485
14939 998 3 12.604562 -46.806125 9.285007
14940 998 2 8.895215 -43.891189 7.964442
14941 999 2 -39.441341 -15.531913 -43.817442
14942 999 3 -41.181550 -16.655361 -41.647295
14943 999 2 -38.146418 -17.779305 -45.324893
14944 999 2 -37.321897 -13.792543 -42.599843
14945 999 2 -41.115498 -13.900445 -45.697736
14946 1000 2 1.177714 -17.954053 31.821990
14947 1000 2 2.767941 -15.438497 31.443636
14948 1000 3 0.694127 -18.400709 34.748873
14949 1000 2 2.701049 -20.279298 30.693855
14950 1000 2 -1.452262 -17.697710 30.401597
14951 1001 2 33.885455 -4.853511 -39.280808
14952 1001 2 32.129754 -7.250149 -39.697512
14953 1001 2 34.295861 -4.413418 -36.341780
14954 1001 3 32.577677 -2.435029 -40.481082
14955 1001 2 36.538528 -5.315450 -40.602857
14956 1002 2 37.660547 19.140569 5.745490
14957 1002 2 37.828286 16.145263 5.747150
14958 1002 3 37.023277 20.104914 2.977111
14959 1002 2 40.288586 20.289795 6.624517
14960 1002 2 35.502038 20.022304 7.633183
14961 1003 2 -32.165766 -24.412868 27.587783
14962 1003 2 -29.551419 -23.910446 28.970809
14963 1003 3 -34.400273 -24.248295 29.582750
14964 1003 2 -32.132048 -27.144077 26.347073
14965 1003 2 -32.579324 -22.348652 25.450499
14966 1004 2 10.306594 24.330708 -29.108856
14967 1004 2 9.466879 21.462573 -29.370914
14968 1004 3 8.746615 26.010238 -31.044223
14969 1004 2 13.235903 24.573881 -29.708869
14970 1004 2 9.776980 25.276142 -26.311417
14971 1005 2 -28.546362 -12.425170 -14.341023
14972 1005 3 -31.317474 -12.679873 -15.461766
14973 1005 2 -28.424863 -13.765769 -11.659972
14974 1005 2 -27.852409 -9.522118 -14.039830
14975 1005 2 -26.590703 -13.732920 -16.202524
14976 1006 2 -14.025087 38.409341 5.539248
14977 1006 2 -12.941825 35.997423 6.956709
14978 1006 2 -14.241712 40.692471 7.473258
14979 1006 3 -16.739204 37.780311 4.426644
14980 1006 2 -12.177606 39.167161 3.300381
14981 1007 2 44.075774 -33.128324 -31.751748
14982 1007 3 41.734212 -34.897434 -31.129381
14983 1007 2 44.431361 -32.949258 -34.725212
14984 1007 2 46.555133 -34.279333 -30.515640
14985 1007 2 43.582390 -30.387272 -30.636756
14986 1008 2 -28.906199 -21.880841 -42.462925
14987 1008 2 -26.839805 -19.713835 -42.647601
14988 1008 3 -31.645223 -20.658475 -42.522644
14989 1008 2 -28.542075 -23.393881 -39.898140
14990 1008 2 -28.597691 -23.757172 -44.783314
14991 1009 2 14.589795 -14.416226 -31.999774
14992 1009 3 17.321395 -14.858254 -33.158641
14993 1009 2 13.285427 -17.066321 -31.474775
14994 1009 2 12.922636 -12.847792 -33.938999
14995 1009 2 14.829723 -12.892538 -29.426681
14996 1010 2 37.468980 30.343796 -11.479230
14997 1010 2 35.325696 28.893960 -9.961234
14998 1010 2 39.855495 30.742080 -9.705558
14999 1010 3 36.430495 33.012754 -12.372657
15000 1010 2 38.264233 28.726388 -13.877472

Bonds

1 1 1 2
2 1 2 3
3 1 3 4
4 1 4 5
5 1 5 6
6 1 6 7
7 1 7 8
8 1 8 9
9 1 9 10
10 1 10 11
11 1 11 12
12 1 12 13
13 1 13 14
14 1 14 15
15 1 15 16
16 1 16 17
17 1 17 18
18 1 18 19
19 1 19 20
20 1 20 21
21 1 21 22
22 1 22 23
23 1 23 24
24 1 24 25
25 1 25 26
26 1 26 27
27 1 27 28
28 1 28 29
29 1 29 30
30 1 30 31
31 1 31 32
32 1 32 33
33 1 33 34
34 1 34 35
35 1 35 36
36 1 36 37
37 1 37 38
38 1 38 39
39 1 39 40
40 1 40 41
41 1 41 42
42 1 42 43
43 1 43 44
44 1 44 45
45 1 45 46
46 1 46 47
47 1 47 48
48 1 48 49
49 1 49 50
50 1 50 51
51 1 51 52
52 1 52 53
53 1 53 54
54 1 54 55
55 1 55 56
56 1 56 57
57 1 57 58
58 1 58 59
59 1 59 60
60 1 60 61
61 1 61 62
62 1 62 63
63 1 63 64
64 1 64 65
65 1 65 66
66 1 66 67
67 1 67 68
68 1 68 69
69 1 69 70
70 1 70 71
71 1 71 72
72 1 72 73
73 1 73 74
74 1 74 75
75 1 75 76
76 1 76 77
77 1 77 78
78 1 78 79
79 1 79 80
80 1 80 81
81 1 81 82
82 1 82 83
83 1 83 84
84 1 84 85
85 1 85 86
86 1 86 87
87 1 87 88
88 1 88 89
89 1 89 90
90 1 90 91
91 1 91 92
92 1 92 93
93 1 93 94
94 1 94 95
95 1 95 96
96 1 96 97
97 1 97 98
98 1 98 99
99 1 99 100
100 1 100 101
101 1 101 102
102 1 102 103
103 1 103 104
104 1 104 105
105 1 105 106
106 1 106 107
107 1 107 108
108 1 108 109
109 1 109 110
110 1 110 111
111 1 111 112
112 1 112 113
113 1 113 114
114 1 114 115
115 1 115 116
116 1 116 117
117 1 117 118
118 1 118 119
119 1 119 120
120 1 120 121
121 1 121 122
122 1 122 123
123 1 123 124
124 1 124 125
125 1 125 126
126 1 126 127
127 1 127 128
128 1 128 129
129 1 129 130
130 1 130 131
131 1 131 132
132 1 132 133
133 1 133 134
134 1 134 135
135 1 135 136
136 1 136 137
137 1 137 138
138 1 138 139
139 1 139 140
140 1 140 141
141 1 141 142
142 1 142 143
143 1 143 144
144 1 144 145
145 1 145 146
146 1 146 147
147 1 147 148
148 1 148 149
149 1 149 150
150 1 150 151
151 1 151 152
152 1 152 153
153 1 153 154
154 1 154 155
155 1 155 156
156 1 156 157
157 1 157 158
158 1 158 159
159 1 159 160
160 1 160 161
161 1 161 162
162 1 162 163
163 1 163 164
164 1 164 165
165 1 165 166
166 1 166 167
167 1 167 168
168 1 168 169
169 1 169 170
170 1 170 171
171 1 171 172
172 1 172 173
173 1 173 174
174 1 174 175
175 1 175 176
176 1 176 177
177 1 177 178
178 1 178 179
179 1 179 180
180 1 180 181
181 1 181 182
182 1 182 183
183 1 183 184
184 1 184 185
185 1 185 186
186 1 186 187
187 1 187 188
188 1 188 189
189 1 189 190
190 1 190 191
191 1 191 192
192 1 192 193
193 1 193 194
194 1 194 195
195 1 195 196
196 1 196 197
197 1 197 198
198 1 198 199
199 1 199 200
200 1 200 201
201 1 201 202
202 1 202 203
203 1 203 204
204 1 204 205
205 1 205 206
206 1 206 207
207 1 207 208
208 1 208 209
209 1 209 210
210 1 210 211
211 1 211 212
212 1 212 213
213 1 213 214
214 1 214 215
215 1 215 216
216 1 216 217
217 1 217 218
218 1 218 219
219 1 219 220
220 1 220 221
221 1 221 222
222 1 222 223
223 1 223 224
224 1 224 225
225 1 225 226
226 1 226 227
227 1 227 228
228 1 228 229
229 1 229 230
230 1 230 231
231 1 231 232
232 1 232 233
233 1 233 234
234 1 234 235
235 1 235 236
236 1 236 237
237 1 237 238
238 1 238 239
239 1 239 240
240 1 240 241
241 1 241 242
242 1 242 243
243 1 243 244
244 1 244 245
245 1 245 246
246 1 246 247
247 1 247 248
248 1 248 249
249 1 249 250
250 1 250 251
251 1 251 252
252 1 252 253
253 1 253 254
254 1 254 255
255 1 255 256
256 1 256 257
257 1 257 258
258 1 258 259
259 1 259 260
260 1 260 261
261 1 261 262
262 1 262 263
263 1 263 264
264 1 264 265
265 1 265 266
266 1 266 267
267 1 267 268
268 1 268 269
269 1 269 270
270 1 270 271
271 1 271 272
272 1 272 273
273 1 273 274
274 1 274 275
275 1 275 276
276 1 276 277
277 1 277 278
278 1 278 279
279 1 279 280
280 1 280 281
281 1 281 282
282 1 282 283
283 1 283 284
284 1 284 285
285 1 285 286
286 1 286 287
287 1 287 288
288 1 288 289
289 1 289 290
290 1 290 291
291 1 291 292
292 1 292 293
293 1 293 294
294 1 294 295
295 1 295 296
296 1 296 297
297 1 297 298
298 1 298 299
299 1 299 300
300 1 300 301
301 1 301 302
302 1 302 303
303 1 303 304
304 1 304 305
305 1 305 306
306 1 306 307
307 1 307 308
308 1 308 309
309 1 309 310
310 1 310 311
311 1 311 312
312 1 312 313
313 1 313 314
314 1 314 315
315 1 315 316
316 1 316 317
317 1 317 318
318 1 318 319
319 1 319 320
320 1 320 321
321 1 321 322
322 1 322 323
323 1 323 324
324 1 324 325
325 1 325 326
326 1 326 327
327 1 327 328
328 1 328 329
329 1 329 330
330 1 330 331
331 1 331 332
332 1 332 333
333 1 333 334
334 1 334 335
335 1 335 336
336 1 336 337
337 1 337 338
338 1 338 339
339 1 339 340
340 1 340 341
341 1 341 342
342 1 342 343
343 1 343 344
344 1 344 345
345 1 345 346
346 1 346 347
347 1 347 348
348 1 348 349
349 1 349 350
350 1 350 351
351 1 351 352
352 1 352 353
353 1 353 354
354 1 354 355
355 1 355 356
356 1 356 357
357 1 357 358
358 1 358 359
359 1 359 360
360 1 360 361
361 1 361 362
362 1 362 363
363 1 363 364
364 1 364 365
365 1 365 366
366 1 366 367
367 1 367 368
368 1 368 369
369 1 369 370
370 1 370 371
371 1 371 372
372 1 372 373
373 1 373 374
374 1 374 375
375 1 375 376
376 1 376 377
377 1 377 378
378 1 378 379
379 1 379 380
380 1 380 381
381 1 381 382
382 1 382 383
383 1 383 384
384 1 384 385
385 1 385 386
386 1 386 387
387 1 387 388
388 1 388 389
389 1 389 390
390 1 390 391
391 1 391 392
392 1 392 393
393 1 393 394
394 1 394 395
395 1 395 396
396 1 396 397
397 1 397 398
398 1 398 399
399 1 399 400
400 1 400 401
401 1 401 402
402 1 402 403
403 1 403 404
404 1 404 405
405 1 405 406
406 1 406 407
407 1 407 408
408 1 408 409
409 1 409 410
410 1 410 411
411 1 411 412
412 1 412 413
413 1 413 414
414 1 414 415
415 1 415 416
416 1 416 417
417 1 417 418
418 1 418 419
419 1 419 420
420 1 420 421
421 1 421 422
422 1 422 423
423 1 423 424
424 1 424 425
425 1 425 426
426 1 426 427
427 1 427 428
428 1 428 429
429 1 429 430
430 1 430 431
431 1 431 432
432 1 432 433
433 1 433 434
434 1 434 435
435 1 435 436
436 1 436 437
437 1 437 438
438 1 438 439
439 1 439 440
440 1 440 441
441 1 441 442
442 1 442 443
443 1 443 444
444 1 444 445
445 1 445 446
446 1 446 447
447 1 447 448
448 1 448 449
449 1 449 450
450 1 450 451
451 1 451 452
452 1 452 453
453 1 453 454
454 1 454 455
455 1 455 456
456 1 456 457
457 1 457 458
458 1 458 459
459 1 459 460
460 1 460 461
461 1 461 462
462 1 462 463
463 1 463 464
464 1 464 465
465 1 465 466
466 1 466 467
467 1 467 468
468 1 468 469
469 1 469 470
470 1 470 471
471 1 471 472
472 1 472 473
473 1 473 474
474 1 474 475
475 1 475 476
476 1 476 477
477 1 477 478
478 1 478 479
479 1 479 480
480 1 480 481
481 1 481 482
482 1 482 483
483 1 483 484
484 1 484 485
485 1 485 486
486 1 486 487
487 1 487 488
488 1 488 489
489 1 489 490
490 1 490 491
491 1 491 492
492 1 492 493
493 1 493 494
494 1 494 495
495 1 495 496
496 1 496 497
497 1 497 498
498 1 498 499
499 1 499 500
500 1 500 501
501 1 501 502
502 1 502 503
503 1 503 504
504 1 504 505
505 1 505 506
506 1 506 507
507 1 507 508
508 1 508 509
509 1 509 510
510 1 510 511
511 1 511 512
512 1 512 513
513 1 513 514
514 1 514 515
515 1 515 516
516 1 516 517
517 1 517 518
518 1 518 519
519 1 519 520
520 1 520 521
521 1 521 522
522 1 522 523
523 1 523 524
524 1 524 525
525 1 525 526
526 1 526 527
527 1 527 528
528 1 528 529
529 1 529 530
530 1 530 531
531 1 531 532
532 1 532 533
533 1 533 534
534 1 534 535
535 1 535 536
536 1 536 537
537 1 537 538
538 1 538 539
539 1 539 540
540 1 540 541
541 1 541 542
542 1 542 543
543 1 543 544
544 1 544 545
545 1 545 546
546 1 546 547
547 1 547 548
548 1 548 549
549 1 549 550
550 1 550 551
551 1 551 552
552 1 552 553
553 1 553 554
554 1 554 555
555 1 555 556
556 1 556 557
557 1 557 558
558 1 558 559
559 1 559 560
560 1 560 561
561 1 561 562
562 1 562 563
563 1 563 564
564 1 564 565
565 1 565 566
566 1 566 567
567 1 567 568
568 1 568 569
569 1 569 570
570 1 570 571
571 1 571 572
572 1 572 573
573 1 573 574
574 1 574 575
575 1 575 576
576 1 576 577
577 1 577 578
578 1 578 579
579 1 579 580
580 1 580 581
581 1 581 582
582 1 582 583
583 1 583 584
584 1 584 585
585 1 585 586
586 1 586 587
587 1 587 588
588 1 588 589
589 1 589 590
590 1 590 591
591 1 591 592
592 1 592 593
593 1 593 594
594 1 594 595
595 1 595 596
596 1 596 597
597 1 597 598
598 1 598 599
599 1 599 600
600 1 600 601
601 1 601 602
602 1 602 603
603 1 603 604
604 1 604 605
605 1 605 606
606 1 606 607
607 1 607 608
608 1 608 609
609 1 609 610
610 1 610 611
611 1 611 612
612 1 612 613
613 1 613 614
614 1 614 615
615 1 615 616
616 1 616 617
617 1 617 618
618 1 618 619
619 1 619 620
620 1 620 621
621 1 621 622
622 1 622 623
623 1 623 624
624 1 624 625
625 1 625 626
626 1 626 627
627 1 627 628
628 1 628 629
629 1 629 630
630 1 630 631
631 1 631 632
632 1 632 633
633 1 633 634
634 1 634 635
635 1 635 636
636 1 636 637
637 1 637 638
638 1 638 639
639 1 639 640
640 1 640 641
641 1 641 642
642 1 642 643
643 1 643 644
644 1 644 645
645 1 645 646
646 1 646 647
647 1 647 648
648 1 648 649
649 1 649 650
650 1 650 651
651 1 651 652
652 1 652 653
653 1 653 654
654 1 654 655
655 1 655 656
656 1 656 657
657 1 657 658
658 1 658 659
659 1 659 660
660 1 660 661
661 1 661 662
662 1 662 663
663 1 663 664
664 1 664 665
665 1 665 666
666 1 666 667
667 1 667 668
668 1 668 669
669 1 669 670
670 1 670 671
671 1 671 672
672 1 672 673
673 1 673 674
674 1 674 675
675 1 675 676
676 1 676 677
677 1 677 678
678 1 678 679
679 1 679 680
680 1 680 681
681 1 681 682
682 1 682 683
683 1 683 684
684 1 684 685
685 1 685 686
686 1 686 687
687 1 687 688
688 1 688 689
689 1 689 690
690 1 690 691
691 1 691 692
692 1 692 693
693 1 693 694
694 1 694 695
695 1 695 696
696 1 696 697
697 1 697 698
698 1 698 699
699 1 699 700
700 1 700 701
701 1 701 702
702 1 702 703
703 1 703 704
704 1 704 705
705 1 705 706
706 1 706 707
707 1 707 708
708 1 708 709
709 1 709 710
710 1 710 711
711 1 711 712
712 1 712 713
713 1 713 714
714 1 714 715
715 1 715 716
716 1 716 717
717 1 717 718
718 1 718 719
719 1 719 720
720 1 720 721
721 1 721 722
722 1 722 723
723 1 723 724
724 1 724 725
725 1 725 726
726 1 726 727
727 1 727 728
728 1 728 729
729 1 729 730
730 1 730 731
731 1 731 732
732 1 732 733
733 1 733 734
734 1 734 735
735 1 735 736
736 1 736 737
737 1 737 738
738 1 738 739
739 1 739 740
740 1 740 741
741 1 741 742
742 1 742 743
743 1 743 744
744 1 744 745
745 1 745 746
746 1 746 747
747 1 747 748
748 1 748 749
749 1 749 750
750 1 750 751
751 1 751 752
752 1 752 753
753 1 753 754
754 1 754 755
755 1 755 756
756 1 756 757
757 1 757 758
758 1 758 759
759 1 759 760
760 1 760 761
761 1 761 762
762 1 762 763
763 1 763 764
764 1 764 765
765 1 765 766
766 1 766 767
767 1 767 768
768 1 768 769
769 1 769 770
770 1 770 771
771 1 771 772
772 1 772 773
773 1 773 774
774 1 774 775
775 1 775 776
776 1 776 777
777 1 777 778
778 1 778 779
779 1 779 780
780 1 780 781
781 1 781 782
782 1 782 783
783 1 783 784
784 1 784 785
785 1 785 786
786 1 786 787
787 1 787 788
788 1 788 789
789 1 789 790
790 1 790 791
791 1 791 792
792 1 792 793
793 1 793 794
794 1 794 795
795 1 795 796
796 1 796 797
797 1 797 798
798 1 798 799
799 1 799 800
800 1 800 801
801 1 801 802
802 1 802 803
803 1 803 804
804 1 804 805
805 1 805 806
806 1 806 807
807 1 807 808
808 1 808 809
809 1 809 810
810 1 810 811
811 1 811 812
812 1 812 813
813 1 813 814
814 1 814 815
815 1 815 816
816 1 816 817
817 1 817 818
818 1 818 819
819 1 819 820
820 1 820 821
821 1 821 822
822 1 822 823
823 1 823 824
824 1 824 825
825 1 825 826
826 1 826 827
827 1 827 828
828 1 828 829
829 1 829 830
830 1 830 831
831 1 831 832
832 1 832 833
833 1 833 834
834 1 834 835
835 1 835 836
836 1 836 837
837 1 837 838
838 1 838 839
839 1 839 840
840 1 840 841
841 1 841 842
842 1 842 843
843 1 843 844
844 1 844 845
845 1 845 846
846 1 846 847
847 1 847 848
848 1 848 849
849 1 849 850
850 1 850 851
851 1 851 852
852 1 852 853
853 1 853 854
854 1 854 855
855 1 855 856
856 1 856 857
857 1 857 858
858 1 858 859
859 1 859 860
860 1 860 861
861 1 861 862
862 1 862 863
863 1 863 864
864 1 864 865
865 1 865 866
866 1 866 867
867 1 867 868
868 1 868 869
869 1 869 870
870 1 870 871
871 1 871 872
872 1 872 873
873 1 873 874
874 1 874 875
875 1 875 876
876 1 876 877
877 1 877 878
878 1 878 879
879 1 879 880
880 1 880 881
881 1 881 882
882 1 882 883
883 1 883 884
884 1 884 885
885 1 885 886
886 1 886 887
887 1 887 888
888 1 888 889
889 1 889 890
890 1 890 891
891 1 891 892
892 1 892 893
893 1 893 894
894 1 894 895
895 1 895 896
896 1 896 897
897 1 897 898
898 1 898 899
899 1 899 900
900 1 900 901
901 1 901 902
902 1 902 903
903 1 903 904
904 1 904 905
905 1 905 906
906 1 906 907
907 1 907 908
908 1 908 909
909 1 909 910
910 1 910 911
911 1 911 912
912 1 912 913
913 1 913 914
914 1 914 915
915 1 915 916
916 1 916 917
917 1 917 918
918 1 918 919
919 1 919 920
920 1 920 921
921 1 921 922
922 1 922 923
923 1 923 924
924 1 924 925
925 1 925 926
926 1 926 927
927 1 927 928
928 1 928 929
929 1 929 930
930 1 930 931
931 1 931 932
932 1 932 933
933 1 933 934
934 1 934 935
935 1 935 936
936 1 936 937
937 1 937 938
938 1 938 939
939 1 939 940
940 1 940 941
941 1 941 942
942 1 942 943
943 1 943 944
944 1 944 945
945 1 945 946
946 1 946 947
947 1 947 948
948 1 948 949
949 1 949 950
950 1 950 951
951 1 951 952
952 1 952 953
953 1 953 954
954 1 954 955
955 1 955 956
956 1 956 957
957 1 957 958
958 1 958 959
959 1 959 960
960 1 960 961
961 1 961 962
962 1 962 963
963 1 963 964
964 1 964 965
965 1 965 966
966 1 966 967
967 1 967 968
968 1 968 969
969 1 969 970
970 1 970 971
971 1 971 972
972 1 972 973
973 1 973 974
974 1 974 975
975 1 975 976
976 1 976 977
977 1 977 978
978 1 978 979
979 1 979 980
980 1 980 981
981 1 981 982
982 1 982 983
983 1 983 984
984 1 984 985
985 1 985 986
986 1 986 987
987 1 987 988
988 1 988 989
989 1 989 990
990 1 990 991
991 1 991 992
992 1 992 993
993 1 993 994
994 1 994 995
995 1 995 996
996 1 996 997
997 1 997 998
998 1 998 999
999 1 999 1000
1000 1 1001 1002
1001 1 1002 1003
1002 1 1003 1004
1003 1 1004 1005
1004 1 1005 1006
1005 1 1006 1007
1006 1 1007 1008
1007 1 1008 1009
1008 1 1009 1010
1009 1 1010 1011
1010 1 1011 1012
1011 1 1012 1013
1012 1 1013 1014
1013 1 1014 1015
1014 1 1015 1016
1015 1 1016 1017
1016 1 1017 1018
1017 1 1018 1019
1018 1 1019 1020
1019 1 1020 1021
1020 1 1021 1022
1021 1 1022 1023
1022 1 1023 1024
1023 1 1024 1025
1024 1 1025 1026
1025 1 1026 1027
1026 1 1027 1028
1027 1 1028 1029
1028 1 1029 1030
1029 1 1030 1031
1030 1 1031 1032
1031 1 1032 1033
1032 1 1033 1034
1033 1 1034 1035
1034 1 1035 1036
1035 1 1036 1037
1036 1 1037 1038
1037 1 1038 1039
1038 1 1039 1040
1039 1 1040 1041
1040 1 1041 1042
1041 1 1042 1043
1042 1 1043 1044
1043 1 1044 1045
1044 1 1045 1046
1045 1 1046 1047
1046 1 1047 1048
1047 1 1048 1049
1048 1 1049 1050
1049 1 1050 1051
1050 1 1051 1052
1051 1 1052 1053
1052 1 1053 1054
1053 1 1054 1055
1054 1 1055 1056
1055 1 1056 1057
1056 1 1057 1058
1057 1 1058 1059
1058 1 1059 1060
1059 1 1060 1061
1060 1 1061 1062
1061 1 1062 1063
1062 1 1063 1064
1063 1 1064 1065
1064 1 1065 1066
1065 1 1066 1067
1066 1 1067 1068
1067 1 1068 1069
1068 1 1069 1070
1069 1 1070 1071
1070 1 1071 1072
1071 1 1072 1073
1072 1 1073 1074
1073 1 1074 1075
1074 1 1075 1076
1075 1 1076 1077
1076 1 1077 1078
1077 1 1078 1079
1078 1 1079 1080
1079 1 1080 1081
1080 1 1081 1082
1081 1 1082 1083
1082 1 1083 1084
1083 1 1084 1085
1084 1 1085 1086
1085 1 1086 1087
1086 1 1087 1088
1087 1 1088 1089
1088 1 1089 1090
1089 1 1090 1091
1090 1 1091 1092
1091 1 1092 1093
1092 1 1093 1094
1093 1 1094 1095
1094 1 1095 1096
1095 1 1096 1097
1096 1 1097 1098
1097 1 1098 1099
1098 1 1099 1100
1099 1 1100 1101
1100 1 1101 1102
1101 1 1102 1103
1102 1 1103 1104
1103 1 1104 1105
1104 1 1105 1106
1105 1 1106 1107
1106 1 1107 1108
1107 1 1108 1109
1108 1 1109 1110
1109 1 1110 1111
1110 1 1111 1112
1111 1 1112 1113
1112 1 1113 1114
1113 1 1114 1115
1114 1 1115 1116
1115 1 1116 1117
1116 1 1117 1118
1117 1 1118 1119
1118 1 1119 1120
1119 1 1120 1121
1120 1 1121 1122
1121 1 1122 1123
1122 1 1123 1124
1123 1 1124 1125
1124 1 1125 1126
1125 1 1126 1127
1126 1 1127 1128
1127 1 1128 1129
1128 1 1129 1130
1129 1 1130 1131
1130 1 1131 1132
1131 1 1132 1133
1132 1 1133 1134
1133 1 1134 1135
1134 1 1135 1136
1135 1 1136 1137
1136 1 1137 1138
1137 1 1138 1139
1138 1 1139 1140
1139 1 1140 1141
1140 1 1141 1142
1141 1 1142 1143
1142 1 1143 1144
1143 1 1144 1145
1144 1 1145 1146
1145 1 1146 1147
1146 1 1147 1148
1147 1 1148 1149
1148 1 1149 1150
1149 1 1150 1151
1150 1 1151 1152
1151 1 1152 1153
1152 1 1153 1154
1153 1 1154 1155
1154 1 1155 1156
1155 1 1156 1157
1156 1 1157 1158
1157 1 1158 1159
1158 1 1159 1160
1159 1 1160 1161
1160 1 1161 1162
1161 1 1162 1163
1162 1 1163 1164
1163 1 1164 1165
1164 1 1165 1166
1165 1 1166 1167
1166 1 1167 1168
1167 1 1168 1169
1168 1 1169 1170
1169 1 1170 1171
1170 1 1171 1172
1171 1 1172 1173
1172 1 1173 1174
1173 1 1174 1175
1174 1 1175 1176
1175 1 1176 1177
1176 1 1177 1178
1177 1 1178 1179
1178 1 1179 1180
1179 1 1180 1181
1180 1 1181 1182
1181 1 1182 1183
1182 1 1183 1184
1183 1 1184 1185
1184 1 1185 1186
1185 1 1186 1187
1186 1 1187 1188
1187 1 1188 1189
1188 1 1189 1190
1189 1 1190 1191
1190 1 1191 1192
1191 1 1192 1193
1192 1 1193 1194
1193 1 1194 1195
1194 1 1195 1196
1195 1 1196 1197
1196 1 1197 1198
1197 1 1198 1199
1198 1 1199 1200
1199 1 1200 1201
1200 1 1201 1202
1201 1 1202 1203
1202 1 1203 1204
1203 1 1204 1205
1204 1 1205 1206
1205 1 1206 1207
1206 1 1207 1208
1207 1 1208 1209
1208 1 1209 1210
1209 1 1210 1211
1210 1 1211 1212
1211 1 1212 1213
1212 1 1213 1214
1213 1 1214 1215
1214 1 1215 1216
1215 1 1216 1217
1216 1 1217 1218
1217 1 1218 1219
1218 1 1219 1220
1219 1 1220 1221
1220 1 1221 1222
1221 1 1222 1223
1222 1 1223 1224
1223 1 1224 1225
1224 1 1225 1226
1225 1 1226 1227
1226 1 1227 1228
1227 1 1228 1229
1228 1 1229 1230
1229 1 1230 1231
1230 1 1231 1232
1231 1 1232 1233
1232 1 1233 1234
1233 1 1234 1235
1234 1 1235 1236
1235 1 1236 1237
1236 1 1237 1238
1237 1 1238 1239
1238 1 1239 1240
1239 1 1240 1241
1240 1 1241 1242
1241 1 1242 1243
1242 1 1243 1244
1243 1 1244 1245
1244 1 1245 1246
1245 1 1246 1247
1246 1 1247 1248
1247 1 1248 1249
1248 1 1249 1250
1249 1 1250 1251
1250 1 1251 1252
1251 1 1252 1253
1252 1 1253 1254
1253 1 1254 1255
1254 1 1255 1256
1255 1 1256 1257
1256 1 1257 1258
1257 1 1258 1259
1258 1 1259 1260
1259 1 1260 1261
1260 1 1261 1262
1261 1 1262 1263
1262 1 1263 1264
1263 1 1264 1265
1264 1 1265 1266
1265 1 1266 1267
1266 1 1267 1268
1267 1 1268 1269
1268 1 1269 1270
1269 1 1270 1271
1270 1 1271 1272
1271 1 1272 1273
1272 1 1273 1274
1273 1 1274 1275
1274 1 1275 1276
1275 1 1276 1277
1276 1 1277 1278
1277 1 1278 1279
1278 1 1279 1280
1279 1 1280 1281
1280 1 1281 1282
1281 1 1282 1283
1282 1 1283 1284
1283 1 1284 1285
1284 1 1285 1286
1285 1 1286 1287
1286 1 1287 1288
1287 1 1288 1289
1288 1 1289 1290
1289 1 1290 1291
1290 1 1291 1292
1291 1 1292 1293
1292 1 1293 1294
1293 1 1294 1295
1294 1 1295 1296
1295 1 1296 1297
1296 1 1297 1298
1297 1 1298 1299
1298 1 1299 1300
1299 1 1300 1301
1300 1 1301 1302
1301 1 1302 1303
1302 1 1303 1304
1303 1 1304 1305
1304 1 1305 1306
1305 1 1306 1307
1306 1 1307 1308
1307 1 1308 1309
1308 1 1309 1310
1309 1 1310 1311
1310 1 1311 1312
1311 1 1312 1313
1312 1 1313 1314
1313 1 1314 1315
1314 1 1315 1316
1315 1 1316 1317
1316 1 1317 1318
1317 1 1318 1319
1318 1 1319 1320
1319 1 1320 1321
1320 1 1321 1322
1321 1 1322 1323
1322 1 1323 1324
1323 1 1324 1325
1324 1 1325 1326
1325 1 1326 1327
1326 1 1327 1328
1327 1 1328 1329
1328 1 1329 1330
1329 1 1330 1331
1330 1 1331 1332
1331 1 1332 1333
1332 1 1333 1334
1333 1 1334 1335
1334 1 1335 1336
1335 1 1336 1337
1336 1 1337 1338
1337 1 1338 1339
1338 1 1339 1340
1339 1 1340 1341
1340 1 1341 1342
1341 1 1342 1343
1342 1 1343 1344
1343 1 1344 1345
1344 1 1345 1346
1345 1 1346 1347
1346 1 1347 1348
1347 1 1348 1349
1348 1 1349 1350
1349 1 1350 1351
1350 1 1351 1352
1351 1 1352 1353
1352 1 1353 1354
1353 1 1354 1355
1354 1 1355 1356
1355 1 1356 1357
1356 1 1357 1358
1357 1 1358 1359
1358 1 1359 1360
1359 1 1360 1361
1360 1 1361 1362
1361 1 1362 1363
1362 1 1363 1364
1363 1 1364 1365
1364 1 1365 1366
1365 1 1366 1367
1366 1 1367 1368
1367 1 1368 1369
1368 1 1369 1370
1369 1 1370 1371
1370 1 1371 1372
1371 1 1372 1373
1372 1 1373 1374
1373 1 1374 1375
1374 1 1375 1376
1375 1 1376 1377
1376 1 1377 1378
1377 1 1378 1379
1378 1 1379 1380
1379 1 1380 1381
1380 1 1381 1382
1381 1 1382 1383
1382 1 1383 1384
1383 1 1384 1385
1384 1 1385 1386
1385 1 1386 1387
1386 1 1387 1388
1387 1 1388 1389
1388 1 1389 1390
1389 1 1390 1391
1390 1 1391 1392
1391 1 1392 1393
1392 1 1393 1394
1393 1 1394 1395
1394 1 1395 1396
1395 1 1396 1397
1396 1 1397 1398
1397 1 1398 1399
1398 1 1399 1400
1399 1 1400 1401
1400 1 1401 1402
1401 1 1402 1403
1402 1 1403 1404
1403 1 1404 1405
1404 1 1405 1406
1405 1 1406 1407
1406 1 1407 1408
1407 1 1408 1409
1408 1 1409 1410
1409 1 1410 1411
1410 1 1411 1412
1411 1 1412 1413
1412 1 1413 1414
1413 1 1414 1415
1414 1 1415 1416
1415 1 1416 1417
1416 1 1417 1418
1417 1 1418 1419
1418 1 1419 1420
1419 1 1420 1421
1420 1 1421 1422
1421 1 1422 1423
1422 1 1423 1424
1423 1 1424 1425
1424 1 1425 1426
1425 1 1426 1427
1426 1 1427 1428
1427 1 1428 1429
1428 1 1429 1430
1429 1 1430 1431
1430 1 1431 1432
1431 1 1432 1433
1432 1 1433 1434
1433 1 1434 1435
1434 1 1435 1436
1435 1 1436 1437
1436 1 1437 1438
1437 1 1438 1439
1438 1 1439 1440
1439 1 1440 1441
1440 1 1441 1442
1441 1 1442 1443
1442 1 1443 1444
1443 1 1444 1445
1444 1 1445 1446
1445 1 1446 1447
1446 1 1447 1448
1447 1 1448 1449
1448 1 1449 1450
1449 1 1450 1451
1450 1 1451 1452
1451 1 1452 1453
1452 1 1453 1454
1453 1 1454 1455
1454 1 1455 1456
1455 1 1456 1457
1456 1 1457 1458
1457 1 1458 1459
1458 1 1459 1460
1459 1 1460 1461
1460 1 1461 1462
1461 1 1462 1463
1462 1 1463 1464
1463 1 1464 1465
1464 1 1465 1466
1465 1 1466 1467
1466 1 1467 1468
1467 1 1468 1469
1468 1 1469 1470
1469 1 1470 1471
1470 1 1471 1472
1471 1 1472 1473
1472 1 1473 1474
1473 1 1474 1475
1474 1 1475 1476
1475 1 1476 1477
1476 1 1477 1478
1477 1 1478 1479
1478 1 1479 1480
1479 1 1480 1481
1480 1 1481 1482
1481 1 1482 1483
1482 1 1483 1484
1483 1 1484 1485
1484 1 1485 1486
1485 1 1486 1487
1486 1 1487 1488
1487 1 1488 1489
1488 1 1489 1490
1489 1 1490 1491
1490 1 1491 1492
1491 1 1492 1493
1492 1 1493 1494
1493 1 1494 1495
1494 1 1495 1496
1495 1 1496 1497
1496 1 1497 1498
1497 1 1498 1499
1498 1 1499 1500
1499 1 1500 1501
1500 1 1501 1502
1501 1 1502 1503
1502 1 1503 1504
1503 1 1504 1505
1504 1 1505 1506
1505 1 1506 1507
1506 1 1507 1508
1507 1 1508 1509
1508 1 1509 1510
1509 1 1510 1511
1510 1 1511 1512
1511 1 1512 1513
1512 1 1513 1514
1513 1 1514 1515
1514 1 1515 1516
1515 1 1516 1517
1516 1 1517 1518
1517 1 1518 1519
1518 1 1519 1520
1519 1 1520 1521
1520 1 1521 1522
1521 1 1522 1523
1522 1 1523 1524
1523 1 1524 1525
1524 1 1525 1526
1525 1 1526 1527
1526 1 1527 1528
1527 1 1528 1529
1528 1 1529 1530
1529 1 1530 1531
1530 1 1531 1532
1531 1 1532 1533
1532 1 1533 1534
1533 1 1534 1535
1534 1 1535 1536
1535 1 1536 1537
1536 1 1537 1538
1537 1 1538 1539
1538 1 1539 1540
1539 1 1540 1541
1540 1 1541 1542
1541 1 1542 1543
1542 1 1543 1544
1543 1 1544 1545
1544 1 1545 1546
1545 1 1546 1547
1546 1 1547 1548
1547 1 1548 1549
1548 1 1549 1550
1549 1 1550 1551
1550 1 1551 1552
1551 1 1552 1553
1552 1 1553 1554
1553 1 1554 1555
1554 1 1555 1556
1555 1 1556 1557
1556 1 1557 1558
1557 1 1558 1559
1558 1 1559 1560
1559 1 1560 1561
1560 1 1561 1562
1561 1 1562 1563
1562 1 1563 1564
1563 1 1564 1565
1564 1 1565 1566
1565 1 1566 1567
1566 1 1567 1568
1567 1 1568 1569
1568 1 1569 1570
1569 1 1570 1571
1570 1 1571 1572
1571 1 1572 1573
1572 1 1573 1574
1573 1 1574 1575
1574 1 1575 1576
1575 1 1576 1577
1576 1 1577 1578
1577 1 1578 1579
1578 1 1579 1580
1579 1 1580 1581
1580 1 1581 1582
1581 1 1582 1583
1582 1 1583 1584
1583 1 1584 1585
1584 1 1585 1586
1585 1 1586 1587
1586 1 1587 1588
1587 1 1588 1589
1588 1 1589 1590
1589 1 1590 1591
1590 1 1591 1592
1591 1 1592 1593
1592 1 1593 1594
1593 1 1594 1595
1594 1 1595 1596
1595 1 1596 1597
1596 1 1597 1598
1597 1 1598 1599
1598 1 1599 1600
1599 1 1600 1601
1600 1 1601 1602
1601 1 1602 1603
1602 1 1603 1604
1603 1 1604 1605
1604 1 1605 1606
1605 1 1606 1607
1606 1 1607 1608
1607 1 1608 1609
1608 1 1609 1610
1609 1 1610 1611
1610 1 1611 1612
1611 1 1612 1613
1612 1 1613 1614
1613 1 1614 1615
1614 1 1615 1616
1615 1 1616 1617
1616 1 1617 1618
1617 1 1618 1619
1618 1 1619 1620
1619 1 1620 1621
1620 1 1621 1622
1621 1 1622 1623
1622 1 1623 1624
1623 1 1624 1625
1624 1 1625 1626
1625 1 1626 1627
1626 1 1627 1628
1627 1 1628 1629
1628 1 1629 1630
1629 1 1630 1631
1630 1 1631 1632
1631 1 1632 1633
1632 1 1633 1634
1633 1 1634 1635
1634 1 1635 1636
1635 1 1636 1637
1636 1 1637 1638
1637 1 1638 1639
1638 1 1639 1640
1639 1 1640 1641
1640 1 1641 1642
1641 1 1642 1643
1642 1 1643 1644
1643 1 1644 1645
1644 1 1645 1646
1645 1 1646 1647
1646 1 1647 1648
1647 1 1648 1649
1648 1 1649 1650
1649 1 1650 1651
1650 1 1651 1652
1651 1 1652 1653
1652 1 1653 1654
1653 1 1654 1655
1654 1 1655 1656
1655 1 1656 1657
1656 1 1657 1658
1657 1 1658 1659
1658 1 1659 1660
1659 1 1660 1661
1660 1 1661 1662
1661 1 1662 1663
1662 1 1663 1664
1663 1 1664 1665
1664 1 1665 1666
1665 1 1666 1667
1666 1 1667 1668
1667 1 1668 1669
1668 1 1669 1670
1669 1 1670 1671
1670 1 1671 1672
1671 1 1672 1673
1672 1 1673 1674
1673 1 1674 1675
1674 1 1675 1676
1675 1 1676 1677
1676 1 1677 1678
1677 1 1678 1679
1678 1 1679 1680
1679 1 1680 1681
1680 1 1681 1682
1681 1 1682 1683
1682 1 1683 1684
1683 1 1684 1685
1684 1 1685 1686
1685 1 1686 1687
1686 1 1687 1688
1687 1 1688 1689
1688 1 1689 1690
1689 1 1690 1691
1690 1 1691 1692
1691 1 1692 1693
1692 1 1693 1694
1693 1 1694 1695
1694 1 1695 1696
1695 1 1696 1697
1696 1 1697 1698
1697 1 1698 1699
1698 1 1699 1700
1699 1 1700 1701
1700 1 1701 1702
1701 1 1702 1703
1702 1 1703 1704
1703 1 1704 1705
1704 1 1705 1706
1705 1 1706 1707
1706 1 1707 1708
1707 1 1708 1709
1708 1 1709 1710
1709 1 1710 1711
1710 1 1711 1712
1711 1 1712 1713
1712 1 1713 1714
1713 1 1714 1715
1714 1 1715 1716
1715 1 1716 1717
1716 1 1717 1718
1717 1 1718 1719
1718 1 1719 1720
1719 1 1720 1721
1720 1 1721 1722
1721 1 1722 1723
1722 1 1723 1724
1723 1 1724 1725
1724 1 1725 1726
1725 1 1726 1727
1726 1 1727 1728
1727 1 1728 1729
1728 1 1729 1730
1729 1 1730 1731
1730 1 1731 1732
1731 1 1732 1733
1732 1 1733 1734
1733 1 1734 1735
1734 1 1735 1736
1735 1 1736 1737
1736 1 1737 1738
1737 1 1738 1739
1738 1 1739 1740
1739 1 1740 1741
1740 1 1741 1742
1741 1 1742 1743
1742 1 1743 1744
1743 1 1744 1745
1744 1 1745 1746
1745 1 1746 1747
1746 1 1747 1748
1747 1 1748 1749
1748 1 1749 1750
1749 1 1750 1751
1750 1 1751 1752
1751 1 1752 1753
1752 1 1753 1754
1753 1 1754 1755
1754 1 1755 1756
1755 1 1756 1757
1756 1 1757 1758
1757 1 1758 1759
1758 1 1759 1760
1759 1 1760 1761
1760 1 1761 1762
1761 1 1762 1763
1762 1 1763 1764
1763 1 1764 1765
1764 1 1765 1766
1765 1 1766 1767
1766 1 1767 1768
1767 1 1768 1769
1768 1 1769 1770
1769 1 1770 1771
1770 1 1771 1772
1771 1 1772 1773
1772 1 1773 1774
1773 1 1774 1775
1774 1 1775 1776
1775 1 1776 1777
1776 1 1777 1778
1777 1 1778 1779
1778 1 1779 1780
1779 1 1780 1781
1780 1 1781 1782
1781 1 1782 1783
1782 1 1783 1784
1783 1 1784 1785
1784 1 1785 1786
1785 1 1786 1787
1786 1 1787 1788
1787 1 1788 1789
1788 1 1789 1790
1789 1 1790 1791
1790 1 1791 1792
1791 1 1792 1793
1792 1 1793 1794
1793 1 1794 1795
1794 1 1795 1796
1795 1 1796 1797
1796 1 1797 1798
1797 1 1798 1799
1798 1 1799 1800
1799 1 1800 1801
1800 1 1801 1802
1801 1 1802 1803
1802 1 1803 1804
1803 1 1804 1805
1804 1 1805 1806
1805 1 1806 1807
1806 1 1807 1808
1807 1 1808 1809
1808 1 1809 1810
1809 1 1810 1811
1810 1 1811 1812
1811 1 1812 1813
1812 1 1813 1814
1813 1 1814 1815
1814 1 1815 1816
1815 1 1816 1817
1816 1 1817 1818
1817 1 1818 1819
1818 1 1819 1820
1819 1 1820 1821
1820 1 1821 1822
1821 1 1822 1823
1822 1 1823 1824
1823 1 1824 1825
1824 1 1825 1826
1825 1 1826 1827
1826 1 1827 1828
1827 1 1828 1829
1828 1 1829 1830
1829 1 1830 1831
1830 1 1831 1832
1831 1 1832 1833
1832 1 1833 1834
1833 1 1834 1835
1834 1 1835 1836
1835 1 1836 1837
1836 1 1837 1838
1837 1 1838 1839
1838 1 1839 1840
1839 1 1840 1841
1840 1 1841 1842
1841 1 1842 1843
1842 1 1843 1844
1843 1 1844 1845
1844 1 1845 1846
1845 1 1846 1847
1846 1 1847 1848
1847 1 1848 1849
1848 1 1849 1850
1849 1 1850 1851
1850 1 1851 1852
1851 1 1852 1853
1852 1 1853 1854
1853 1 1854 1855
1854 1 1855 1856
1855 1 1856 1857
1856 1 1857 1858
1857 1 1858 1859
1858 1 1859 1860
1859 1 1860 1861
1860 1 1861 1862
1861 1 1862 1863
1862 1 1863 1864
1863 1 1864 1865
1864 1 1865 1866
1865 1 1866 1867
1866 1 1867 1868
1867 1 1868 1869
1868 1 1869 1870
1869 1 1870 1871
1870 1 1871 1872
1871 1 1872 1873
1872 1 1873 1874
1873 1 1874 1875
1874 1 1875 1876
1875 1 1876 1877
1876 1 1877 1878
1877 1 1878 1879
1878 1 1879 1880
1879 1 1880 1881
1880 1 1881 1882
1881 1 1882 1883
1882 1 1883 1884
1883 1 1884 1885
1884 1 1885 1886
1885 1 1886 1887
1886 1 1887 1888
1887 1 1888 1889
1888 1 1889 1890
1889 1 1890 1891
1890 1 1891 1892
1891 1 1892 1893
1892 1 1893 1894
1893 1 1894 1895
1894 1 1895 1896
1895 1 1896 1897
1896 1 1897 1898
1897 1 1898 1899
1898 1 1899 1900
1899 1 1900 1901
1900 1 1901 1902
1901 1 1902 1903
1902 1 1903 1904
1903 1 1904 1905
1904 1 1905 1906
1905 1 1906 1907
1906 1 1907 1908
1907 1 1908 1909
1908 1 1909 1910
1909 1 1910 1911
1910 1 1911 1912
1911 1 1912 1913
1912 1 1913 1914
1913 1 1914 1915
1914 1 1915 1916
1915 1 1916 1917
1916 1 1917 1918
1917 1 1918 1919
1918 1 1919 1920
1919 1 1920 1921
1920 1 1921 1922
1921 1 1922 1923
1922 1 1923 1924
1923 1 1924 1925
1924 1 1925 1926
1925 1 1926 1927
1926 1 1927 1928
1927 1 1928 1929
1928 1 1929 1930
1929 1 1930 1931
1930 1 1931 1932
1931 1 1932 1933
1932 1 1933 1934
1933 1 1934 1935
1934 1 1935 1936
1935 1 1936 1937
1936 1 1937 1938
1937 1 1938 1939
1938 1 1939 1940
1939 1 1940 1941
1940 1 1941 1942
1941 1 1942 1943
1942 1 1943 1944
1943 1 1944 1945
1944 1 1945 1946
1945 1 1946 1947
1946 1 1947 1948
1947 1 1948 1949
1948 1 1949 1950
1949 1 1950 1951
1950 1 1951 1952
1951 1 1952 1953
1952 1 1953 1954
1953 1 1954 1955
1954 1 1955 1956
1955 1 1956 1957
1956 1 1957 1958
1957 1 1958 1959
1958 1 1959 1960
1959 1 1960 1961
1960 1 1961 1962
1961 1 1962 1963
1962 1 1963 1964
1963 1 1964 1965
1964 1 1965 1966
1965 1 1966 1967
1966 1 1967 1968
1967 1 1968 1969
1968 1 1969 1970
1969 1 1970 1971
1970 1 1971 1972
1971 1 1972 1973
1972 1 1973 1974
1973 1 1974 1975
1974 1 1975 1976
1975 1 1976 1977
1976 1 1977 1978
1977 1 1978 1979
1978 1 1979 1980
1979 1 1980 1981
1980 1 1981 1982
1981 1 1982 1983
1982 1 1983 1984
1983 1 1984 1985
1984 1 1985 1986
1985 1 1986 1987
1986 1 1987 1988
1987 1 1988 1989
1988 1 1989 1990
1989 1 1990 1991
1990 1 1991 1992
1991 1 1992 1993
1992 1 1993 1994
1993 1 1994 1995
1994 1 1995 1996
1995 1 1996 1997
1996 1 1997 1998
1997 1 1998 1999
1998 1 1999 2000
1999 1 2001 2002
2000 1 2002 2003
2001 1 2003 2004
2002 1 2004 2005
2003 1 2005 2006
2004 1 2006 2007
2005 1 2007 2008
2006 1 2008 2009
2007 1 2009 2010
2008 1 2010 2011
2009 1 2011 2012
2010 1 2012 2013
2011 1 2013 2014
2012 1 2014 2015
2013 1 2015 2016
2014 1 2016 2017
2015 1 2017 2018
2016 1 2018 2019
2017 1 2019 2020
2018 1 2020 2021
2019 1 2021 2022
2020 1 2022 2023
2021 1 2023 2024
2022 1 2024 2025
2023 1 2025 2026
2024 1 2026 2027
2025 1 2027 2028
2026 1 2028 2029
2027 1 2029 2030
2028 1 2030 2031
2029 1 2031 2032
2030 1 2032 2033
2031 1 2033 2034
2032 1 2034 2035
2033 1 2035 2036
2034 1 2036 2037
2035 1 2037 2038
2036 1 2038 2039
2037 1 2039 2040
2038 1 2040 2041
2039 1 2041 2042
2040 1 2042 2043
2041 1 2043 2044
2042 1 2044 2045
2043 1 2045 2046
2044 1 2046 2047
2045 1 2047 2048
2046 1 2048 2049
2047 1 2049 2050
2048 1 2050 2051
2049 1 2051 2052
2050 1 2052 2053
2051 1 2053 2054
2052 1 2054 2055
2053 1 2055 2056
2054 1 2056 2057
2055 1 2057 2058
2056 1 2058 2059
2057 1 2059 2060
2058 1 2060 2061
2059 1 2061 2062
2060 1 2062 2063
2061 1 2063 2064
2062 1 2064 2065
2063 1 2065 2066
2064 1 2066 2067
2065 1 2067 2068
2066 1 2068 2069
2067 1 2069 2070
2068 1 2070 2071
2069 1 2071 2072
2070 1 2072 2073
2071 1 2073 2074
2072 1 2074 2075
2073 1 2075 2076
2074 1 2076 2077
2075 1 2077 2078
2076 1 2078 2079
2077 1 2079 2080
2078 1 2080 2081
2079 1 2081 2082
2080 1 2082 2083
2081 1 2083 2084
2082 1 2084 2085
2083 1 2085 2086
2084 1 2086 2087
2085 1 2087 2088
2086 1 2088 2089
2087 1 2089 2090
2088 1 2090 2091
2089 1 2091 2092
2090 1 2092 2093
2091 1 2093 2094
2092 1 2094 2095
2093 1 2095 2096
2094 1 2096 2097
2095 1 2097 2098
2096 1 2098 2099
2097 1 2099 2100
2098 1 2100 2101
2099 1 2101 2102
2100 1 2102 2103
2101 1 2103 2104
2102 1 2104 2105
2103 1 2105 2106
2104 1 2106 2107
2105 1 2107 2108
2106 1 2108 2109
2107 1 2109 2110
2108 1 2110 2111
2109 1 2111 2112
2110 1 2112 2113
2111 1 2113 2114
2112 1 2114 2115
2113 1 2115 2116
2114 1 2116 2117
2115 1 2117 2118
2116 1 2118 2119
2117 1 2119 2120
2118 1 2120 2121
2119 1 2121 2122
2120 1 2122 2123
2121 1 2123 2124
2122 1 2124 2125
2123 1 2125 2126
2124 1 2126 2127
2125 1 2127 2128
2126 1 2128 2129
2127 1 2129 2130
2128 1 2130 2131
2129 1 2131 2132
2130 1 2132 2133
2131 1 2133 2134
2132 1 2134 2135
2133 1 2135 2136
2134 1 2136 2137
2135 1 2137 2138
2136 1 2138 2139
2137 1 2139 2140
2138 1 2140 2141
2139 1 2141 2142
2140 1 2142 2143
2141 1 2143 2144
2142 1 2144 2145
2143 1 2145 2146
2144 1 2146 2147
2145 1 2147 2148
2146 1 2148 2149
2147 1 2149 2150
2148 1 2150 2151
2149 1 2151 2152
2150 1 2152 2153
2151 1 2153 2154
2152 1 2154 2155
2153 1 2155 2156
2154 1 2156 2157
2155 1 2157 2158
2156 1 2158 2159
2157 1 2159 2160
2158 1 2160 2161
2159 1 2161 2162
2160 1 2162 2163
2161 1 2163 2164
2162 1 2164 2165
2163 1 2165 2166
2164 1 2166 2167
2165 1 2167 2168
2166 1 2168 2169
2167 1 2169 2170
2168 1 2170 2171
2169 1 2171 2172
2170 1 2172 2173
2171 1 2173 2174
2172 1 2174 2175
2173 1 2175 2176
2174 1 2176 2177
2175 1 2177 2178
2176 1 2178 2179
2177 1 2179 2180
2178 1 2180 2181
2179 1 2181 2182
2180 1 2182 2183
2181 1 2183 2184
2182 1 2184 2185
2183 1 2185 2186
2184 1 2186 2187
2185 1 2187 2188
2186 1 2188 2189
2187 1 2189 2190
2188 1 2190 2191
2189 1 2191 2192
2190 1 2192 2193
2191 1 2193 2194
2192 1 2194 2195
2193 1 2195 2196
2194 1 2196 2197
2195 1 2197 2198
2196 1 2198 2199
2197 1 2199 2200
2198 1 2200 2201
2199 1 2201 2202
2200 1 2202 2203
2201 1 2203 2204
2202 1 2204 2205
2203 1 2205 2206
2204 1 2206 2207
2205 1 2207 2208
2206 1 2208 2209
2207 1 2209 2210
2208 1 2210 2211
2209 1 2211 2212
2210 1 2212 2213
2211 1 2213 2214
2212 1 2214 2215
2213 1 2215 2216
2214 1 2216 2217
2215 1 2217 2218
2216 1 2218 2219
2217 1 2219 2220
2218 1 2220 2221
2219 1 2221 2222
2220 1 2222 2223
2221 1 2223 2224
2222 1 2224 2225
2223 1 2225 2226
2224 1 2226 2227
2225 1 2227 2228
2226 1 2228 2229
2227 1 2229 2230
2228 1 2230 2231
2229 1 2231 2232
2230 1 2232 2233
2231 1 2233 2234
2232 1 2234 2235
2233 1 2235 2236
2234 1 2236 2237
2235 1 2237 2238
2236 1 2238 2239
2237 1 2239 2240
2238 1 2240 2241
2239 1 2241 2242
2240 1 2242 2243
2241 1 2243 2244
2242 1 2244 2245
2243 1 2245 2246
2244 1 2246 2247
2245 1 2247 2248
2246 1 2248 2249
2247 1 2249 2250
2248 1 2250 2251
2249 1 2251 2252
2250 1 2252 2253
2251 1 2253 2254
2252 1 2254 2255
2253 1 2255 2256
2254 1 2256 2257
2255 1 2257 2258
2256 1 2258 2259
2257 1 2259 2260
2258 1 2260 2261
2259 1 2261 2262
2260 1 2262 2263
2261 1 2263 2264
2262 1 2264 2265
2263 1 2265 2266
2264 1 2266 2267
2265 1 2267 2268
2266 1 2268 2269
2267 1 2269 2270
2268 1 2270 2271
2269 1 2271 2272
2270 1 2272 2273
2271 1 2273 2274
2272 1 2274 2275
2273 1 2275 2276
2274 1 2276 2277
2275 1 2277 2278
2276 1 2278 2279
2277 1 2279 2280
2278 1 2280 2281
2279 1 2281 2282
2280 1 2282 2283
2281 1 2283 2284
2282 1 2284 2285
2283 1 2285 2286
2284 1 2286 2287
2285 1 2287 2288
2286 1 2288 2289
2287 1 2289 2290
2288 1 2290 2291
2289 1 2291 2292
2290 1 2292 2293
2291 1 2293 2294
2292 1 2294 2295
2293 1 2295 2296
2294 1 2296 2297
2295 1 2297 2298
2296 1 2298 2299
2297 1 2299 2300
2298 1 2300 2301
2299 1 2301 2302
2300 1 2302 2303
2301 1 2303 2304
2302 1 2304 2305
2303 1 2305 2306
2304 1 2306 2307
2305 1 2307 2308
2306 1 2308 2309
2307 1 2309 2310
2308 1 2310 2311
2309 1 2311 2312
2310 1 2312 2313
2311 1 2313 2314
2312 1 2314 2315
2313 1 2315 2316
2314 1 2316 2317
2315 1 2317 2318
2316 1 2318 2319
2317 1 2319 2320
2318 1 2320 2321
2319 1 2321 2322
2320 1 2322 2323
2321 1 2323 2324
2322 1 2324 2325
2323 1 2325 2326
2324 1 2326 2327
2325 1 2327 2328
2326 1 2328 2329
2327 1 2329 2330
2328 1 2330 2331
2329 1 2331 2332
2330 1 2332 2333
2331 1 2333 2334
2332 1 2334 2335
2333 1 2335 2336
2334 1 2336 2337
2335 1 2337 2338
2336 1 2338 2339
2337 1 2339 2340
2338 1 2340 2341
2339 1 2341 2342
2340 1 2342 2343
2341 1 2343 2344
2342 1 2344 2345
2343 1 2345 2346
2344 1 2346 2347
2345 1 2347 2348
2346 1 2348 2349
2347 1 2349 2350
2348 1 2350 2351
2349 1 2351 2352
2350 1 2352 2353
2351 1 2353 2354
2352 1 2354 2355
2353 1 2355 2356
2354 1 2356 2357
2355 1 2357 2358
2356 1 2358 2359
2357 1 2359 2360
2358 1 2360 2361
2359 1 2361 2362
2360 1 2362 2363
2361 1 2363 2364
2362 1 2364 2365
2363 1 2365 2366
2364 1 2366 2367
2365 1 2367 2368
2366 1 2368 2369
2367 1 2369 2370
2368 1 2370 2371
2369 1 2371 2372
2370 1 2372 2373
2371 1 2373 2374
2372 1 2374 2375
2373 1 2375 2376
2374 1 2376 2377
2375 1 2377 2378
2376 1 2378 2379
2377 1 2379 2380
2378 1 2380 2381
2379 1 2381 2382
2380 1 2382 2383
2381 1 2383 2384
2382 1 2384 2385
2383 1 2385 2386
2384 1 2386 2387
2385 1 2387 2388
2386 1 2388 2389
2387 1 2389 2390
2388 1 2390 2391
2389 1 2391 2392
2390 1 2392 2393
2391 1 2393 2394
2392 1 2394 2395
2393 1 2395 2396
2394 1 2396 2397
2395 1 2397 2398
2396 1 2398 2399
2397 1 2399 2400
2398 1 2400 2401
2399 1 2401 2402
2400 1 2402 2403
2401 1 2403 2404
2402 1 2404 2405
2403 1 2405 2406
2404 1 2406 2407
2405 1 2407 2408
2406 1 2408 2409
2407 1 2409 2410
2408 1 2410 2411
2409 1 2411 2412
2410 1 2412 2413
2411 1 2413 2414
2412 1 2414 2415
2413 1 2415 2416
2414 1 2416 2417
2415 1 2417 2418
2416 1 2418 2419
2417 1 2419 2420
2418 1 2420 2421
2419 1 2421 2422
2420 1 2422 2423
2421 1 2423 2424
2422 1 2424 2425
2423 1 2425 2426
2424 1 2426 2427
2425 1 2427 2428
2426 1 2428 2429
2427 1 2429 2430
2428 1 2430 2431
2429 1 2431 2432
2430 1 2432 2433
2431 1 2433 2434
2432 1 2434 2435
2433 1 2435 2436
2434 1 2436 2437
2435 1 2437 2438
2436 1 2438 2439
2437 1 2439 2440
2438 1 2440 2441
2439 1 2441 2442
2440 1 2442 2443
2441 1 2443 2444
2442 1 2444 2445
2443 1 2445 2446
2444 1 2446 2447
2445 1 2447 2448
2446 1 2448 2449
2447 1 2449 2450
2448 1 2450 2451
2449 1 2451 2452
2450 1 2452 2453
2451 1 2453 2454
2452 1 2454 2455
2453 1 2455 2456
2454 1 2456 2457
2455 1 2457 2458
2456 1 2458 2459
2457 1 2459 2460
2458 1 2460 2461
2459 1 2461 2462
2460 1 2462 2463
2461 1 2463 2464
2462 1 2464 2465
2463 1 2465 2466
2464 1 2466 2467
2465 1 2467 2468
2466 1 2468 2469
2467 1 2469 2470
2468 1 2470 2471
2469 1 2471 2472
2470 1 2472 2473
2471 1 2473 2474
2472 1 2474 2475
2473 1 2475 2476
2474 1 2476 2477
2475 1 2477 2478
2476 1 2478 2479
2477 1 2479 2480
2478 1 2480 2481
2479 1 2481 2482
2480 1 2482 2483
2481 1 2483 2484
2482 1 2484 2485
2483 1 2485 2486
2484 1 2486 2487
2485 1 2487 2488
2486 1 2488 2489
2487 1 2489 2490
2488 1 2490 2491
2489 1 2491 2492
2490 1 2492 2493
2491 1 2493 2494
2492 1 2494 2495
2493 1 2495 2496
2494 1 2496 2497
2495 1 2497 2498
2496 1 2498 2499
2497 1 2499 2500
2498 1 2500 2501
2499 1 2501 2502
2500 1 2502 2503
2501 1 2503 2504
2502 1 2504 2505
2503 1 2505 2506
2504 1 2506 2507
2505 1 2507 2508
2506 1 2508 2509
2507 1 2509 2510
2508 1 2510 2511
2509 1 2511 2512
2510 1 2512 2513
2511 1 2513 2514
2512 1 2514 2515
2513 1 2515 2516
2514 1 2516 2517
2515 1 2517 2518
2516 1 2518 2519
2517 1 2519 2520
2518 1 2520 2521
2519 1 2521 2522
2520 1 2522 2523
2521 1 2523 2524
2522 1 2524 2525
2523 1 2525 2526
2524 1 2526 2527
2525 1 2527 2528
2526 1 2528 2529
2527 1 2529 2530
2528 1 2530 2531
2529 1 2531 2532
2530 1 2532 2533
2531 1 2533 2534
2532 1 2534 2535
2533 1 2535 2536
2534 1 2536 2537
2535 1 2537 2538
2536 1 2538 2539
2537 1 2539 2540
2538 1 2540 2541
2539 1 2541 2542
2540 1 2542 2543
2541 1 2543 2544
2542 1 2544 2545
2543 1 2545 2546
2544 1 2546 2547
2545 1 2547 2548
2546 1 2548 2549
2547 1 2549 2550
2548 1 2550 2551
2549 1 2551 2552
2550 1 2552 2553
2551 1 2553 2554
2552 1 2554 2555
2553 1 2555 2556
2554 1 2556 2557
2555 1 2557 2558
2556 1 2558 2559
2557 1 2559 2560
2558 1 2560 2561
2559 1 2561 2562
2560 1 2562 2563
2561 1 2563 2564
2562 1 2564 2565
2563 1 2565 2566
2564 1 2566 2567
2565 1 2567 2568
2566 1 2568 2569
2567 1 2569 2570
2568 1 2570 2571
2569 1 2571 2572
2570 1 2572 2573
2571 1 2573 2574
2572 1 2574 2575
2573 1 2575 2576
2574 1 2576 2577
2575 1 2577 2578
2576 1 2578 2579
2577 1 2579 2580
2578 1 2580 2581
2579 1 2581 2582
2580 1 2582 2583
2581 1 2583 2584
2582 1 2584 2585
2583 1 2585 2586
2584 1 2586 2587
2585 1 2587 2588
2586 1 2588 2589
2587 1 2589 2590
2588 1 2590 2591
2589 1 2591 2592
2590 1 2592 2593
2591 1 2593 2594
2592 1 2594 2595
2593 1 2595 2596
2594 1 2596 2597
2595 1 2597 2598
2596 1 2598 2599
2597 1 2599 2600
2598 1 2600 2601
2599 1 2601 2602
2600 1 2602 2603
2601 1 2603 2604
2602 1 2604 2605
2603 1 2605 2606
2604 1 2606 2607
2605 1 2607 2608
2606 1 2608 2609
2607 1 2609 2610
2608 1 2610 2611
2609 1 2611 2612
2610 1 2612 2613
2611 1 2613 2614
2612 1 2614 2615
2613 1 2615 2616
2614 1 2616 2617
2615 1 2617 2618
2616 1 2618 2619
2617 1 2619 2620
2618 1 2620 2621
2619 1 2621 2622
2620 1 2622 2623
2621 1 2623 2624
2622 1 2624 2625
2623 1 2625 2626
2624 1 2626 2627
2625 1 2627 2628
2626 1 2628 2629
2627 1 2629 2630
2628 1 2630 2631
2629 1 2631 2632
2630 1 2632 2633
2631 1 2633 2634
2632 1 2634 2635
2633 1 2635 2636
2634 1 2636 2637
2635 1 2637 2638
2636 1 2638 2639
2637 1 2639 2640
2638 1 2640 2641
2639 1 2641 2642
2640 1 2642 2643
2641 1 2643 2644
2642 1 2644 2645
2643 1 2645 2646
2644 1 2646 2647
2645 1 2647 2648
2646 1 2648 2649
2647 1 2649 2650
2648 1 2650 2651
2649 1 2651 2652
2650 1 2652 2653
2651 1 2653 2654
2652 1 2654 2655
2653 1 2655 2656
2654 1 2656 2657
2655 1 2657 2658
2656 1 2658 2659
2657 1 2659 2660
2658 1 2660 2661
2659 1 2661 2662
2660 1 2662 2663
2661 1 2663 2664
2662 1 2664 2665
2663 1 2665 2666
2664 1 2666 2667
2665 1 2667 2668
2666 1 2668 2669
2667 1 2669 2670
2668 1 2670 2671
2669 1 2671 2672
2670 1 2672 2673
2671 1 2673 2674
2672 1 2674 2675
2673 1 2675 2676
2674 1 2676 2677
2675 1 2677 2678
2676 1 2678 2679
2677 1 2679 2680
2678 1 2680 2681
2679 1 2681 2682
2680 1 2682 2683
2681 1 2683 2684
2682 1 2684 2685
2683 1 2685 2686
2684 1 2686 2687
2685 1 2687 2688
2686 1 2688 2689
2687 1 2689 2690
2688 1 2690 2691
2689 1 2691 2692
2690 1 2692 2693
2691 1 2693 2694
2692 1 2694 2695
2693 1 2695 2696
2694 1 2696 2697
2695 1 2697 2698
2696 1 2698 2699
2697 1 2699 2700
2698 1 2700 2701
2699 1 2701 2702
2700 1 2702 2703
2701 1 2703 2704
2702 1 2704 2705
2703 1 2705 2706
2704 1 2706 2707
2705 1 2707 2708
2706 1 2708 2709
2707 1 2709 2710
2708 1 2710 2711
2709 1 2711 2712
2710 1 2712 2713
2711 1 2713 2714
2712 1 2714 2715
2713 1 2715 2716
2714 1 2716 2717
2715 1 2717 2718
2716 1 2718 2719
2717 1 2719 2720
2718 1 2720 2721
2719 1 2721 2722
2720 1 2722 2723
2721 1 2723 2724
2722 1 2724 2725
2723 1 2725 2726
2724 1 2726 2727
2725 1 2727 2728
2726 1 2728 2729
2727 1 2729 2730
2728 1 2730 2731
2729 1 2731 2732
2730 1 2732 2733
2731 1 2733 2734
2732 1 2734 2735
2733 1 2735 2736
2734 1 2736 2737
2735 1 2737 2738
2736 1 2738 2739
2737 1 2739 2740
2738 1 2740 2741
2739 1 2741 2742
2740 1 2742 2743
2741 1 2743 2744
2742 1 2744 2745
2743 1 2745 2746
2744 1 2746 2747
2745 1 2747 2748
2746 1 2748 2749
2747 1 2749 2750
2748 1 2750 2751
2749 1 2751 2752
2750 1 2752 2753
2751 1 2753 2754
2752 1 2754 2755
2753 1 2755 2756
2754 1 2756 2757
2755 1 2757 2758
2756 1 2758 2759
2757 1 2759 2760
2758 1 2760 2761
2759 1 2761 2762
2760 1 2762 2763
2761 1 2763 2764
2762 1 2764 2765
2763 1 2765 2766
2764 1 2766 2767
2765 1 2767 2768
2766 1 2768 2769
2767 1 2769 2770
2768 1 2770 2771
2769 1 2771 2772
2770 1 2772 2773
2771 1 2773 2774
2772 1 2774 2775
2773 1 2775 2776
2774 1 2776 2777
2775 1 2777 2778
2776 1 2778 2779
2777 1 2779 2780
2778 1 2780 2781
2779 1 2781 2782
2780 1 2782 2783
2781 1 2783 2784
2782 1 2784 2785
2783 1 2785 2786
2784 1 2786 2787
2785 1 2787 2788
2786 1 2788 2789
2787 1 2789 2790
2788 1 2790 2791
2789 1 2791 2792
2790 1 2792 2793
2791 1 2793 2794
2792 1 2794 2795
2793 1 2795 2796
2794 1 2796 2797
2795 1 2797 2798
2796 1 2798 2799
2797 1 2799 2800
2798 1 2800 2801
2799 1 2801 2802
2800 1 2802 2803
2801 1 2803 2804
2802 1 2804 2805
2803 1 2805 2806
2804 1 2806 2807
2805 1 2807 2808
2806 1 2808 2809
2807 1 2809 2810
2808 1 2810 2811
2809 1 2811 2812
2810 1 2812 2813
2811 1 2813 2814
2812 1 2814 2815
2813 1 2815 2816
2814 1 2816 2817
2815 1 2817 2818
2816 1 2818 2819
2817 1 2819 2820
2818 1 2820 2821
2819 1 2821 2822
2820 1 2822 2823
2821 1 2823 2824
2822 1 2824 2825
2823 1 2825 2826
2824 1 2826 2827
2825 1 2827 2828
2826 1 2828 2829
2827 1 2829 2830
2828 1 2830 2831
2829 1 2831 2832
2830 1 2832 2833
2831 1 2833 2834
2832 1 2834 2835
2833 1 2835 2836
2834 1 2836 2837
2835 1 2837 2838
2836 1 2838 2839
2837 1 2839 2840
2838 1 2840 2841
2839 1 2841 2842
2840 1 2842 2843
2841 1 2843 2844
2842 1 2844 2845
2843 1 2845 2846
2844 1 2846 2847
2845 1 2847 2848
2846 1 2848 2849
2847 1 2849 2850
2848 1 2850 2851
2849 1 2851 2852
2850 1 2852 2853
2851 1 2853 2854
2852 1 2854 2855
2853 1 2855 2856
2854 1 2856 2857
2855 1 2857 2858
2856 1 2858 2859
2857 1 2859 2860
2858 1 2860 2861
2859 1 2861 2862
2860 1 2862 2863
2861 1 2863 2864
2862 1 2864 2865
2863 1 2865 2866
2864 1 2866 2867
2865 1 2867 2868
2866 1 2868 2869
2867 1 2869 2870
2868 1 2870 2871
2869 1 2871 2872
2870 1 2872 2873
2871 1 2873 2874
2872 1 2874 2875
2873 1 2875 2876
2874 1 2876 2877
2875 1 2877 2878
2876 1 2878 2879
2877 1 2879 2880
2878 1 2880 2881
2879 1 2881 2882
2880 1 2882 2883
2881 1 2883 2884
2882 1 2884 2885
2883 1 2885 2886
2884 1 2886 2887
2885 1 2887 2888
2886 1 2888 2889
2887 1 2889 2890
2888 1 2890 2891
2889 1 2891 2892
2890 1 2892 2893
2891 1 2893 2894
2892 1 2894 2895
2893 1 2895 2896
2894 1 2896 2897
2895 1 2897 2898
2896 1 2898 2899
2897 1 2899 2900
2898 1 2900 2901
2899 1 2901 2902
2900 1 2902 2903
2901 1 2903 2904
2902 1 2904 2905
2903 1 2905 2906
2904 1 2906 2907
2905 1 2907 2908
2906 1 2908 2909
2907 1 2909 2910
2908 1 2910 2911
2909 1 2911 2912
2910 1 2912 2913
2911 1 2913 2914
2912 1 2914 2915
2913 1 2915 2916
2914 1 2916 2917
2915 1 2917 2918
2916 1 2918 2919
2917 1 2919 2920
2918 1 2920 2921
2919 1 2921 2922
2920 1 2922 2923
2921 1 2923 2924
2922 1 2924 2925
2923 1 2925 2926
2924 1 2926 2927
2925 1 2927 2928
2926 1 2928 2929
2927 1 2929 2930
2928 1 2930 2931
2929 1 2931 2932
2930 1 2932 2933
2931 1 2933 2934
2932 1 2934 2935
2933 1 2935 2936
2934 1 2936 2937
2935 1 2937 2938
2936 1 2938 2939
2937 1 2939 2940
2938 1 2940 2941
2939 1 2941 2942
2940 1 2942 2943
2941 1 2943 2944
2942 1 2944 2945
2943 1 2945 2946
2944 1 2946 2947
2945 1 2947 2948
2946 1 2948 2949
2947 1 2949 2950
2948 1 2950 2951
2949 1 2951 2952
2950 1 2952 2953
2951 1 2953 2954
2952 1 2954 2955
2953 1 2955 2956
2954 1 2956 2957
2955 1 2957 2958
2956 1 2958 2959
2957 1 2959 2960
2958 1 2960 2961
2959 1 2961 2962
2960 1 2962 2963
2961 1 2963 2964
2962 1 2964 2965
2963 1 2965 2966
2964 1 2966 2967
2965 1 2967 2968
2966 1 2968 2969
2967 1 2969 2970
2968 1 2970 2971
2969 1 2971 2972
2970 1 2972 2973
2971 1 2973 2974
2972 1 2974 2975
2973 1 2975 2976
2974 1 2976 2977
2975 1 2977 2978
2976 1 2978 2979
2977 1 2979 2980
2978 1 2980 2981
2979 1 2981 2982
2980 1 2982 2983
2981 1 2983 2984
2982 1 2984 2985
2983 1 2985 2986
2984 1 2986 2987
2985 1 2987 2988
2986 1 2988 2989
2987 1 2989 2990
2988 1 2990 2991
2989 1 2991 2992
2990 1 2992 2993
2991 1 2993 2994
2992 1 2994 2995
2993 1 2995 2996
2994 1 2996 2997
2995 1 2997 2998
2996 1 2998 2999
2997 1 2999 3000
2998 1 3001 3002
2999 1 3002 3003
3000 1 3003 3004
3001 1 3004 3005
3002 1 3005 3006
3003 1 3006 3007
3004 1 3007 3008
3005 1 3008 3009
3006 1 3009 3010
3007 1 3010 3011
3008 1 3011 3012
3009 1 3012 3013
3010 1 3013 3014
3011 1 3014 3015
3012 1 3015 3016
3013 1 3016 3017
3014 1 3017 3018
3015 1 3018 3019
3016 1 3019 3020
3017 1 3020 3021
3018 1 3021 3022
3019 1 3022 3023
3020 1 3023 3024
3021 1 3024 3025
3022 1 3025 3026
3023 1 3026 3027
3024 1 3027 3028
3025 1 3028 3029
3026 1 3029 3030
3027 1 3030 3031
3028 1 3031 3032
3029 1 3032 3033
3030 1 3033 3034
3031 1 3034 3035
3032 1 3035 3036
3033 1 3036 3037
3034 1 3037 3038
3035 1 3038 3039
3036 1 3039 3040
3037 1 3040 3041
3038 1 3041 3042
3039 1 3042 3043
3040 1 3043 3044
3041 1 3044 3045
3042 1 3045 3046
3043 1 3046 3047
3044 1 3047 3048
3045 1 3048 3049
3046 1 3049 3050
3047 1 3050 3051
3048 1 3051 3052
3049 1 3052 3053
3050 1 3053 3054
3051 1 3054 3055
3052 1 3055 3056
3053 1 3056 3057
3054 1 3057 3058
3055 1 3058 3059
3056 1 3059 3060
3057 1 3060 3061
3058 1 3061 3062
3059 1 3062 3063
3060 1 3063 3064
3061 1 3064 3065
3062 1 3065 3066
3063 1 3066 3067
3064 1 3067 3068
3065 1 3068 3069
3066 1 3069 3070
3067 1 3070 3071
3068 1 3071 3072
3069 1 3072 3073
3070 1 3073 3074
3071 1 3074 3075
3072 1 3075 3076
3073 1 3076 3077
3074 1 3077 3078
3075 1 3078 3079
3076 1 3079 3080
3077 1 3080 3081
3078 1 3081 3082
3079 1 3082 3083
3080 1 3083 3084
3081 1 3084 3085
3082 1 3085 3086
3083 1 3086 3087
3084 1 3087 3088
3085 1 3088 3089
3086 1 3089 3090
3087 1 3090 3091
3088 1 3091 3092
3089 1 3092 3093
3090 1 3093 3094
3091 1 3094 3095
3092 1 3095 3096
3093 1 3096 3097
3094 1 3097 3098
3095 1 3098 3099
3096 1 3099 3100
3097 1 3100 3101
3098 1 3101 3102
3099 1 3102 3103
3100 1 3103 3104
3101 1 3104 3105
3102 1 3105 3106
3103 1 3106 3107
3104 1 3107 3108
3105 1 3108 3109
3106 1 3109 3110
3107 1 3110 3111
3108 1 3111 3112
3109 1 3112 3113
3110 1 3113 3114
3111 1 3114 3115
3112 1 3115 3116
3113 1 3116 3117
3114 1 3117 3118
3115 1 3118 3119
3116 1 3119 3120
3117 1 3120 3121
3118 1 3121 3122
3119 1 3122 3123
3120 1 3123 3124
3121 1 3124 3125
3122 1 3125 3126
3123 1 3126 3127
3124 1 3127 3128
3125 1 3128 3129
3126 1 3129 3130
3127 1 3130 3131
3128 1 3131 3132
3129 1 3132 3133
3130 1 3133 3134
3131 1 3134 3135
3132 1 3135 3136
3133 1 3136 3137
3134 1 3137 3138
3135 1 3138 3139
3136 1 3139 3140
3137 1 3140 3141
3138 1 3141 3142
3139 1 3142 3143
3140 1 3143 3144
3141 1 3144 3145
3142 1 3145 3146
3143 1 3146 3147
3144 1 3147 3148
3145 1 3148 3149
3146 1 3149 3150
3147 1 3150 3151
3148 1 3151 3152
3149 1 3152 3153
3150 1 3153 3154
3151 1 3154 3155
3152 1 3155 3156
3153 1 3156 3157
3154 1 3157 3158
3155 1 3158 3159
3156 1 3159 3160
3157 1 3160 3161
3158 1 3161 3162
3159 1 3162 3163
3160 1 3163 3164
3161 1 3164 3165
3162 1 3165 3166
3163 1 3166 3167
3164 1 3167 3168
3165 1 3168 3169
3166 1 3169 3170
3167 1 3170 3171
3168 1 3171 3172
3169 1 3172 3173
3170 1 3173 3174
3171 1 3174 3175
3172 1 3175 3176
3173 1 3176 3177
3174 1 3177 3178
3175 1 3178 3179
3176 1 3179 3180
3177 1 3180 3181
3178 1 3181 3182
3179 1 3182 3183
3180 1 3183 3184
3181 1 3184 3185
3182 1 3185 3186
3183 1 3186 3187
3184 1 3187 3188
3185 1 3188 3189
3186 1 3189 3190
3187 1 3190 3191
3188 1 3191 3192
3189 1 3192 3193
3190 1 3193 3194
3191 1 3194 3195
3192 1 3195 3196
3193 1 3196 3197
3194 1 3197 3198
3195 1 3198 3199
3196 1 3199 3200
3197 1 3200 3201
3198 1 3201 3202
3199 1 3202 3203
3200 1 3203 3204
3201 1 3204 3205
3202 1 3205 3206
3203 1 3206 3207
3204 1 3207 3208
3205 1 3208 3209
3206 1 3209 3210
3207 1 3210 3211
3208 1 3211 3212
3209 1 3212 3213
3210 1 3213 3214
3211 1 3214 3215
3212 1 3215 3216
3213 1 3216 3217
3214 1 3217 3218
3215 1 3218 3219
3216 1 3219 3220
3217 1 3220 3221
3218 1 3221 3222
3219 1 3222 3223
3220 1 3223 3224
3221 1 3224 3225
3222 1 3225 3226
3223 1 3226 3227
3224 1 3227 3228
3225 1 3228 3229
3226 1 3229 3230
3227 1 3230 3231
3228 1 3231 3232
3229 1 3232 3233
3230 1 3233 3234
3231 1 3234 3235
3232 1 3235 3236
3233 1 3236 3237
3234 1 3237 3238
3235 1 3238 3239
3236 1 3239 3240
3237 1 3240 3241
3238 1 3241 3242
3239 1 3242 3243
3240 1 3243 3244
3241 1 3244 3245
3242 1 3245 3246
3243 1 3246 3247
3244 1 3247 3248
3245 1 3248 3249
3246 1 3249 3250
3247 1 3250 3251
3248 1 3251 3252
3249 1 3252 3253
3250 1 3253 3254
3251 1 3254 3255
3252 1 3255 3256
3253 1 3256 3257
3254 1 3257 3258
3255 1 3258 3259
3256 1 3259 3260
3257 1 3260 3261
3258 1 3261 3262
3259 1 3262 3263
3260 1 3263 3264
3261 1 3264 3265
3262 1 3265 3266
3263 1 3266 3267
3264 1 3267 3268
3265 1 3268 3269
3266 1 3269 3270
3267 1 3270 3271
3268 1 3271 3272
3269 1 3272 3273
3270 1 3273 3274
3271 1 3274 3275
3272 1 3275 3276
3273 1 3276 3277
3274 1 3277 3278
3275 1 3278 3279
3276 1 3279 3280
3277 1 3280 3281
3278 1 3281 3282
3279 1 3282 3283
3280 1 3283 3284
3281 1 3284 3285
3282 1 3285 3286
3283 1 3286 3287
3284 1 3287 3288
3285 1 3288 3289
3286 1 3289 3290
3287 1 3290 3291
3288 1 3291 3292
3289 1 3292 3293
3290 1 3293 3294
3291 1 3294 3295
3292 1 3295 3296
3293 1 3296 3297
3294 1 3297 3298
3295 1 3298 3299
3296 1 3299 3300
3297 1 3300 3301
3298 1 3301 3302
3299 1 3302 3303
3300 1 3303 3304
3301 1 3304 3305
3302 1 3305 3306
3303 1 3306 3307
3304 1 3307 3308
3305 1 3308 3309
3306 1 3309 3310
3307 1 3310 3311
3308 1 3311 3312
3309 1 3312 3313
3310 1 3313 3314
3311 1 3314 3315
3312 1 3315 3316
3313 1 3316 3317
3314 1 3317 3318
3315 1 3318 3319
3316 1 3319 3320
3317 1 3320 3321
3318 1 3321 3322
3319 1 3322 3323
3320 1 3323 3324
3321 1 3324 3325
3322 1 3325 3326
3323 1 3326 3327
3324 1 3327 3328
3325 1 3328 3329
3326 1 3329 3330
3327 1 3330 3331
3328 1 3331 3332
3329 1 3332 3333
3330 1 3333 3334
3331 1 3334 3335
3332 1 3335 3336
3333 1 3336 3337
3334 1 3337 3338
3335 1 3338 3339
3336 1 3339 3340
3337 1 3340 3341
3338 1 3341 3342
3339 1 3342 3343
3340 1 3343 3344
3341 1 3344 3345
3342 1 3345 3346
3343 1 3346 3347
3344 1 3347 3348
3345 1 3348 3349
3346 1 3349 3350
3347 1 3350 3351
3348 1 3351 3352
3349 1 3352 3353
3350 1 3353 3354
3351 1 3354 3355
3352 1 3355 3356
3353 1 3356 3357
3354 1 3357 3358
3355 1 3358 3359
3356 1 3359 3360
3357 1 3360 3361
3358 1 3361 3362
3359 1 3362 3363
3360 1 3363 3364
3361 1 3364 3365
3362 1 3365 3366
3363 1 3366 3367
3364 1 3367 3368
3365 1 3368 3369
3366 1 3369 3370
3367 1 3370 3371
3368 1 3371 3372
3369 1 3372 3373
3370 1 3373 3374
3371 1 3374 3375
3372 1 3375 3376
3373 1 3376 3377
3374 1 3377 3378
3375 1 3378 3379
3376 1 3379 3380
3377 1 3380 3381
3378 1 3381 3382
3379 1 3382 3383
3380 1 3383 3384
3381 1 3384 3385
3382 1 3385 3386
3383 1 3386 3387
3384 1 3387 3388
3385 1 3388 3389
3386 1 3389 3390
3387 1 3390 3391
3388 1 3391 3392
3389 1 3392 3393
3390 1 3393 3394
3391 1 3394 3395
3392 1 3395 3396
3393 1 3396 3397
3394 1 3397 3398
3395 1 3398 3399
3396 1 3399 3400
3397 1 3400 3401
3398 1 3401 3402
3399 1 3402 3403
3400 1 3403 3404
3401 1 3404 3405
3402 1 3405 3406
3403 1 3406 3407
3404 1 3407 3408
3405 1 3408 3409
3406 1 3409 3410
3407 1 3410 3411
3408 1 3411 3412
3409 1 3412 3413
3410 1 3413 3414
3411 1 3414 3415
3412 1 3415 3416
3413 1 3416 3417
3414 1 3417 3418
3415 1 3418 3419
3416 1 3419 3420
3417 1 3420 3421
3418 1 3421 3422
3419 1 3422 3423
3420 1 3423 3424
3421 1 3424 3425
3422 1 3425 3426
3423 1 3426 3427
3424 1 3427 3428
3425 1 3428 3429
3426 1 3429 3430
3427 1 3430 3431
3428 1 3431 3432
3429 1 3432 3433
3430 1 3433 3434
3431 1 3434 3435
3432 1 3435 3436
3433 1 3436 3437
3434 1 3437 3438
3435 1 3438 3439
3436 1 3439 3440
3437 1 3440 3441
3438 1 3441 3442
3439 1 3442 3443
3440 1 3443 3444
3441 1 3444 3445
3442 1 3445 3446
3443 1 3446 3447
3444 1 3447 3448
3445 1 3448 3449
3446 1 3449 3450
3447 1 3450 3451
3448 1 3451 3452
3449 1 3452 3453
3450 1 3453 3454
3451 1 3454 3455
3452 1 3455 3456
3453 1 3456 3457
3454 1 3457 3458
3455 1 3458 3459
3456 1 3459 3460
3457 1 3460 3461
3458 1 3461 3462
3459 1 3462 3463
3460 1 3463 3464
3461 1 3464 3465
3462 1 3465 3466
3463 1 3466 3467
3464 1 3467 3468
3465 1 3468 3469
3466 1 3469 3470
3467 1 3470 3471
3468 1 3471 3472
3469 1 3472 3473
3470 1 3473 3474
3471 1 3474 3475
3472 1 3475 3476
3473 1 3476 3477
3474 1 3477 3478
3475 1 3478 3479
3476 1 3479 3480
3477 1 3480 3481
3478 1 3481 3482
3479 1 3482 3483
3480 1 3483 3484
3481 1 3484 3485
3482 1 3485 3486
3483 1 3486 3487
3484 1 3487 3488
3485 1 3488 3489
3486 1 3489 3490
3487 1 3490 3491
3488 1 3491 3492
3489 1 3492 3493
3490 1 3493 3494
3491 1 3494 3495
3492 1 3495 3496
3493 1 3496 3497
3494 1 3497 3498
3495 1 3498 3499
3496 1 3499 3500
3497 1 3500 3501
3498 1 3501 3502
3499 1 3502 3503
3500 1 3503 3504
3501 1 3504 3505
3502 1 3505 3506
3503 1 3506 3507
3504 1 3507 3508
3505 1 3508 3509
3506 1 3509 3510
3507 1 3510 3511
3508 1 3511 3512
3509 1 3512 3513
3510 1 3513 3514
3511 1 3514 3515
3512 1 3515 3516
3513 1 3516 3517
3514 1 3517 3518
3515 1 3518 3519
3516 1 3519 3520
3517 1 3520 3521
3518 1 3521 3522
3519 1 3522 3523
3520 1 3523 3524
3521 1 3524 3525
3522 1 3525 3526
3523 1 3526 3527
3524 1 3527 3528
3525 1 3528 3529
3526 1 3529 3530
3527 1 3530 3531
3528 1 3531 3532
3529 1 3532 3533
3530 1 3533 3534
3531 1 3534 3535
3532 1 3535 3536
3533 1 3536 3537
3534 1 3537 3538
3535 1 3538 3539
3536 1 3539 3540
3537 1 3540 3541
3538 1 3541 3542
3539 1 3542 3543
3540 1 3543 3544
3541 1 3544 3545
3542 1 3545 3546
3543 1 3546 3547
3544 1 3547 3548
3545 1 3548 3549
3546 1 3549 3550
3547 1 3550 3551
3548 1 3551 3552
3549 1 3552 3553
3550 1 3553 3554
3551 1 3554 3555
3552 1 3555 3556
3553 1 3556 3557
3554 1 3557 3558
3555 1 3558 3559
3556 1 3559 3560
3557 1 3560 3561
3558 1 3561 3562
3559 1 3562 3563
3560 1 3563 3564
3561 1 3564 3565
3562 1 3565 3566
3563 1 3566 3567
3564 1 3567 3568
3565 1 3568 3569
3566 1 3569 3570
3567 1 3570 3571
3568 1 3571 3572
3569 1 3572 3573
3570 1 3573 3574
3571 1 3574 3575
3572 1 3575 3576
3573 1 3576 3577
3574 1 3577 3578
3575 1 3578 3579
3576 1 3579 3580
3577 1 3580 3581
3578 1 3581 3582
3579 1 3582 3583
3580 1 3583 3584
3581 1 3584 3585
3582 1 3585 3586
3583 1 3586 3587
3584 1 3587 3588
3585 1 3588 3589
3586 1 3589 3590
3587 1 3590 3591
3588 1 3591 3592
3589 1 3592 3593
3590 1 3593 3594
3591 1 3594 3595
3592 1 3595 3596
3593 1 3596 3597
3594 1 3597 3598
3595 1 3598 3599
3596 1 3599 3600
3597 1 3600 3601
3598 1 3601 3602
3599 1 3602 3603
3600 1 3603 3604
3601 1 3604 3605
3602 1 3605 3606
3603 1 3606 3607
3604 1 3607 3608
3605 1 3608 3609
3606 1 3609 3610
3607 1 3610 3611
3608 1 3611 3612
3609 1 3612 3613
3610 1 3613 3614
3611 1 3614 3615
3612 1 3615 3616
3613 1 3616 3617
3614 1 3617 3618
3615 1 3618 3619
3616 1 3619 3620
3617 1 3620 3621
3618 1 3621 3622
3619 1 3622 3623
3620 1 3623 3624
3621 1 3624 3625
3622 1 3625 3626
3623 1 3626 3627
3624 1 3627 3628
3625 1 3628 3629
3626 1 3629 3630
3627 1 3630 3631
3628 1 3631 3632
3629 1 3632 3633
3630 1 3633 3634
3631 1 3634 3635
3632 1 3635 3636
3633 1 3636 3637
3634 1 3637 3638
3635 1 3638 3639
3636 1 3639 3640
3637 1 3640 3641
3638 1 3641 3642
3639 1 3642 3643
3640 1 3643 3644
3641 1 3644 3645
3642 1 3645 3646
3643 1 3646 3647
3644 1 3647 3648
3645 1 3648 3649
3646 1 3649 3650
3647 1 3650 3651
3648 1 3651 3652
3649 1 3652 3653
3650 1 3653 3654
3651 1 3654 3655
3652 1 3655 3656
3653 1 3656 3657
3654 1 3657 3658
3655 1 3658 3659
3656 1 3659 3660
3657 1 3660 3661
3658 1 3661 3662
3659 1 3662 3663
3660 1 3663 3664
3661 1 3664 3665
3662 1 3665 3666
3663 1 3666 3667
3664 1 3667 3668
3665 1 3668 3669
3666 1 3669 3670
3667 1 3670 3671
3668 1 3671 3672
3669 1 3672 3673
3670 1 3673 3674
3671 1 3674 3675
3672 1 3675 3676
3673 1 3676 3677
3674 1 3677 3678
3675 1 3678 3679
3676 1 3679 3680
3677 1 3680 3681
3678 1 3681 3682
3679 1 3682 3683
3680 1 3683 3684
3681 1 3684 3685
3682 1 3685 3686
3683 1 3686 3687
3684 1 3687 3688
3685 1 3688 3689
3686 1 3689 3690
3687 1 3690 3691
3688 1 3691 3692
3689 1 3692 3693
3690 1 3693 3694
3691 1 3694 3695
3692 1 3695 3696
3693 1 3696 3697
3694 1 3697 3698
3695 1 3698 3699
3696 1 3699 3700
3697 1 3700 3701
3698 1 3701 3702
3699 1 3702 3703
3700 1 3703 3704
3701 1 3704 3705
3702 1 3705 3706
3703 1 3706 3707
3704 1 3707 3708
3705 1 3708 3709
3706 1 3709 3710
3707 1 3710 3711
3708 1 3711 3712
3709 1 3712 3713
3710 1 3713 3714
3711 1 3714 3715
3712 1 3715 3716
3713 1 3716 3717
3714 1 3717 3718
3715 1 3718 3719
3716 1 3719 3720
3717 1 3720 3721
3718 1 3721 3722
3719 1 3722 3723
3720 1 3723 3724
3721 1 3724 3725
3722 1 3725 3726
3723 1 3726 3727
3724 1 3727 3728
3725 1 3728 3729
3726 1 3729 3730
3727 1 3730 3731
3728 1 3731 3732
3729 1 3732 3733
3730 1 3733 3734
3731 1 3734 3735
3732 1 3735 3736
3733 1 3736 3737
3734 1 3737 3738
3735 1 3738 3739
3736 1 3739 3740
3737 1 3740 3741
3738 1 3741 3742
3739 1 3742 3743
3740 1 3743 3744
3741 1 3744 3745
3742 1 3745 3746
3743 1 3746 3747
3744 1 3747 3748
3745 1 3748 3749
3746 1 3749 3750
3747 1 3750 3751
3748 1 3751 3752
3749 1 3752 3753
3750 1 3753 3754
3751 1 3754 3755
3752 1 3755 3756
3753 1 3756 3757
3754 1 3757 3758
3755 1 3758 3759
3756 1 3759 3760
3757 1 3760 3761
3758 1 3761 3762
3759 1 3762 3763
3760 1 3763 3764
3761 1 3764 3765
3762 1 3765 3766
3763 1 3766 3767
3764 1 3767 3768
3765 1 3768 3769
3766 1 3769 3770
3767 1 3770 3771
3768 1 3771 3772
3769 1 3772 3773
3770 1 3773 3774
3771 1 3774 3775
3772 1 3775 3776
3773 1 3776 3777
3774 1 3777 3778
3775 1 3778 3779
3776 1 3779 3780
3777 1 3780 3781
3778 1 3781 3782
3779 1 3782 3783
3780 1 3783 3784
3781 1 3784 3785
3782 1 3785 3786
3783 1 3786 3787
3784 1 3787 3788
3785 1 3788 3789
3786 1 3789 3790
3787 1 3790 3791
3788 1 3791 3792
3789 1 3792 3793
3790 1 3793 3794
3791 1 3794 3795
3792 1 3795 3796
3793 1 3796 3797
3794 1 3797 3798
3795 1 3798 3799
3796 1 3799 3800
3797 1 3800 3801
3798 1 3801 3802
3799 1 3802 3803
3800 1 3803 3804
3801 1 3804 3805
3802 1 3805 3806
3803 1 3806 3807
3804 1 3807 3808
3805 1 3808 3809
3806 1 3809 3810
3807 1 3810 3811
3808 1 3811 3812
3809 1 3812 3813
3810 1 3813 3814
3811 1 3814 3815
3812 1 3815 3816
3813 1 3816 3817
3814 1 3817 3818
3815 1 3818 3819
3816 1 3819 3820
3817 1 3820 3821
3818 1 3821 3822
3819 1 3822 3823
3820 1 3823 3824
3821 1 3824 3825
3822 1 3825 3826
3823 1 3826 3827
3824 1 3827 3828
3825 1 3828 3829
3826 1 3829 3830
3827 1 3830 3831
3828 1 3831 3832
3829 1 3832 3833
3830 1 3833 3834
3831 1 3834 3835
3832 1 3835 3836
3833 1 3836 3837
3834 1 3837 3838
3835 1 3838 3839
3836 1 3839 3840
3837 1 3840 3841
3838 1 3841 3842
3839 1 3842 3843
3840 1 3843 3844
3841 1 3844 3845
3842 1 3845 3846
3843 1 3846 3847
3844 1 3847 3848
3845 1 3848 3849
3846 1 3849 3850
3847 1 3850 3851
3848 1 3851 3852
3849 1 3852 3853
3850 1 3853 3854
3851 1 3854 3855
3852 1 3855 3856
3853 1 3856 3857
3854 1 3857 3858
3855 1 3858 3859
3856 1 3859 3860
3857 1 3860 3861
3858 1 3861 3862
3859 1 3862 3863
3860 1 3863 3864
3861 1 3864 3865
3862 1 3865 3866
3863 1 3866 3867
3864 1 3867 3868
3865 1 3868 3869
3866 1 3869 3870
3867 1 3870 3871
3868 1 3871 3872
3869 1 3872 3873
3870 1 3873 3874
3871 1 3874 3875
3872 1 3875 3876
3873 1 3876 3877
3874 1 3877 3878
3875 1 3878 3879
3876 1 3879 3880
3877 1 3880 3881
3878 1 3881 3882
3879 1 3882 3883
3880 1 3883 3884
3881 1 3884 3885
3882 1 3885 3886
3883 1 3886 3887
3884 1 3887 3888
3885 1 3888 3889
3886 1 3889 3890
3887 1 3890 3891
3888 1 3891 3892
3889 1 3892 3893
3890 1 3893 3894
3891 1 3894 3895
3892 1 3895 3896
3893 1 3896 3897
3894 1 3897 3898
3895 1 3898 3899
3896 1 3899 3900
3897 1 3900 3901
3898 1 3901 3902
3899 1 3902 3903
3900 1 3903 3904
3901 1 3904 3905
3902 1 3905 3906
3903 1 3906 3907
3904 1 3907 3908
3905 1 3908 3909
3906 1 3909 3910
3907 1 3910 3911
3908 1 3911 3912
3909 1 3912 3913
3910 1 3913 3914
3911 1 3914 3915
3912 1 3915 3916
3913 1 3916 3917
3914 1 3917 3918
3915 1 3918 3919
3916 1 3919 3920
3917 1 3920 3921
3918 1 3921 3922
3919 1 3922 3923
3920 1 3923 3924
3921 1 3924 3925
3922 1 3925 3926
3923 1 3926 3927
3924 1 3927 3928
3925 1 3928 3929
3926 1 3929 3930
3927 1 3930 3931
3928 1 3931 3932
3929 1 3932 3933
3930 1 3933 3934
3931 1 3934 3935
3932 1 3935 3936
3933 1 3936 3937
3934 1 3937 3938
3935 1 3938 3939
3936 1 3939 3940
3937 1 3940 3941
3938 1 3941 3942
3939 1 3942 3943
3940 1 3943 3944
3941 1 3944 3945
3942 1 3945 3946
3943 1 3946 3947
3944 1 3947 3948
3945 1 3948 3949
3946 1 3949 3950
3947 1 3950 3951
3948 1 3951 3952
3949 1 3952 3953
3950 1 3953 3954
3951 1 3954 3955
3952 1 3955 3956
3953 1 3956 3957
3954 1 3957 3958
3955 1 3958 3959
3956 1 3959 3960
3957 1 3960 3961
3958 1 3961 3962
3959 1 3962 3963
3960 1 3963 3964
3961 1 3964 3965
3962 1 3965 3966
3963 1 3966 3967
3964 1 3967 3968
3965 1 3968 3969
3966 1 3969 3970
3967 1 3970 3971
3968 1 3971 3972
3969 1 3972 3973
3970 1 3973 3974
3971 1 3974 3975
3972 1 3975 3976
3973 1 3976 3977
3974 1 3977 3978
3975 1 3978 3979
3976 1 3979 3980
3977 1 3980 3981
3978 1 3981 3982
3979 1 3982 3983
3980 1 3983 3984
3981 1 3984 3985
3982 1 3985 3986
3983 1 3986 3987
3984 1 3987 3988
3985 1 3988 3989
3986 1 3989 3990
3987 1 3990 3991
3988 1 3991 3992
3989 1 3992 3993
3990 1 3993 3994
3991 1 3994 3995
3992 1 3995 3996
3993 1 3996 3997
3994 1 3997 3998
3995 1 3998 3999
3996 1 3999 4000
3997 1 4001 4002
3998 1 4002 4003
3999 1 4003 4004
4000 1 4004 4005
4001 1 4005 4006
4002 1 4006 4007
4003 1 4007 4008
4004 1 4008 4009
4005 1 4009 4010
4006 1 4010 4011
4007 1 4011 4012
4008 1 4012 4013
4009 1 4013 4014
4010 1 4014 4015
4011 1 4015 4016
4012 1 4016 4017
4013 1 4017 4018
4014 1 4018 4019
4015 1 4019 4020
4016 1 4020 4021
4017 1 4021 4022
4018 1 4022 4023
4019 1 4023 4024
4020 1 4024 4025
4021 1 4025 4026
4022 1 4026 4027
4023 1 4027 4028
4024 1 4028 4029
4025 1 4029 4030
4026 1 4030 4031
4027 1 4031 4032
4028 1 4032 4033
4029 1 4033 4034
4030 1 4034 4035
4031 1 4035 4036
4032 1 4036 4037
4033 1 4037 4038
4034 1 4038 4039
4035 1 4039 4040
4036 1 4040 4041
4037 1 4041 4042
4038 1 4042 4043
4039 1 4043 4044
4040 1 4044 4045
4041 1 4045 4046
4042 1 4046 4047
4043 1 4047 4048
4044 1 4048 4049
4045 1 4049 4050
4046 1 4050 4051
4047 1 4051 4052
4048 1 4052 4053
4049 1 4053 4054
4050 1 4054 4055
4051 1 4055 4056
4052 1 4056 4057
4053 1 4057 4058
4054 1 4058 4059
4055 1 4059 4060
4056 1 4060 4061
4057 1 4061 4062
4058 1 4062 4063
4059 1 4063 4064
4060 1 4064 4065
4061 1 4065 4066
4062 1 4066 4067
4063 1 4067 4068
4064 1 4068 4069
4065 1 4069 4070
4066 1 4070 4071
4067 1 4071 4072
4068 1 4072 4073
4069 1 4073 4074
4070 1 4074 4075
4071 1 4075 4076
4072 1 4076 4077
4073 1 4077 4078
4074 1 4078 4079
4075 1 4079 4080
4076 1 4080 4081
4077 1 4081 4082
4078 1 4082 4083
4079 1 4083 4084
4080 1 4084 4085
4081 1 4085 4086
4082 1 4086 4087
4083 1 4087 4088
4084 1 4088 4089
4085 1 4089 4090
4086 1 4090 4091
4087 1 4091 4092
4088 1 4092 4093
4089 1 4093 4094
4090 1 4094 4095
4091 1 4095 4096
4092 1 4096 4097
4093 1 4097 4098
4094 1 4098 4099
4095 1 4099 4100
4096 1 4100 4101
4097 1 4101 4102
4098 1 4102 4103
4099 1 4103 4104
4100 1 4104 4105
4101 1 4105 4106
4102 1 4106 4107
4103 1 4107 4108
4104 1 4108 4109
4105 1 4109 4110
4106 1 4110 4111
4107 1 4111 4112
4108 1 4112 4113
4109 1 4113 4114
4110 1 4114 4115
4111 1 4115 4116
4112 1 4116 4117
4113 1 4117 4118
4114 1 4118 4119
4115 1 4119 4120
4116 1 4120 4121
4117 1 4121 4122
4118 1 4122 4123
4119 1 4123 4124
4120 1 4124 4125
4121 1 4125 4126
4122 1 4126 4127
4123 1 4127 4128
4124 1 4128 4129
4125 1 4129 4130
4126 1 4130 4131
4127 1 4131 4132
4128 1 4132 4133
4129 1 4133 4134
4130 1 4134 4135
4131 1 4135 4136
4132 1 4136 4137
4133 1 4137 4138
4134 1 4138 4139
4135 1 4139 4140
4136 1 4140 4141
4137 1 4141 4142
4138 1 4142 4143
4139 1 4143 4144
4140 1 4144 4145
4141 1 4145 4146
4142 1 4146 4147
4143 1 4147 4148
4144 1 4148 4149
4145 1 4149 4150
4146 1 4150 4151
4147 1 4151 4152
4148 1 4152 4153
4149 1 4153 4154
4150 1 4154 4155
4151 1 4155 4156
4152 1 4156 4157
4153 1 4157 4158
4154 1 4158 4159
4155 1 4159 4160
4156 1 4160 4161
4157 1 4161 4162
4158 1 4162 4163
4159 1 4163 4164
4160 1 4164 4165
4161 1 4165 4166
4162 1 4166 4167
4163 1 4167 4168
4164 1 4168 4169
4165 1 4169 4170
4166 1 4170 4171
4167 1 4171 4172
4168 1 4172 4173
4169 1 4173 4174
4170 1 4174 4175
4171 1 4175 4176
4172 1 4176 4177
4173 1 4177 4178
4174 1 4178 4179
4175 1 4179 4180
4176 1 4180 4181
4177 1 4181 4182
4178 1 4182 4183
4179 1 4183 4184
4180 1 4184 4185
4181 1 4185 4186
4182 1 4186 4187
4183 1 4187 4188
4184 1 4188 4189
4185 1 4189 4190
4186 1 4190 4191
4187 1 4191 4192
4188 1 4192 4193
4189 1 4193 4194
4190 1 4194 4195
4191 1 4195 4196
4192 1 4196 4197
4193 1 4197 4198
4194 1 4198 4199
4195 1 4199 4200
4196 1 4200 4201
4197 1 4201 4202
4198 1 4202 4203
4199 1 4203 4204
4200 1 4204 4205
4201 1 4205 4206
4202 1 4206 4207
4203 1 4207 4208
4204 1 4208 4209
4205 1 4209 4210
4206 1 4210 4211
4207 1 4211 4212
4208 1 4212 4213
4209 1 4213 4214
4210 1 4214 4215
4211 1 4215 4216
4212 1 4216 4217
4213 1 4217 4218
4214 1 4218 4219
4215 1 4219 4220
4216 1 4220 4221
4217 1 4221 4222
4218 1 4222 4223
4219 1 4223 4224
4220 1 4224 4225
4221 1 4225 4226
4222 1 4226 4227
4223 1 4227 4228
4224 1 4228 4229
4225 1 4229 4230
4226 1 4230 4231
4227 1 4231 4232
4228 1 4232 4233
4229 1 4233 4234
4230 1 4234 4235
4231 1 4235 4236
4232 1 4236 4237
4233 1 4237 4238
4234 1 4238 4239
4235 1 4239 4240
4236 1 4240 4241
4237 1 4241 4242
4238 1 4242 4243
4239 1 4243 4244
4240 1 4244 4245
4241 1 4245 4246
4242 1 4246 4247
4243 1 4247 4248
4244 1 4248 4249
4245 1 4249 4250
4246 1 4250 4251
4247 1 4251 4252
4248 1 4252 4253
4249 1 4253 4254
4250 1 4254 4255
4251 1 4255 4256
4252 1 4256 4257
4253 1 4257 4258
4254 1 4258 4259
4255 1 4259 4260
4256 1 4260 4261
4257 1 4261 4262
4258 1 4262 4263
4259 1 4263 4264
4260 1 4264 4265
4261 1 4265 4266
4262 1 4266 4267
4263 1 4267 4268
4264 1 4268 4269
4265 1 4269 4270
4266 1 4270 4271
4267 1 4271 4272
4268 1 4272 4273
4269 1 4273 4274
4270 1 4274 4275
4271 1 4275 4276
4272 1 4276 4277
4273 1 4277 4278
4274 1 4278 4279
4275 1 4279 4280
4276 1 4280 4281
4277 1 4281 4282
4278 1 4282 4283
4279 1 4283 4284
4280 1 4284 4285
4281 1 4285 4286
4282 1 4286 4287
4283 1 4287 4288
4284 1 4288 4289
4285 1 4289 4290
4286 1 4290 4291
4287 1 4291 4292
4288 1 4292 4293
4289 1 4293 4294
4290 1 4294 4295
4291 1 4295 4296
4292 1 4296 4297
4293 1 4297 4298
4294 1 4298 4299
4295 1 4299 4300
4296 1 4300 4301
4297 1 4301 4302
4298 1 4302 4303
4299 1 4303 4304
4300 1 4304 4305
4301 1 4305 4306
4302 1 4306 4307
4303 1 4307 4308
4304 1 4308 4309
4305 1 4309 4310
4306 1 4310 4311
4307 1 4311 4312
4308 1 4312 4313
4309 1 4313 4314
4310 1 4314 4315
4311 1 4315 4316
4312 1 4316 4317
4313 1 4317 4318
4314 1 4318 4319
4315 1 4319 4320
4316 1 4320 4321
4317 1 4321 4322
4318 1 4322 4323
4319 1 4323 4324
4320 1 4324 4325
4321 1 4325 4326
4322 1 4326 4327
4323 1 4327 4328
4324 1 4328 4329
4325 1 4329 4330
4326 1 4330 4331
4327 1 4331 4332
4328 1 4332 4333
4329 1 4333 4334
4330 1 4334 4335
4331 1 4335 4336
4332 1 4336 4337
4333 1 4337 4338
4334 1 4338 4339
4335 1 4339 4340
4336 1 4340 4341
4337 1 4341 4342
4338 1 4342 4343
4339 1 4343 4344
4340 1 4344 4345
4341 1 4345 4346
4342 1 4346 4347
4343 1 4347 4348
4344 1 4348 4349
4345 1 4349 4350
4346 1 4350 4351
4347 1 4351 4352
4348 1 4352 4353
4349 1 4353 4354
4350 1 4354 4355
4351 1 4355 4356
4352 1 4356 4357
4353 1 4357 4358
4354 1 4358 4359
4355 1 4359 4360
4356 1 4360 4361
4357 1 4361 4362
4358 1 4362 4363
4359 1 4363 4364
4360 1 4364 4365
4361 1 4365 4366
4362 1 4366 4367
4363 1 4367 4368
4364 1 4368 4369
4365 1 4369 4370
4366 1 4370 4371
4367 1 4371 4372
4368 1 4372 4373
4369 1 4373 4374
4370 1 4374 4375
4371 1 4375 4376
4372 1 4376 4377
4373 1 4377 4378
4374 1 4378 4379
4375 1 4379 4380
4376 1 4380 4381
4377 1 4381 4382
4378 1 4382 4383
4379 1 4383 4384
4380 1 4384 4385
4381 1 4385 4386
4382 1 4386 4387
4383 1 4387 4388
4384 1 4388 4389
4385 1 4389 4390
4386 1 4390 4391
4387 1 4391 4392
4388 1 4392 4393
4389 1 4393 4394
4390 1 4394 4395
4391 1 4395 4396
4392 1 4396 4397
4393 1 4397 4398
4394 1 4398 4399
4395 1 4399 4400
4396 1 4400 4401
4397 1 4401 4402
4398 1 4402 4403
4399 1 4403 4404
4400 1 4404 4405
4401 1 4405 4406
4402 1 4406 4407
4403 1 4407 4408
4404 1 4408 4409
4405 1 4409 4410
4406 1 4410 4411
4407 1 4411 4412
4408 1 4412 4413
4409 1 4413 4414
4410 1 4414 4415
4411 1 4415 4416
4412 1 4416 4417
4413 1 4417 4418
4414 1 4418 4419
4415 1 4419 4420
4416 1 4420 4421
4417 1 4421 4422
4418 1 4422 4423
4419 1 4423 4424
4420 1 4424 4425
4421 1 4425 4426
4422 1 4426 4427
4423 1 4427 4428
4424 1 4428 4429
4425 1 4429 4430
4426 1 4430 4431
4427 1 4431 4432
4428 1 4432 4433
4429 1 4433 4434
4430 1 4434 4435
4431 1 4435 4436
4432 1 4436 4437
4433 1 4437 4438
4434 1 4438 4439
4435 1 4439 4440
4436 1 4440 4441
4437 1 4441 4442
4438 1 4442 4443
4439 1 4443 4444
4440 1 4444 4445
4441 1 4445 4446
4442 1 4446 4447
4443 1 4447 4448
4444 1 4448 4449
4445 1 4449 4450
4446 1 4450 4451
4447 1 4451 4452
4448 1 4452 4453
4449 1 4453 4454
4450 1 4454 4455
4451 1 4455 4456
4452 1 4456 4457
4453 1 4457 4458
4454 1 4458 4459
4455 1 4459 4460
4456 1 4460 4461
4457 1 4461 4462
4458 1 4462 4463
4459 1 4463 4464
4460 1 4464 4465
4461 1 4465 4466
4462 1 4466 4467
4463 1 4467 4468
4464 1 4468 4469
4465 1 4469 4470
4466 1 4470 4471
4467 1 4471 4472
4468 1 4472 4473
4469 1 4473 4474
4470 1 4474 4475
4471 1 4475 4476
4472 1 4476 4477
4473 1 4477 4478
4474 1 4478 4479
4475 1 4479 4480
4476 1 4480 4481
4477 1 4481 4482
4478 1 4482 4483
4479 1 4483 4484
4480 1 4484 4485
4481 1 4485 4486
4482 1 4486 4487
4483 1 4487 4488
4484 1 4488 4489
4485 1 4489 4490
4486 1 4490 4491
4487 1 4491 4492
4488 1 4492 4493
4489 1 4493 4494
4490 1 4494 4495
4491 1 4495 4496
4492 1 4496 4497
4493 1 4497 4498
4494 1 4498 4499
4495 1 4499 4500
4496 1 4500 4501
4497 1 4501 4502
4498 1 4502 4503
4499 1 4503 4504
4500 1 4504 4505
4501 1 4505 4506
4502 1 4506 4507
4503 1 4507 4508
4504 1 4508 4509
4505 1 4509 4510
4506 1 4510 4511
4507 1 4511 4512
4508 1 4512 4513
4509 1 4513 4514
4510 1 4514 4515
4511 1 4515 4516
4512 1 4516 4517
4513 1 4517 4518
4514 1 4518 4519
4515 1 4519 4520
4516 1 4520 4521
4517 1 4521 4522
4518 1 4522 4523
4519 1 4523 4524
4520 1 4524 4525
4521 1 4525 4526
4522 1 4526 4527
4523 1 4527 4528
4524 1 4528 4529
4525 1 4529 4530
4526 1 4530 4531
4527 1 4531 4532
4528 1 4532 4533
4529 1 4533 4534
4530 1 4534 4535
4531 1 4535 4536
4532 1 4536 4537
4533 1 4537 4538
4534 1 4538 4539
4535 1 4539 4540
4536 1 4540 4541
4537 1 4541 4542
4538 1 4542 4543
4539 1 4543 4544
4540 1 4544 4545
4541 1 4545 4546
4542 1 4546 4547
4543 1 4547 4548
4544 1 4548 4549
4545 1 4549 4550
4546 1 4550 4551
4547 1 4551 4552
4548 1 4552 4553
4549 1 4553 4554
4550 1 4554 4555
4551 1 4555 4556
4552 1 4556 4557
4553 1 4557 4558
4554 1 4558 4559
4555 1 4559 4560
4556 1 4560 4561
4557 1 4561 4562
4558 1 4562 4563
4559 1 4563 4564
4560 1 4564 4565
4561 1 4565 4566
4562 1 4566 4567
4563 1 4567 4568
4564 1 4568 4569
4565 1 4569 4570
4566 1 4570 4571
4567 1 4571 4572
4568 1 4572 4573
4569 1 4573 4574
4570 1 4574 4575
4571 1 4575 4576
4572 1 4576 4577
4573 1 4577 4578
4574 1 4578 4579
4575 1 4579 4580
4576 1 4580 4581
4577 1 4581 4582
4578 1 4582 4583
4579 1 4583 4584
4580 1 4584 4585
4581 1 4585 4586
4582 1 4586 4587
4583 1 4587 4588
4584 1 4588 4589
4585 1 4589 4590
4586 1 4590 4591
4587 1 4591 4592
4588 1 4592 4593
4589 1 4593 4594
4590 1 4594 4595
4591 1 4595 4596
4592 1 4596 4597
4593 1 4597 4598
4594 1 4598 4599
4595 1 4599 4600
4596 1 4600 4601
4597 1 4601 4602
4598 1 4602 4603
4599 1 4603 4604
4600 1 4604 4605
4601 1 4605 4606
4602 1 4606 4607
4603 1 4607 4608
4604 1 4608 4609
4605 1 4609 4610
4606 1 4610 4611
4607 1 4611 4612
4608 1 4612 4613
4609 1 4613 4614
4610 1 4614 4615
4611 1 4615 4616
4612 1 4616 4617
4613 1 4617 4618
4614 1 4618 4619
4615 1 4619 4620
4616 1 4620 4621
4617 1 4621 4622
4618 1 4622 4623
4619 1 4623 4624
4620 1 4624 4625
4621 1 4625 4626
4622 1 4626 4627
4623 1 4627 4628
4624 1 4628 4629
4625 1 4629 4630
4626 1 4630 4631
4627 1 4631 4632
4628 1 4632 4633
4629 1 4633 4634
4630 1 4634 4635
4631 1 4635 4636
4632 1 4636 4637
4633 1 4637 4638
4634 1 4638 4639
4635 1 4639 4640
4636 1 4640 4641
4637 1 4641 4642
4638 1 4642 4643
4639 1 4643 4644
4640 1 4644 4645
4641 1 4645 4646
4642 1 4646 4647
4643 1 4647 4648
4644 1 4648 4649
4645 1 4649 4650
4646 1 4650 4651
4647 1 4651 4652
4648 1 4652 4653
4649 1 4653 4654
4650 1 4654 4655
4651 1 4655 4656
4652 1 4656 4657
4653 1 4657 4658
4654 1 4658 4659
4655 1 4659 4660
4656 1 4660 4661
4657 1 4661 4662
4658 1 4662 4663
4659 1 4663 4664
4660 1 4664 4665
4661 1 4665 4666
4662 1 4666 4667
4663 1 4667 4668
4664 1 4668 4669
4665 1 4669 4670
4666 1 4670 4671
4667 1 4671 4672
4668 1 4672 4673
4669 1 4673 4674
4670 1 4674 4675
4671 1 4675 4676
4672 1 4676 4677
4673 1 4677 4678
4674 1 4678 4679
4675 1 4679 4680
4676 1 4680 4681
4677 1 4681 4682
4678 1 4682 4683
4679 1 4683 4684
4680 1 4684 4685
4681 1 4685 4686
4682 1 4686 4687
4683 1 4687 4688
4684 1 4688 4689
4685 1 4689 4690
4686 1 4690 4691
4687 1 4691 4692
4688 1 4692 4693
4689 1 4693 4694
4690 1 4694 4695
4691 1 4695 4696
4692 1 4696 4697
4693 1 4697 4698
4694 1 4698 4699
4695 1 4699 4700
4696 1 4700 4701
4697 1 4701 4702
4698 1 4702 4703
4699 1 4703 4704
4700 1 4704 4705
4701 1 4705 4706
4702 1 4706 4707
4703 1 4707 4708
4704 1 4708 4709
4705 1 4709 4710
4706 1 4710 4711
4707 1 4711 4712
4708 1 4712 4713
4709 1 4713 4714
4710 1 4714 4715
4711 1 4715 4716
4712 1 4716 4717
4713 1 4717 4718
4714 1 4718 4719
4715 1 4719 4720
4716 1 4720 4721
4717 1 4721 4722
4718 1 4722 4723
4719 1 4723 4724
4720 1 4724 4725
4721 1 4725 4726
4722 1 4726 4727
4723 1 4727 4728
4724 1 4728 4729
4725 1 4729 4730
4726 1 4730 4731
4727 1 4731 4732
4728 1 4732 4733
4729 1 4733 4734
4730 1 4734 4735
4731 1 4735 4736
4732 1 4736 4737
4733 1 4737 4738
4734 1 4738 4739
4735 1 4739 4740
4736 1 4740 4741
4737 1 4741 4742
4738 1 4742 4743
4739 1 4743 4744
4740 1 4744 4745
4741 1 4745 4746
4742 1 4746 4747
4743 1 4747 4748
4744 1 4748 4749
4745 1 4749 4750
4746 1 4750 4751
4747 1 4751 4752
4748 1 4752 4753
4749 1 4753 4754
4750 1 4754 4755
4751 1 4755 4756
4752 1 4756 4757
4753 1 4757 4758
4754 1 4758 4759
4755 1 4759 4760
4756 1 4760 4761
4757 1 4761 4762
4758 1 4762 4763
4759 1 4763 4764
4760 1 4764 4765
4761 1 4765 4766
4762 1 4766 4767
4763 1 4767 4768
4764 1 4768 4769
4765 1 4769 4770
4766 1 4770 4771
4767 1 4771 4772
4768 1 4772 4773
4769 1 4773 4774
4770 1 4774 4775
4771 1 4775 4776
4772 1 4776 4777
4773 1 4777 4778
4774 1 4778 4779
4775 1 4779 4780
4776 1 4780 4781
4777 1 4781 4782
4778 1 4782 4783
4779 1 4783 4784
4780 1 4784 4785
4781 1 4785 4786
4782 1 4786 4787
4783 1 4787 4788
4784 1 4788 4789
4785 1 4789 4790
4786 1 4790 4791
4787 1 4791 4792
4788 1 4792 4793
4789 1 4793 4794
4790 1 4794 4795
4791 1 4795 4796
4792 1 4796 4797
4793 1 4797 4798
4794 1 4798 4799
4795 1 4799 4800
4796 1 4800 4801
4797 1 4801 4802
4798 1 4802 4803
4799 1 4803 4804
4800 1 4804 4805
4801 1 4805 4806
4802 1 4806 4807
4803 1 4807 4808
4804 1 4808 4809
4805 1 4809 4810
4806 1 4810 4811
4807 1 4811 4812
4808 1 4812 4813
4809 1 4813 4814
4810 1 4814 4815
4811 1 4815 4816
4812 1 4816 4817
4813 1 4817 4818
4814 1 4818 4819
4815 1 4819 4820
4816 1 4820 4821
4817 1 4821 4822
4818 1 4822 4823
4819 1 4823 4824
4820 1 4824 4825
4821 1 4825 4826
4822 1 4826 4827
4823 1 4827 4828
4824 1 4828 4829
4825 1 4829 4830
4826 1 4830 4831
4827 1 4831 4832
4828 1 4832 4833
4829 1 4833 4834
4830 1 4834 4835
4831 1 4835 4836
4832 1 4836 4837
4833 1 4837 4838
4834 1 4838 4839
4835 1 4839 4840
4836 1 4840 4841
4837 1 4841 4842
4838 1 4842 4843
4839 1 4843 4844
4840 1 4844 4845
4841 1 4845 4846
4842 1 4846 4847
4843 1 4847 4848
4844 1 4848 4849
4845 1 4849 4850
4846 1 4850 4851
4847 1 4851 4852
4848 1 4852 4853
4849 1 4853 4854
4850 1 4854 4855
4851 1 4855 4856
4852 1 4856 4857
4853 1 4857 4858
4854 1 4858 4859
4855 1 4859 4860
4856 1 4860 4861
4857 1 4861 4862
4858 1 4862 4863
4859 1 4863 4864
4860 1 4864 4865
4861 1 4865 4866
4862 1 4866 4867
4863 1 4867 4868
4864 1 4868 4869
4865 1 4869 4870
4866 1 4870 4871
4867 1 4871 4872
4868 1 4872 4873
4869 1 4873 4874
4870 1 4874 4875
4871 1 4875 4876
4872 1 4876 4877
4873 1 4877 4878
4874 1 4878 4879
4875 1 4879 4880
4876 1 4880 4881
4877 1 4881 4882
4878 1 4882 4883
4879 1 4883 4884
4880 1 4884 4885
4881 1 4885 4886
4882 1 4886 4887
4883 1 4887 4888
4884 1 4888 4889
4885 1 4889 4890
4886 1 4890 4891
4887 1 4891 4892
4888 1 4892 4893
4889 1 4893 4894
4890 1 4894 4895
4891 1 4895 4896
4892 1 4896 4897
4893 1 4897 4898
4894 1 4898 4899
4895 1 4899 4900
4896 1 4900 4901
4897 1 4901 4902
4898 1 4902 4903
4899 1 4903 4904
4900 1 4904 4905
4901 1 4905 4906
4902 1 4906 4907
4903 1 4907 4908
4904 1 4908 4909
4905 1 4909 4910
4906 1 4910 4911
4907 1 4911 4912
4908 1 4912 4913
4909 1 4913 4914
4910 1 4914 4915
4911 1 4915 4916
4912 1 4916 4917
4913 1 4917 4918
4914 1 4918 4919
4915 1 4919 4920
4916 1 4920 4921
4917 1 4921 4922
4918 1 4922 4923
4919 1 4923 4924
4920 1 4924 4925
4921 1 4925 4926
4922 1 4926 4927
4923 1 4927 4928
4924 1 4928 4929
4925 1 4929 4930
4926 1 4930 4931
4927 1 4931 4932
4928 1 4932 4933
4929 1 4933 4934
4930 1 4934 4935
4931 1 4935 4936
4932 1 4936 4937
4933 1 4937 4938
4934 1 4938 4939
4935 1 4939 4940
4936 1 4940 4941
4937 1 4941 4942
4938 1 4942 4943
4939 1 4943 4944
4940 1 4944 4945
4941 1 4945 4946
4942 1 4946 4947
4943 1 4947 4948
4944 1 4948 4949
4945 1 4949 4950
4946 1 4950 4951
4947 1 4951 4952
4948 1 4952 4953
4949 1 4953 4954
4950 1 4954 4955
4951 1 4955 4956
4952 1 4956 4957
4953 1 4957 4958
4954 1 4958 4959
4955 1 4959 4960
4956 1 4960 4961
4957 1 4961 4962
4958 1 4962 4963
4959 1 4963 4964
4960 1 4964 4965
4961 1 4965 4966
4962 1 4966 4967
4963 1 4967 4968
4964 1 4968 4969
4965 1 4969 4970
4966 1 4970 4971
4967 1 4971 4972
4968 1 4972 4973
4969 1 4973 4974
4970 1 4974 4975
4971 1 4975 4976
4972 1 4976 4977
4973 1 4977 4978
4974 1 4978 4979
4975 1 4979 4980
4976 1 4980 4981
4977 1 4981 4982
4978 1 4982 4983
4979 1 4983 4984
4980 1 4984 4985
4981 1 4985 4986
4982 1 4986 4987
4983 1 4987 4988
4984 1 4988 4989
4985 1 4989 4990
4986 1 4990 4991
4987 1 4991 4992
4988 1 4992 4993
4989 1 4993 4994
4990 1 4994 4995
4991 1 4995 4996
4992 1 4996 4997
4993 1 4997 4998
4994 1 4998 4999
4995 1 4999 5000
4996 1 5001 5002
4997 1 5002 5003
4998 1 5003 5004
4999 1 5004 5005
5000 1 5005 5006
5001 1 5006 5007
5002 1 5007 5008
5003 1 5008 5009
5004 1 5009 5010
5005 1 5010 5011
5006 1 5011 5012
5007 1 5012 5013
5008 1 5013 5014
5009 1 5014 5015
5010 1 5015 5016
5011 1 5016 5017
5012 1 5017 5018
5013 1 5018 5019
5014 1 5019 5020
5015 1 5020 5021
5016 1 5021 5022
5017 1 5022 5023
5018 1 5023 5024
5019 1 5024 5025
5020 1 5025 5026
5021 1 5026 5027
5022 1 5027 5028
5023 1 5028 5029
5024 1 5029 5030
5025 1 5030 5031
5026 1 5031 5032
5027 1 5032 5033
5028 1 5033 5034
5029 1 5034 5035
5030 1 5035 5036
5031 1 5036 5037
5032 1 5037 5038
5033 1 5038 5039
5034 1 5039 5040
5035 1 5040 5041
5036 1 5041 5042
5037 1 5042 5043
5038 1 5043 5044
5039 1 5044 5045
5040 1 5045 5046
5041 1 5046 5047
5042 1 5047 5048
5043 1 5048 5049
5044 1 5049 5050
5045 1 5050 5051
5046 1 5051 5052
5047 1 5052 5053
5048 1 5053 5054
5049 1 5054 5055
5050 1 5055 5056
5051 1 5056 5057
5052 1 5057 5058
5053 1 5058 5059
5054 1 5059 5060
5055 1 5060 5061
5056 1 5061 5062
5057 1 5062 5063
5058 1 5063 5064
5059 1 5064 5065
5060 1 5065 5066
5061 1 5066 5067
5062 1 5067 5068
5063 1 5068 5069
5064 1 5069 5070
5065 1 5070 5071
5066 1 5071 5072
5067 1 5072 5073
5068 1 5073 5074
5069 1 5074 5075
5070 1 5075 5076
5071 1 5076 5077
5072 1 5077 5078
5073 1 5078 5079
5074 1 5079 5080
5075 1 5080 5081
5076 1 5081 5082
5077 1 5082 5083
5078 1 5083 5084
5079 1 5084 5085
5080 1 5085 5086
5081 1 5086 5087
5082 1 5087 5088
5083 1 5088 5089
5084 1 5089 5090
5085 1 5090 5091
5086 1 5091 5092
5087 1 5092 5093
5088 1 5093 5094
5089 1 5094 5095
5090 1 5095 5096
5091 1 5096 5097
5092 1 5097 5098
5093 1 5098 5099
5094 1 5099 5100
5095 1 5100 5101
5096 1 5101 5102
5097 1 5102 5103
5098 1 5103 5104
5099 1 5104 5105
5100 1 5105 5106
5101 1 5106 5107
5102 1 5107 5108
5103 1 5108 5109
5104 1 5109 5110
5105 1 5110 5111
5106 1 5111 5112
5107 1 5112 5113
5108 1 5113 5114
5109 1 5114 5115
5110 1 5115 5116
5111 1 5116 5117
5112 1 5117 5118
5113 1 5118 5119
5114 1 5119 5120
5115 1 5120 5121
5116 1 5121 5122
5117 1 5122 5123
5118 1 5123 5124
5119 1 5124 5125
5120 1 5125 5126
5121 1 5126 5127
5122 1 5127 5128
5123 1 5128 5129
5124 1 5129 5130
5125 1 5130 5131
5126 1 5131 5132
5127 1 5132 5133
5128 1 5133 5134
5129 1 5134 5135
5130 1 5135 5136
5131 1 5136 5137
5132 1 5137 5138
5133 1 5138 5139
5134 1 5139 5140
5135 1 5140 5141
5136 1 5141 5142
5137 1 5142 5143
5138 1 5143 5144
5139 1 5144 5145
5140 1 5145 5146
5141 1 5146 5147
5142 1 5147 5148
5143 1 5148 5149
5144 1 5149 5150
5145 1 5150 5151
5146 1 5151 5152
5147 1 5152 5153
5148 1 5153 5154
5149 1 5154 5155
5150 1 5155 5156
5151 1 5156 5157
5152 1 5157 5158
5153 1 5158 5159
5154 1 5159 5160
5155 1 5160 5161
5156 1 5161 5162
5157 1 5162 5163
5158 1 5163 5164
5159 1 5164 5165
5160 1 5165 5166
5161 1 5166 5167
5162 1 5167 5168
5163 1 5168 5169
5164 1 5169 5170
5165 1 5170 5171
5166 1 5171 5172
5167 1 5172 5173
5168 1 5173 5174
5169 1 5174 5175
5170 1 5175 5176
5171 1 5176 5177
5172 1 5177 5178
5173 1 5178 5179
5174 1 5179 5180
5175 1 5180 5181
5176 1 5181 5182
5177 1 5182 5183
5178 1 5183 5184
5179 1 5184 5185
5180 1 5185 5186
5181 1 5186 5187
5182 1 5187 5188
5183 1 5188 5189
5184 1 5189 5190
5185 1 5190 5191
5186 1 5191 5192
5187 1 5192 5193
5188 1 5193 5194
5189 1 5194 5195
5190 1 5195 5196
5191 1 5196 5197
5192 1 5197 5198
5193 1 5198 5199
5194 1 5199 5200
5195 1 5200 5201
5196 1 5201 5202
5197 1 5202 5203
5198 1 5203 5204
5199 1 5204 5205
5200 1 5205 5206
5201 1 5206 5207
5202 1 5207 5208
5203 1 5208 5209
5204 1 5209 5210
5205 1 5210 5211
5206 1 5211 5212
5207 1 5212 5213
5208 1 5213 5214
5209 1 5214 5215
5210 1 5215 5216
5211 1 5216 5217
5212 1 5217 5218
5213 1 5218 5219
5214 1 5219 5220
5215 1 5220 5221
5216 1 5221 5222
5217 1 5222 5223
5218 1 5223 5224
5219 1 5224 5225
5220 1 5225 5226
5221 1 5226 5227
5222 1 5227 5228
5223 1 5228 5229
5224 1 5229 5230
5225 1 5230 5231
5226 1 5231 5232
5227 1 5232 5233
5228 1 5233 5234
5229 1 5234 5235
5230 1 5235 5236
5231 1 5236 5237
5232 1 5237 5238
5233 1 5238 5239
5234 1 5239 5240
5235 1 5240 5241
5236 1 5241 5242
5237 1 5242 5243
5238 1 5243 5244
5239 1 5244 5245
5240 1 5245 5246
5241 1 5246 5247
5242 1 5247 5248
5243 1 5248 5249
5244 1 5249 5250
5245 1 5250 5251
5246 1 5251 5252
5247 1 5252 5253
5248 1 5253 5254
5249 1 5254 5255
5250 1 5255 5256
5251 1 5256 5257
5252 1 5257 5258
5253 1 5258 5259
5254 1 5259 5260
5255 1 5260 5261
5256 1 5261 5262
5257 1 5262 5263
5258 1 5263 5264
5259 1 5264 5265
5260 1 5265 5266
5261 1 5266 5267
5262 1 5267 5268
5263 1 5268 5269
5264 1 5269 5270
5265 1 5270 5271
5266 1 5271 5272
5267 1 5272 5273
5268 1 5273 5274
5269 1 5274 5275
5270 1 5275 5276
5271 1 5276 5277
5272 1 5277 5278
5273 1 5278 5279
5274 1 5279 5280
5275 1 5280 5281
5276 1 5281 5282
5277 1 5282 5283
5278 1 5283 5284
5279 1 5284 5285
5280 1 5285 5286
5281 1 5286 5287
5282 1 5287 5288
5283 1 5288 5289
5284 1 5289 5290
5285 1 5290 5291
5286 1 5291 5292
5287 1 5292 5293
5288 1 5293 5294
5289 1 5294 5295
5290 1 5295 5296
5291 1 5296 5297
5292 1 5297 5298
5293 1 5298 5299
5294 1 5299 5300
5295 1 5300 5301
5296 1 5301 5302
5297 1 5302 5303
5298 1 5303 5304
5299 1 5304 5305
5300 1 5305 5306
5301 1 5306 5307
5302 1 5307 5308
5303 1 5308 5309
5304 1 5309 5310
5305 1 5310 5311
5306 1 5311 5312
5307 1 5312 5313
5308 1 5313 5314
5309 1 5314 5315
5310 1 5315 5316
5311 1 5316 5317
5312 1 5317 5318
5313 1 5318 5319
5314 1 5319 5320
5315 1 5320 5321
5316 1 5321 5322
5317 1 5322 5323
5318 1 5323 5324
5319 1 5324 5325
5320 1 5325 5326
5321 1 5326 5327
5322 1 5327 5328
5323 1 5328 5329
5324 1 5329 5330
5325 1 5330 5331
5326 1 5331 5332
5327 1 5332 5333
5328 1 5333 5334
5329 1 5334 5335
5330 1 5335 5336
5331 1 5336 5337
5332 1 5337 5338
5333 1 5338 5339
5334 1 5339 5340
5335 1 5340 5341
5336 1 5341 5342
5337 1 5342 5343
5338 1 5343 5344
5339 1 5344 5345
5340 1 5345 5346
5341 1 5346 5347
5342 1 5347 5348
5343 1 5348 5349
5344 1 5349 5350
5345 1 5350 5351
5346 1 5351 5352
5347 1 5352 5353
5348 1 5353 5354
5349 1 5354 5355
5350 1 5355 5356
5351 1 5356 5357
5352 1 5357 5358
5353 1 5358 5359
5354 1 5359 5360
5355 1 5360 5361
5356 1 5361 5362
5357 1 5362 5363
5358 1 5363 5364
5359 1 5364 5365
5360 1 5365 5366
5361 1 5366 5367
5362 1 5367 5368
5363 1 5368 5369
5364 1 5369 5370
5365 1 5370 5371
5366 1 5371 5372
5367 1 5372 5373
5368 1 5373 5374
5369 1 5374 5375
5370 1 5375 5376
5371 1 5376 5377
5372 1 5377 5378
5373 1 5378 5379
5374 1 5379 5380
5375 1 5380 5381
5376 1 5381 5382
5377 1 5382 5383
5378 1 5383 5384
5379 1 5384 5385
5380 1 5385 5386
5381 1 5386 5387
5382 1 5387 5388
5383 1 5388 5389
5384 1 5389 5390
5385 1 5390 5391
5386 1 5391 5392
5387 1 5392 5393
5388 1 5393 5394
5389 1 5394 5395
5390 1 5395 5396
5391 1 5396 5397
5392 1 5397 5398
5393 1 5398 5399
5394 1 5399 5400
5395 1 5400 5401
5396 1 5401 5402
5397 1 5402 5403
5398 1 5403 5404
5399 1 5404 5405
5400 1 5405 5406
5401 1 5406 5407
5402 1 5407 5408
5403 1 5408 5409
5404 1 5409 5410
5405 1 5410 5411
5406 1 5411 5412
5407 1 5412 5413
5408 1 5413 5414
5409 1 5414 5415
5410 1 5415 5416
5411 1 5416 5417
5412 1 5417 5418
5413 1 5418 5419
5414 1 5419 5420
5415 1 5420 5421
5416 1 5421 5422
5417 1 5422 5423
5418 1 5423 5424
5419 1 5424 5425
5420 1 5425 5426
5421 1 5426 5427
5422 1 5427 5428
5423 1 5428 5429
5424 1 5429 5430
5425 1 5430 5431
5426 1 5431 5432
5427 1 5432 5433
5428 1 5433 5434
5429 1 5434 5435
5430 1 5435 5436
5431 1 5436 5437
5432 1 5437 5438
5433 1 5438 5439
5434 1 5439 5440
5435 1 5440 5441
5436 1 5441 5442
5437 1 5442 5443
5438 1 5443 5444
5439 1 5444 5445
5440 1 5445 5446
5441 1 5446 5447
5442 1 5447 5448
5443 1 5448 5449
5444 1 5449 5450
5445 1 5450 5451
5446 1 5451 5452
5447 1 5452 5453
5448 1 5453 5454
5449 1 5454 5455
5450 1 5455 5456
5451 1 5456 5457
5452 1 5457 5458
5453 1 5458 5459
5454 1 5459 5460
5455 1 5460 5461
5456 1 5461 5462
5457 1 5462 5463
5458 1 5463 5464
5459 1 5464 5465
5460 1 5465 5466
5461 1 5466 5467
5462 1 5467 5468
5463 1 5468 5469
5464 1 5469 5470
5465 1 5470 5471
5466 1 5471 5472
5467 1 5472 5473
5468 1 5473 5474
5469 1 5474 5475
5470 1 5475 5476
5471 1 5476 5477
5472 1 5477 5478
5473 1 5478 5479
5474 1 5479 5480
5475 1 5480 5481
5476 1 5481 5482
5477 1 5482 5483
5478 1 5483 5484
5479 1 5484 5485
5480 1 5485 5486
5481 1 5486 5487
5482 1 5487 5488
5483 1 5488 5489
5484 1 5489 5490
5485 1 5490 5491
5486 1 5491 5492
5487 1 5492 5493
5488 1 5493 5494
5489 1 5494 5495
5490 1 5495 5496
5491 1 5496 5497
5492 1 5497 5498
5493 1 5498 5499
5494 1 5499 5500
5495 1 5500 5501
5496 1 5501 5502
5497 1 5502 5503
5498 1 5503 5504
5499 1 5504 5505
5500 1 5505 5506
5501 1 5506 5507
5502 1 5507 5508
5503 1 5508 5509
5504 1 5509 5510
5505 1 5510 5511
5506 1 5511 5512
5507 1 5512 5513
5508 1 5513 5514
5509 1 5514 5515
5510 1 5515 5516
5511 1 5516 5517
5512 1 5517 5518
5513 1 5518 5519
5514 1 5519 5520
5515 1 5520 5521
5516 1 5521 5522
5517 1 5522 5523
5518 1 5523 5524
5519 1 5524 5525
5520 1 5525 5526
5521 1 5526 5527
5522 1 5527 5528
5523 1 5528 5529
5524 1 5529 5530
5525 1 5530 5531
5526 1 5531 5532
5527 1 5532 5533
5528 1 5533 5534
5529 1 5534 5535
5530 1 5535 5536
5531 1 5536 5537
5532 1 5537 5538
5533 1 5538 5539
5534 1 5539 5540
5535 1 5540 5541
5536 1 5541 5542
5537 1 5542 5543
5538 1 5543 5544
5539 1 5544 5545
5540 1 5545 5546
5541 1 5546 5547
5542 1 5547 5548
5543 1 5548 5549
5544 1 5549 5550
5545 1 5550 5551
5546 1 5551 5552
5547 1 5552 5553
5548 1 5553 5554
5549 1 5554 5555
5550 1 5555 5556
5551 1 5556 5557
5552 1 5557 5558
5553 1 5558 5559
5554 1 5559 5560
5555 1 5560 5561
5556 1 5561 5562
5557 1 5562 5563
5558 1 5563 5564
5559 1 5564 5565
5560 1 5565 5566
5561 1 5566 5567
5562 1 5567 5568
5563 1 5568 5569
5564 1 5569 5570
5565 1 5570 5571
5566 1 5571 5572
5567 1 5572 5573
5568 1 5573 5574
5569 1 5574 5575
5570 1 5575 5576
5571 1 5576 5577
5572 1 5577 5578
5573 1 5578 5579
5574 1 5579 5580
5575 1 5580 5581
5576 1 5581 5582
5577 1 5582 5583
5578 1 5583 5584
5579 1 5584 5585
5580 1 5585 5586
5581 1 5586 5587
5582 1 5587 5588
5583 1 5588 5589
5584 1 5589 5590
5585 1 5590 5591
5586 1 5591 5592
5587 1 5592 5593
5588 1 5593 5594
5589 1 5594 5595
5590 1 5595 5596
5591 1 5596 5597
5592 1 5597 5598
5593 1 5598 5599
5594 1 5599 5600
5595 1 5600 5601
5596 1 5601 5602
5597 1 5602 5603
5598 1 5603 5604
5599 1 5604 5605
5600 1 5605 5606
5601 1 5606 5607
5602 1 5607 5608
5603 1 5608 5609
5604 1 5609 5610
5605 1 5610 5611
5606 1 5611 5612
5607 1 5612 5613
5608 1 5613 5614
5609 1 5614 5615
5610 1 5615 5616
5611 1 5616 5617
5612 1 5617 5618
5613 1 5618 5619
5614 1 5619 5620
5615 1 5620 5621
5616 1 5621 5622
5617 1 5622 5623
5618 1 5623 5624
5619 1 5624 5625
5620 1 5625 5626
5621 1 5626 5627
5622 1 5627 5628
5623 1 5628 5629
5624 1 5629 5630
5625 1 5630 5631
5626 1 5631 5632
5627 1 5632 5633
5628 1 5633 5634
5629 1 5634 5635
5630 1 5635 5636
5631 1 5636 5637
5632 1 5637 5638
5633 1 5638 5639
5634 1 5639 5640
5635 1 5640 5641
5636 1 5641 5642
5637 1 5642 5643
5638 1 5643 5644
5639 1 5644 5645
5640 1 5645 5646
5641 1 5646 5647
5642 1 5647 5648
5643 1 5648 5649
5644 1 5649 5650
5645 1 5650 5651
5646 1 5651 5652
5647 1 5652 5653
5648 1 5653 5654
5649 1 5654 5655
5650 1 5655 5656
5651 1 5656 5657
5652 1 5657 5658
5653 1 5658 5659
5654 1 5659 5660
5655 1 5660 5661
5656 1 5661 5662
5657 1 5662 5663
5658 1 5663 5664
5659 1 5664 5665
5660 1 5665 5666
5661 1 5666 5667
5662 1 5667 5668
5663 1 5668 5669
5664 1 5669 5670
5665 1 5670 5671
5666 1 5671 5672
5667 1 5672 5673
5668 1 5673 5674
5669 1 5674 5675
5670 1 5675 5676
5671 1 5676 5677
5672 1 5677 5678
5673 1 5678 5679
5674 1 5679 5680
5675 1 5680 5681
5676 1 5681 5682
5677 1 5682 5683
5678 1 5683 5684
5679 1 5684 5685
5680 1 5685 5686
5681 1 5686 5687
5682 1 5687 5688
5683 1 5688 5689
5684 1 5689 5690
5685 1 5690 5691
5686 1 5691 5692
5687 1 5692 5693
5688 1 5693 5694
5689 1 5694 5695
5690 1 5695 5696
5691 1 5696 5697
5692 1 5697 5698
5693 1 5698 5699
5694 1 5699 5700
5695 1 5700 5701
5696 1 5701 5702
5697 1 5702 5703
5698 1 5703 5704
5699 1 5704 5705
5700 1 5705 5706
5701 1 5706 5707
5702 1 5707 5708
5703 1 5708 5709
5704 1 5709 5710
5705 1 5710 5711
5706 1 5711 5712
5707 1 5712 5713
5708 1 5713 5714
5709 1 5714 5715
5710 1 5715 5716
5711 1 5716 5717
5712 1 5717 5718
5713 1 5718 5719
5714 1 5719 5720
5715 1 5720 5721
5716 1 5721 5722
5717 1 5722 5723
5718 1 5723 5724
5719 1 5724 5725
5720 1 5725 5726
5721 1 5726 5727
5722 1 5727 5728
5723 1 5728 5729
5724 1 5729 5730
5725 1 5730 5731
5726 1 5731 5732
5727 1 5732 5733
5728 1 5733 5734
5729 1 5734 5735
5730 1 5735 5736
5731 1 5736 5737
5732 1 5737 5738
5733 1 5738 5739
5734 1 5739 5740
5735 1 5740 5741
5736 1 5741 5742
5737 1 5742 5743
5738 1 5743 5744
5739 1 5744 5745
5740 1 5745 5746
5741 1 5746 5747
5742 1 5747 5748
5743 1 5748 5749
5744 1 5749 5750
5745 1 5750 5751
5746 1 5751 5752
5747 1 5752 5753
5748 1 5753 5754
5749 1 5754 5755
5750 1 5755 5756
5751 1 5756 5757
5752 1 5757 5758
5753 1 5758 5759
5754 1 5759 5760
5755 1 5760 5761
5756 1 5761 5762
5757 1 5762 5763
5758 1 5763 5764
5759 1 5764 5765
5760 1 5765 5766
5761 1 5766 5767
5762 1 5767 5768
5763 1 5768 5769
5764 1 5769 5770
5765 1 5770 5771
5766 1 5771 5772
5767 1 5772 5773
5768 1 5773 5774
5769 1 5774 5775
5770 1 5775 5776
5771 1 5776 5777
5772 1 5777 5778
5773 1 5778 5779
5774 1 5779 5780
5775 1 5780 5781
5776 1 5781 5782
5777 1 5782 5783
5778 1 5783 5784
5779 1 5784 5785
5780 1 5785 5786
5781 1 5786 5787
5782 1 5787 5788
5783 1 5788 5789
5784 1 5789 5790
5785 1 5790 5791
5786 1 5791 5792
5787 1 5792 5793
5788 1 5793 5794
5789 1 5794 5795
5790 1 5795 5796
5791 1 5796 5797
5792 1 5797 5798
5793 1 5798 5799
5794 1 5799 5800
5795 1 5800 5801
5796 1 5801 5802
5797 1 5802 5803
5798 1 5803 5804
5799 1 5804 5805
5800 1 5805 5806
5801 1 5806 5807
5802 1 5807 5808
5803 1 5808 5809
5804 1 5809 5810
5805 1 5810 5811
5806 1 5811 5812
5807 1 5812 5813
5808 1 5813 5814
5809 1 5814 5815
5810 1 5815 5816
5811 1 5816 5817
5812 1 5817 5818
5813 1 5818 5819
5814 1 5819 5820
5815 1 5820 5821
5816 1 5821 5822
5817 1 5822 5823
5818 1 5823 5824
5819 1 5824 5825
5820 1 5825 5826
5821 1 5826 5827
5822 1 5827 5828
5823 1 5828 5829
5824 1 5829 5830
5825 1 5830 5831
5826 1 5831 5832
5827 1 5832 5833
5828 1 5833 5834
5829 1 5834 5835
5830 1 5835 5836
5831 1 5836 5837
5832 1 5837 5838
5833 1 5838 5839
5834 1 5839 5840
5835 1 5840 5841
5836 1 5841 5842
5837 1 5842 5843
5838 1 5843 5844
5839 1 5844 5845
5840 1 5845 5846
5841 1 5846 5847
5842 1 5847 5848
5843 1 5848 5849
5844 1 5849 5850
5845 1 5850 5851
5846 1 5851 5852
5847 1 5852 5853
5848 1 5853 5854
5849 1 5854 5855
5850 1 5855 5856
5851 1 5856 5857
5852 1 5857 5858
5853 1 5858 5859
5854 1 5859 5860
5855 1 5860 5861
5856 1 5861 5862
5857 1 5862 5863
5858 1 5863 5864
5859 1 5864 5865
5860 1 5865 5866
5861 1 5866 5867
5862 1 5867 5868
5863 1 5868 5869
5864 1 5869 5870
5865 1 5870 5871
5866 1 5871 5872
5867 1 5872 5873
5868 1 5873 5874
5869 1 5874 5875
5870 1 5875 5876
5871 1 5876 5877
5872 1 5877 5878
5873 1 5878 5879
5874 1 5879 5880
5875 1 5880 5881
5876 1 5881 5882
5877 1 5882 5883
5878 1 5883 5884
5879 1 5884 5885
5880 1 5885 5886
5881 1 5886 5887
5882 1 5887 5888
5883 1 5888 5889
5884 1 5889 5890
5885 1 5890 5891
5886 1 5891 5892
5887 1 5892 5893
5888 1 5893 5894
5889 1 5894 5895
5890 1 5895 5896
5891 1 5896 5897
5892 1 5897 5898
5893 1 5898 5899
5894 1 5899 5900
5895 1 5900 5901
5896 1 5901 5902
5897 1 5902 5903
5898 1 5903 5904
5899 1 5904 5905
5900 1 5905 5906
5901 1 5906 5907
5902 1 5907 5908
5903 1 5908 5909
5904 1 5909 5910
5905 1 5910 5911
5906 1 5911 5912
5907 1 5912 5913
5908 1 5913 5914
5909 1 5914 5915
5910 1 5915 5916
5911 1 5916 5917
5912 1 5917 5918
5913 1 5918 5919
5914 1 5919 5920
5915 1 5920 5921
5916 1 5921 5922
5917 1 5922 5923
5918 1 5923 5924
5919 1 5924 5925
5920 1 5925 5926
5921 1 5926 5927
5922 1 5927 5928
5923 1 5928 5929
5924 1 5929 5930
5925 1 5930 5931
5926 1 5931 5932
5927 1 5932 5933
5928 1 5933 5934
5929 1 5934 5935
5930 1 5935 5936
5931 1 5936 5937
5932 1 5937 5938
5933 1 5938 5939
5934 1 5939 5940
5935 1 5940 5941
5936 1 5941 5942
5937 1 5942 5943
5938 1 5943 5944
5939 1 5944 5945
5940 1 5945 5946
5941 1 5946 5947
5942 1 5947 5948
5943 1 5948 5949
5944 1 5949 5950
5945 1 5950 5951
5946 1 5951 5952
5947 1 5952 5953
5948 1 5953 5954
5949 1 5954 5955
5950 1 5955 5956
5951 1 5956 5957
5952 1 5957 5958
5953 1 5958 5959
5954 1 5959 5960
5955 1 5960 5961
5956 1 5961 5962
5957 1 5962 5963
5958 1 5963 5964
5959 1 5964 5965
5960 1 5965 5966
5961 1 5966 5967
5962 1 5967 5968
5963 1 5968 5969
5964 1 5969 5970
5965 1 5970 5971
5966 1 5971 5972
5967 1 5972 5973
5968 1 5973 5974
5969 1 5974 5975
5970 1 5975 5976
5971 1 5976 5977
5972 1 5977 5978
5973 1 5978 5979
5974 1 5979 5980
5975 1 5980 5981
5976 1 5981 5982
5977 1 5982 5983
5978 1 5983 5984
5979 1 5984 5985
5980 1 5985 5986
5981 1 5986 5987
5982 1 5987 5988
5983 1 5988 5989
5984 1 5989 5990
5985 1 5990 5991
5986 1 5991 5992
5987 1 5992 5993
5988 1 5993 5994
5989 1 5994 5995
5990 1 5995 5996
5991 1 5996 5997
5992 1 5997 5998
5993 1 5998 5999
5994 1 5999 6000
5995 1 6001 6002
5996 1 6002 6003
5997 1 6003 6004
5998 1 6004 6005
5999 1 6005 6006
6000 1 6006 6007
6001 1 6007 6008
6002 1 6008 6009
6003 1 6009 6010
6004 1 6010 6011
6005 1 6011 6012
6006 1 6012 6013
6007 1 6013 6014
6008 1 6014 6015
6009 1 6015 6016
6010 1 6016 6017
6011 1 6017 6018
6012 1 6018 6019
6013 1 6019 6020
6014 1 6020 6021
6015 1 6021 6022
6016 1 6022 6023
6017 1 6023 6024
6018 1 6024 6025
6019 1 6025 6026
6020 1 6026 6027
6021 1 6027 6028
6022 1 6028 6029
6023 1 6029 6030
6024 1 6030 6031
6025 1 6031 6032
6026 1 6032 6033
6027 1 6033 6034
6028 1 6034 6035
6029 1 6035 6036
6030 1 6036 6037
6031 1 6037 6038
6032 1 6038 6039
6033 1 6039 6040
6034 1 6040 6041
6035 1 6041 6042
6036 1 6042 6043
6037 1 6043 6044
6038 1 6044 6045
6039 1 6045 6046
6040 1 6046 6047
6041 1 6047 6048
6042 1 6048 6049
6043 1 6049 6050
6044 1 6050 6051
6045 1 6051 6052
6046 1 6052 6053
6047 1 6053 6054
6048 1 6054 6055
6049 1 6055 6056
6050 1 6056 6057
6051 1 6057 6058
6052 1 6058 6059
6053 1 6059 6060
6054 1 6060 6061
6055 1 6061 6062
6056 1 6062 6063
6057 1 6063 6064
6058 1 6064 6065
6059 1 6065 6066
6060 1 6066 6067
6061 1 6067 6068
6062 1 6068 6069
6063 1 6069 6070
6064 1 6070 6071
6065 1 6071 6072
6066 1 6072 6073
6067 1 6073 6074
6068 1 6074 6075
6069 1 6075 6076
6070 1 6076 6077
6071 1 6077 6078
6072 1 6078 6079
6073 1 6079 6080
6074 1 6080 6081
6075 1 6081 6082
6076 1 6082 6083
6077 1 6083 6084
6078 1 6084 6085
6079 1 6085 6086
6080 1 6086 6087
6081 1 6087 6088
6082 1 6088 6089
6083 1 6089 6090
6084 1 6090 6091
6085 1 6091 6092
6086 1 6092 6093
6087 1 6093 6094
6088 1 6094 6095
6089 1 6095 6096
6090 1 6096 6097
6091 1 6097 6098
6092 1 6098 6099
6093 1 6099 6100
6094 1 6100 6101
6095 1 6101 6102
6096 1 6102 6103
6097 1 6103 6104
6098 1 6104 6105
6099 1 6105 6106
6100 1 6106 6107
6101 1 6107 6108
6102 1 6108 6109
6103 1 6109 6110
6104 1 6110 6111
6105 1 6111 6112
6106 1 6112 6113
6107 1 6113 6114
6108 1 6114 6115
6109 1 6115 6116
6110 1 6116 6117
6111 1 6117 6118
6112 1 6118 6119
6113 1 6119 6120
6114 1 6120 6121
6115 1 6121 6122
6116 1 6122 6123
6117 1 6123 6124
6118 1 6124 6125
6119 1 6125 6126
6120 1 6126 6127
6121 1 6127 6128
6122 1 6128 6129
6123 1 6129 6130
6124 1 6130 6131
6125 1 6131 6132
6126 1 6132 6133
6127 1 6133 6134
6128 1 6134 6135
6129 1 6135 6136
6130 1 6136 6137
6131 1 6137 6138
6132 1 6138 6139
6133 1 6139 6140
6134 1 6140 6141
6135 1 6141 6142
6136 1 6142 6143
6137 1 6143 6144
6138 1 6144 6145
6139 1 6145 6146
6140 1 6146 6147
6141 1 6147 6148
6142 1 6148 6149
6143 1 6149 6150
6144 1 6150 6151
6145 1 6151 6152
6146 1 6152 6153
6147 1 6153 6154
6148 1 6154 6155
6149 1 6155 6156
6150 1 6156 6157
6151 1 6157 6158
6152 1 6158 6159
6153 1 6159 6160
6154 1 6160 6161
6155 1 6161 6162
6156 1 6162 6163
6157 1 6163 6164
6158 1 6164 6165
6159 1 6165 6166
6160 1 6166 6167
6161 1 6167 6168
6162 1 6168 6169
6163 1 6169 6170
6164 1 6170 6171
6165 1 6171 6172
6166 1 6172 6173
6167 1 6173 6174
6168 1 6174 6175
6169 1 6175 6176
6170 1 6176 6177
6171 1 6177 6178
6172 1 6178 6179
6173 1 6179 6180
6174 1 6180 6181
6175 1 6181 6182
6176 1 6182 6183
6177 1 6183 6184
6178 1 6184 6185
6179 1 6185 6186
6180 1 6186 6187
6181 1 6187 6188
6182 1 6188 6189
6183 1 6189 6190
6184 1 6190 6191
6185 1 6191 6192
6186 1 6192 6193
6187 1 6193 6194
6188 1 6194 6195
6189 1 6195 6196
6190 1 6196 6197
6191 1 6197 6198
6192 1 6198 6199
6193 1 6199 6200
6194 1 6200 6201
6195 1 6201 6202
6196 1 6202 6203
6197 1 6203 6204
6198 1 6204 6205
6199 1 6205 6206
6200 1 6206 6207
6201 1 6207 6208
6202 1 6208 6209
6203 1 6209 6210
6204 1 6210 6211
6205 1 6211 6212
6206 1 6212 6213
6207 1 6213 6214
6208 1 6214 6215
6209 1 6215 6216
6210 1 6216 6217
6211 1 6217 6218
6212 1 6218 6219
6213 1 6219 6220
6214 1 6220 6221
6215 1 6221 6222
6216 1 6222 6223
6217 1 6223 6224
6218 1 6224 6225
6219 1 6225 6226
6220 1 6226 6227
6221 1 6227 6228
6222 1 6228 6229
6223 1 6229 6230
6224 1 6230 6231
6225 1 6231 6232
6226 1 6232 6233
6227 1 6233 6234
6228 1 6234 6235
6229 1 6235 6236
6230 1 6236 6237
6231 1 6237 6238
6232 1 6238 6239
6233 1 6239 6240
6234 1 6240 6241
6235 1 6241 6242
6236 1 6242 6243
6237 1 6243 6244
6238 1 6244 6245
6239 1 6245 6246
6240 1 6246 6247
6241 1 6247 6248
6242 1 6248 6249
6243 1 6249 6250
6244 1 6250 6251
6245 1 6251 6252
6246 1 6252 6253
6247 1 6253 6254
6248 1 6254 6255
6249 1 6255 6256
6250 1 6256 6257
6251 1 6257 6258
6252 1 6258 6259
6253 1 6259 6260
6254 1 6260 6261
6255 1 6261 6262
6256 1 6262 6263
6257 1 6263 6264
6258 1 6264 6265
6259 1 6265 6266
6260 1 6266 6267
6261 1 6267 6268
6262 1 6268 6269
6263 1 6269 6270
6264 1 6270 6271
6265 1 6271 6272
6266 1 6272 6273
6267 1 6273 6274
6268 1 6274 6275
6269 1 6275 6276
6270 1 6276 6277
6271 1 6277 6278
6272 1 6278 6279
6273 1 6279 6280
6274 1 6280 6281
6275 1 6281 6282
6276 1 6282 6283
6277 1 6283 6284
6278 1 6284 6285
6279 1 6285 6286
6280 1 6286 6287
6281 1 6287 6288
6282 1 6288 6289
6283 1 6289 6290
6284 1 6290 6291
6285 1 6291 6292
6286 1 6292 6293
6287 1 6293 6294
6288 1 6294 6295
6289 1 6295 6296
6290 1 6296 6297
6291 1 6297 6298
6292 1 6298 6299
6293 1 6299 6300
6294 1 6300 6301
6295 1 6301 6302
6296 1 6302 6303
6297 1 6303 6304
6298 1 6304 6305
6299 1 6305 6306
6300 1 6306 6307
6301 1 6307 6308
6302 1 6308 6309
6303 1 6309 6310
6304 1 6310 6311
6305 1 6311 6312
6306 1 6312 6313
6307 1 6313 6314
6308 1 6314 6315
6309 1 6315 6316
6310 1 6316 6317
6311 1 6317 6318
6312 1 6318 6319
6313 1 6319 6320
6314 1 6320 6321
6315 1 6321 6322
6316 1 6322 6323
6317 1 6323 6324
6318 1 6324 6325
6319 1 6325 6326
6320 1 6326 6327
6321 1 6327 6328
6322 1 6328 6329
6323 1 6329 6330
6324 1 6330 6331
6325 1 6331 6332
6326 1 6332 6333
6327 1 6333 6334
6328 1 6334 6335
6329 1 6335 6336
6330 1 6336 6337
6331 1 6337 6338
6332 1 6338 6339
6333 1 6339 6340
6334 1 6340 6341
6335 1 6341 6342
6336 1 6342 6343
6337 1 6343 6344
6338 1 6344 6345
6339 1 6345 6346
6340 1 6346 6347
6341 1 6347 6348
6342 1 6348 6349
6343 1 6349 6350
6344 1 6350 6351
6345 1 6351 6352
6346 1 6352 6353
6347 1 6353 6354
6348 1 6354 6355
6349 1 6355 6356
6350 1 6356 6357
6351 1 6357 6358
6352 1 6358 6359
6353 1 6359 6360
6354 1 6360 6361
6355 1 6361 6362
6356 1 6362 6363
6357 1 6363 6364
6358 1 6364 6365
6359 1 6365 6366
6360 1 6366 6367
6361 1 6367 6368
6362 1 6368 6369
6363 1 6369 6370
6364 1 6370 6371
6365 1 6371 6372
6366 1 6372 6373
6367 1 6373 6374
6368 1 6374 6375
6369 1 6375 6376
6370 1 6376 6377
6371 1 6377 6378
6372 1 6378 6379
6373 1 6379 6380
6374 1 6380 6381
6375 1 6381 6382
6376 1 6382 6383
6377 1 6383 6384
6378 1 6384 6385
6379 1 6385 6386
6380 1 6386 6387
6381 1 6387 6388
6382 1 6388 6389
6383 1 6389 6390
6384 1 6390 6391
6385 1 6391 6392
6386 1 6392 6393
6387 1 6393 6394
6388 1 6394 6395
6389 1 6395 6396
6390 1 6396 6397
6391 1 6397 6398
6392 1 6398 6399
6393 1 6399 6400
6394 1 6400 6401
6395 1 6401 6402
6396 1 6402 6403
6397 1 6403 6404
6398 1 6404 6405
6399 1 6405 6406
6400 1 6406 6407
6401 1 6407 6408
6402 1 6408 6409
6403 1 6409 6410
6404 1 6410 6411
6405 1 6411 6412
6406 1 6412 6413
6407 1 6413 6414
6408 1 6414 6415
6409 1 6415 6416
6410 1 6416 6417
6411 1 6417 6418
6412 1 6418 6419
6413 1 6419 6420
6414 1 6420 6421
6415 1 6421 6422
6416 1 6422 6423
6417 1 6423 6424
6418 1 6424 6425
6419 1 6425 6426
6420 1 6426 6427
6421 1 6427 6428
6422 1 6428 6429
6423 1 6429 6430
6424 1 6430 6431
6425 1 6431 6432
6426 1 6432 6433
6427 1 6433 6434
6428 1 6434 6435
6429 1 6435 6436
6430 1 6436 6437
6431 1 6437 6438
6432 1 6438 6439
6433 1 6439 6440
6434 1 6440 6441
6435 1 6441 6442
6436 1 6442 6443
6437 1 6443 6444
6438 1 6444 6445
6439 1 6445 6446
6440 1 6446 6447
6441 1 6447 6448
6442 1 6448 6449
6443 1 6449 6450
6444 1 6450 6451
6445 1 6451 6452
6446 1 6452 6453
6447 1 6453 6454
6448 1 6454 6455
6449 1 6455 6456
6450 1 6456 6457
6451 1 6457 6458
6452 1 6458 6459
6453 1 6459 6460
6454 1 6460 6461
6455 1 6461 6462
6456 1 6462 6463
6457 1 6463 6464
6458 1 6464 6465
6459 1 6465 6466
6460 1 6466 6467
6461 1 6467 6468
6462 1 6468 6469
6463 1 6469 6470
6464 1 6470 6471
6465 1 6471 6472
6466 1 6472 6473
6467 1 6473 6474
6468 1 6474 6475
6469 1 6475 6476
6470 1 6476 6477
6471 1 6477 6478
6472 1 6478 6479
6473 1 6479 6480
6474 1 6480 6481
6475 1 6481 6482
6476 1 6482 6483
6477 1 6483 6484
6478 1 6484 6485
6479 1 6485 6486
6480 1 6486 6487
6481 1 6487 6488
6482 1 6488 6489
6483 1 6489 6490
6484 1 6490 6491
6485 1 6491 6492
6486 1 6492 6493
6487 1 6493 6494
6488 1 6494 6495
6489 1 6495 6496
6490 1 6496 6497
6491 1 6497 6498
6492 1 6498 6499
6493 1 6499 6500
6494 1 6500 6501
6495 1 6501 6502
6496 1 6502 6503
6497 1 6503 6504
6498 1 6504 6505
6499 1 6505 6506
6500 1 6506 6507
6501 1 6507 6508
6502 1 6508 6509
6503 1 6509 6510
6504 1 6510 6511
6505 1 6511 6512
6506 1 6512 6513
6507 1 6513 6514
6508 1 6514 6515
6509 1 6515 6516
6510 1 6516 6517
6511 1 6517 6518
6512 1 6518 6519
6513 1 6519 6520
6514 1 6520 6521
6515 1 6521 6522
6516 1 6522 6523
6517 1 6523 6524
6518 1 6524 6525
6519 1 6525 6526
6520 1 6526 6527
6521 1 6527 6528
6522 1 6528 6529
6523 1 6529 6530
6524 1 6530 6531
6525 1 6531 6532
6526 1 6532 6533
6527 1 6533 6534
6528 1 6534 6535
6529 1 6535 6536
6530 1 6536 6537
6531 1 6537 6538
6532 1 6538 6539
6533 1 6539 6540
6534 1 6540 6541
6535 1 6541 6542
6536 1 6542 6543
6537 1 6543 6544
6538 1 6544 6545
6539 1 6545 6546
6540 1 6546 6547
6541 1 6547 6548
6542 1 6548 6549
6543 1 6549 6550
6544 1 6550 6551
6545 1 6551 6552
6546 1 6552 6553
6547 1 6553 6554
6548 1 6554 6555
6549 1 6555 6556
6550 1 6556 6557
6551 1 6557 6558
6552 1 6558 6559
6553 1 6559 6560
6554 1 6560 6561
6555 1 6561 6562
6556 1 6562 6563
6557 1 6563 6564
6558 1 6564 6565
6559 1 6565 6566
6560 1 6566 6567
6561 1 6567 6568
6562 1 6568 6569
6563 1 6569 6570
6564 1 6570 6571
6565 1 6571 6572
6566 1 6572 6573
6567 1 6573 6574
6568 1 6574 6575
6569 1 6575 6576
6570 1 6576 6577
6571 1 6577 6578
6572 1 6578 6579
6573 1 6579 6580
6574 1 6580 6581
6575 1 6581 6582
6576 1 6582 6583
6577 1 6583 6584
6578 1 6584 6585
6579 1 6585 6586
6580 1 6586 6587
6581 1 6587 6588
6582 1 6588 6589
6583 1 6589 6590
6584 1 6590 6591
6585 1 6591 6592
6586 1 6592 6593
6587 1 6593 6594
6588 1 6594 6595
6589 1 6595 6596
6590 1 6596 6597
6591 1 6597 6598
6592 1 6598 6599
6593 1 6599 6600
6594 1 6600 6601
6595 1 6601 6602
6596 1 6602 6603
6597 1 6603 6604
6598 1 6604 6605
6599 1 6605 6606
6600 1 6606 6607
6601 1 6607 6608
6602 1 6608 6609
6603 1 6609 6610
6604 1 6610 6611
6605 1 6611 6612
6606 1 6612 6613
6607 1 6613 6614
6608 1 6614 6615
6609 1 6615 6616
6610 1 6616 6617
6611 1 6617 6618
6612 1 6618 6619
6613 1 6619 6620
6614 1 6620 6621
6615 1 6621 6622
6616 1 6622 6623
6617 1 6623 6624
6618 1 6624 6625
6619 1 6625 6626
6620 1 6626 6627
6621 1 6627 6628
6622 1 6628 6629
6623 1 6629 6630
6624 1 6630 6631
6625 1 6631 6632
6626 1 6632 6633
6627 1 6633 6634
6628 1 6634 6635
6629 1 6635 6636
6630 1 6636 6637
6631 1 6637 6638
6632 1 6638 6639
6633 1 6639 6640
6634 1 6640 6641
6635 1 6641 6642
6636 1 6642 6643
6637 1 6643 6644
6638 1 6644 6645
6639 1 6645 6646
6640 1 6646 6647
6641 1 6647 6648
6642 1 6648 6649
6643 1 6649 6650
6644 1 6650 6651
6645 1 6651 6652
6646 1 6652 6653
6647 1 6653 6654
6648 1 6654 6655
6649 1 6655 6656
6650 1 6656 6657
6651 1 6657 6658
6652 1 6658 6659
6653 1 6659 6660
6654 1 6660 6661
6655 1 6661 6662
6656 1 6662 6663
6657 1 6663 6664
6658 1 6664 6665
6659 1 6665 6666
6660 1 6666 6667
6661 1 6667 6668
6662 1 6668 6669
6663 1 6669 6670
6664 1 6670 6671
6665 1 6671 6672
6666 1 6672 6673
6667 1 6673 6674
6668 1 6674 6675
6669 1 6675 6676
6670 1 6676 6677
6671 1 6677 6678
6672 1 6678 6679
6673 1 6679 6680
6674 1 6680 6681
6675 1 6681 6682
6676 1 6682 6683
6677 1 6683 6684
6678 1 6684 6685
6679 1 6685 6686
6680 1 6686 6687
6681 1 6687 6688
6682 1 6688 6689
6683 1 6689 6690
6684 1 6690 6691
6685 1 6691 6692
6686 1 6692 6693
6687 1 6693 6694
6688 1 6694 6695
6689 1 6695 6696
6690 1 6696 6697
6691 1 6697 6698
6692 1 6698 6699
6693 1 6699 6700
6694 1 6700 6701
6695 1 6701 6702
6696 1 6702 6703
6697 1 6703 6704
6698 1 6704 6705
6699 1 6705 6706
6700 1 6706 6707
6701 1 6707 6708
6702 1 6708 6709
6703 1 6709 6710
6704 1 6710 6711
6705 1 6711 6712
6706 1 6712 6713
6707 1 6713 6714
6708 1 6714 6715
6709 1 6715 6716
6710 1 6716 6717
6711 1 6717 6718
6712 1 6718 6719
6713 1 6719 6720
6714 1 6720 6721
6715 1 6721 6722
6716 1 6722 6723
6717 1 6723 6724
6718 1 6724 6725
6719 1 6725 6726
6720 1 6726 6727
6721 1 6727 6728
6722 1 6728 6729
6723 1 6729 6730
6724 1 6730 6731
6725 1 6731 6732
6726 1 6732 6733
6727 1 6733 6734
6728 1 6734 6735
6729 1 6735 6736
6730 1 6736 6737
6731 1 6737 6738
6732 1 6738 6739
6733 1 6739 6740
6734 1 6740 6741
6735 1 6741 6742
6736 1 6742 6743
6737 1 6743 6744
6738 1 6744 6745
6739 1 6745 6746
6740 1 6746 6747
6741 1 6747 6748
6742 1 6748 6749
6743 1 6749 6750
6744 1 6750 6751
6745 1 6751 6752
6746 1 6752 6753
6747 1 6753 6754
6748 1 6754 6755
6749 1 6755 6756
6750 1 6756 6757
6751 1 6757 6758
6752 1 6758 6759
6753 1 6759 6760
6754 1 6760 6761
6755 1 6761 6762
6756 1 6762 6763
6757 1 6763 6764
6758 1 6764 6765
6759 1 6765 6766
6760 1 6766 6767
6761 1 6767 6768
6762 1 6768 6769
6763 1 6769 6770
6764 1 6770 6771
6765 1 6771 6772
6766 1 6772 6773
6767 1 6773 6774
6768 1 6774 6775
6769 1 6775 6776
6770 1 6776 6777
6771 1 6777 6778
6772 1 6778 6779
6773 1 6779 6780
6774 1 6780 6781
6775 1 6781 6782
6776 1 6782 6783
6777 1 6783 6784
6778 1 6784 6785
6779 1 6785 6786
6780 1 6786 6787
6781 1 6787 6788
6782 1 6788 6789
6783 1 6789 6790
6784 1 6790 6791
6785 1 6791 6792
6786 1 6792 6793
6787 1 6793 6794
6788 1 6794 6795
6789 1 6795 6796
6790 1 6796 6797
6791 1 6797 6798
6792 1 6798 6799
6793 1 6799 6800
6794 1 6800 6801
6795 1 6801 6802
6796 1 6802 6803
6797 1 6803 6804
6798 1 6804 6805
6799 1 6805 6806
6800 1 6806 6807
6801 1 6807 6808
6802 1 6808 6809
6803 1 6809 6810
6804 1 6810 6811
6805 1 6811 6812
6806 1 6812 6813
6807 1 6813 6814
6808 1 6814 6815
6809 1 6815 6816
6810 1 6816 6817
6811 1 6817 6818
6812 1 6818 6819
6813 1 6819 6820
6814 1 6820 6821
6815 1 6821 6822
6816 1 6822 6823
6817 1 6823 6824
6818 1 6824 6825
6819 1 6825 6826
6820 1 6826 6827
6821 1 6827 6828
6822 1 6828 6829
6823 1 6829 6830
6824 1 6830 6831
6825 1 6831 6832
6826 1 6832 6833
6827 1 6833 6834
6828 1 6834 6835
6829 1 6835 6836
6830 1 6836 6837
6831 1 6837 6838
6832 1 6838 6839
6833 1 6839 6840
6834 1 6840 6841
6835 1 6841 6842
6836 1 6842 6843
6837 1 6843 6844
6838 1 6844 6845
6839 1 6845 6846
6840 1 6846 6847
6841 1 6847 6848
6842 1 6848 6849
6843 1 6849 6850
6844 1 6850 6851
6845 1 6851 6852
6846 1 6852 6853
6847 1 6853 6854
6848 1 6854 6855
6849 1 6855 6856
6850 1 6856 6857
6851 1 6857 6858
6852 1 6858 6859
6853 1 6859 6860
6854 1 6860 6861
6855 1 6861 6862
6856 1 6862 6863
6857 1 6863 6864
6858 1 6864 6865
6859 1 6865 6866
6860 1 6866 6867
6861 1 6867 6868
6862 1 6868 6869
6863 1 6869 6870
6864 1 6870 6871
6865 1 6871 6872
6866 1 6872 6873
6867 1 6873 6874
6868 1 6874 6875
6869 1 6875 6876
6870 1 6876 6877
6871 1 6877 6878
6872 1 6878 6879
6873 1 6879 6880
6874 1 6880 6881
6875 1 6881 6882
6876 1 6882 6883
6877 1 6883 6884
6878 1 6884 6885
6879 1 6885 6886
6880 1 6886 6887
6881 1 6887 6888
6882 1 6888 6889
6883 1 6889 6890
6884 1 6890 6891
6885 1 6891 6892
6886 1 6892 6893
6887 1 6893 6894
6888 1 6894 6895
6889 1 6895 6896
6890 1 6896 6897
6891 1 6897 6898
6892 1 6898 6899
6893 1 6899 6900
6894 1 6900 6901
6895 1 6901 6902
6896 1 6902 6903
6897 1 6903 6904
6898 1 6904 6905
6899 1 6905 6906
6900 1 6906 6907
6901 1 6907 6908
6902 1 6908 6909
6903 1 6909 6910
6904 1 6910 6911
6905 1 6911 6912
6906 1 6912 6913
6907 1 6913 6914
6908 1 6914 6915
6909 1 6915 6916
6910 1 6916 6917
6911 1 6917 6918
6912 1 6918 6919
6913 1 6919 6920
6914 1 6920 6921
6915 1 6921 6922
6916 1 6922 6923
6917 1 6923 6924
6918 1 6924 6925
6919 1 6925 6926
6920 1 6926 6927
6921 1 6927 6928
6922 1 6928 6929
6923 1 6929 6930
6924 1 6930 6931
6925 1 6931 6932
6926 1 6932 6933
6927 1 6933 6934
6928 1 6934 6935
6929 1 6935 6936
6930 1 6936 6937
6931 1 6937 6938
6932 1 6938 6939
6933 1 6939 6940
6934 1 6940 6941
6935 1 6941 6942
6936 1 6942 6943
6937 1 6943 6944
6938 1 6944 6945
6939 1 6945 6946
6940 1 6946 6947
6941 1 6947 6948
6942 1 6948 6949
6943 1 6949 6950
6944 1 6950 6951
6945 1 6951 6952
6946 1 6952 6953
6947 1 6953 6954
6948 1 6954 6955
6949 1 6955 6956
6950 1 6956 6957
6951 1 6957 6958
6952 1 6958 6959
6953 1 6959 6960
6954 1 6960 6961
6955 1 6961 6962
6956 1 6962 6963
6957 1 6963 6964
6958 1 6964 6965
6959 1 6965 6966
6960 1 6966 6967
6961 1 6967 6968
6962 1 6968 6969
6963 1 6969 6970
6964 1 6970 6971
6965 1 6971 6972
6966 1 6972 6973
6967 1 6973 6974
6968 1 6974 6975
6969 1 6975 6976
6970 1 6976 6977
6971 1 6977 6978
6972 1 6978 6979
6973 1 6979 6980
6974 1 6980 6981
6975 1 6981 6982
6976 1 6982 6983
6977 1 6983 6984
6978 1 6984 6985
6979 1 6985 6986
6980 1 6986 6987
6981 1 6987 6988
6982 1 6988 6989
6983 1 6989 6990
6984 1 6990 6991
6985 1 6991 6992
6986 1 6992 6993
6987 1 6993 6994
6988 1 6994 6995
6989 1 6995 6996
6990 1 6996 6997
6991 1 6997 6998
6992 1 6998 6999
6993 1 6999 7000
6994 1 7001 7002
6995 1 7002 7003
6996 1 7003 7004
6997 1 7004 7005
6998 1 7005 7006
6999 1 7006 7007
7000 1 7007 7008
7001 1 7008 7009
7002 1 7009 7010
7003 1 7010 7011
7004 1 7011 7012
7005 1 7012 7013
7006 1 7013 7014
7007 1 7014 7015
7008 1 7015 7016
7009 1 7016 7017
7010 1 7017 7018
7011 1 7018 7019
7012 1 7019 7020
7013 1 7020 7021
7014 1 7021 7022
7015 1 7022 7023
7016 1 7023 7024
7017 1 7024 7025
7018 1 7025 7026
7019 1 7026 7027
7020 1 7027 7028
7021 1 7028 7029
7022 1 7029 7030
7023 1 7030 7031
7024 1 7031 7032
7025 1 7032 7033
7026 1 7033 7034
7027 1 7034 7035
7028 1 7035 7036
7029 1 7036 7037
7030 1 7037 7038
7031 1 7038 7039
7032 1 7039 7040
7033 1 7040 7041
7034 1 7041 7042
7035 1 7042 7043
7036 1 7043 7044
7037 1 7044 7045
7038 1 7045 7046
7039 1 7046 7047
7040 1 7047 7048
7041 1 7048 7049
7042 1 7049 7050
7043 1 7050 7051
7044 1 7051 7052
7045 1 7052 7053
7046 1 7053 7054
7047 1 7054 7055
7048 1 7055 7056
7049 1 7056 7057
7050 1 7057 7058
7051 1 7058 7059
7052 1 7059 7060
7053 1 7060 7061
7054 1 7061 7062
7055 1 7062 7063
7056 1 7063 7064
7057 1 7064 7065
7058 1 7065 7066
7059 1 7066 7067
7060 1 7067 7068
7061 1 7068 7069
7062 1 7069 7070
7063 1 7070 7071
7064 1 7071 7072
7065 1 7072 7073
7066 1 7073 7074
7067 1 7074 7075
7068 1 7075 7076
7069 1 7076 7077
7070 1 7077 7078
7071 1 7078 7079
7072 1 7079 7080
7073 1 7080 7081
7074 1 7081 7082
7075 1 7082 7083
7076 1 7083 7084
7077 1 7084 7085
7078 1 7085 7086
7079 1 7086 7087
7080 1 7087 7088
7081 1 7088 7089
7082 1 7089 7090
7083 1 7090 7091
7084 1 7091 7092
7085 1 7092 7093
7086 1 7093 7094
7087 1 7094 7095
7088 1 7095 7096
7089 1 7096 7097
7090 1 7097 7098
7091 1 7098 7099
7092 1 7099 7100
7093 1 7100 7101
7094 1 7101 7102
7095 1 7102 7103
7096 1 7103 7104
7097 1 7104 7105
7098 1 7105 7106
7099 1 7106 7107
7100 1 7107 7108
7101 1 7108 7109
7102 1 7109 7110
7103 1 7110 7111
7104 1 7111 7112
7105 1 7112 7113
7106 1 7113 7114
7107 1 7114 7115
7108 1 7115 7116
7109 1 7116 7117
7110 1 7117 7118
7111 1 7118 7119
7112 1 7119 7120
7113 1 7120 7121
7114 1 7121 7122
7115 1 7122 7123
7116 1 7123 7124
7117 1 7124 7125
7118 1 7125 7126
7119 1 7126 7127
7120 1 7127 7128
7121 1 7128 7129
7122 1 7129 7130
7123 1 7130 7131
7124 1 7131 7132
7125 1 7132 7133
7126 1 7133 7134
7127 1 7134 7135
7128 1 7135 7136
7129 1 7136 7137
7130 1 7137 7138
7131 1 7138 7139
7132 1 7139 7140
7133 1 7140 7141
7134 1 7141 7142
7135 1 7142 7143
7136 1 7143 7144
7137 1 7144 7145
7138 1 7145 7146
7139 1 7146 7147
7140 1 7147 7148
7141 1 7148 7149
7142 1 7149 7150
7143 1 7150 7151
7144 1 7151 7152
7145 1 7152 7153
7146 1 7153 7154
7147 1 7154 7155
7148 1 7155 7156
7149 1 7156 7157
7150 1 7157 7158
7151 1 7158 7159
7152 1 7159 7160
7153 1 7160 7161
7154 1 7161 7162
7155 1 7162 7163
7156 1 7163 7164
7157 1 7164 7165
7158 1 7165 7166
7159 1 7166 7167
7160 1 7167 7168
7161 1 7168 7169
7162 1 7169 7170
7163 1 7170 7171
7164 1 7171 7172
7165 1 7172 7173
7166 1 7173 7174
7167 1 7174 7175
7168 1 7175 7176
7169 1 7176 7177
7170 1 7177 7178
7171 1 7178 7179
7172 1 7179 7180
7173 1 7180 7181
7174 1 7181 7182
7175 1 7182 7183
7176 1 7183 7184
7177 1 7184 7185
7178 1 7185 7186
7179 1 7186 7187
7180 1 7187 7188
7181 1 7188 7189
7182 1 7189 7190
7183 1 7190 7191
7184 1 7191 7192
7185 1 7192 7193
7186 1 7193 7194
7187 1 7194 7195
7188 1 7195 7196
7189 1 7196 7197
7190 1 7197 7198
7191 1 7198 7199
7192 1 7199 7200
7193 1 7200 7201
7194 1 7201 7202
7195 1 7202 7203
7196 1 7203 7204
7197 1 7204 7205
7198 1 7205 7206
7199 1 7206 7207
7200 1 7207 7208
7201 1 7208 7209
7202 1 7209 7210
7203 1 7210 7211
7204 1 7211 7212
7205 1 7212 7213
7206 1 7213 7214
7207 1 7214 7215
7208 1 7215 7216
7209 1 7216 7217
7210 1 7217 7218
7211 1 7218 7219
7212 1 7219 7220
7213 1 7220 7221
7214 1 7221 7222
7215 1 7222 7223
7216 1 7223 7224
7217 1 7224 7225
7218 1 7225 7226
7219 1 7226 7227
7220 1 7227 7228
7221 1 7228 7229
7222 1 7229 7230
7223 1 7230 7231
7224 1 7231 7232
7225 1 7232 7233
7226 1 7233 7234
7227 1 7234 7235
7228 1 7235 7236
7229 1 7236 7237
7230 1 7237 7238
7231 1 7238 7239
7232 1 7239 7240
7233 1 7240 7241
7234 1 7241 7242
7235 1 7242 7243
7236 1 7243 7244
7237 1 7244 7245
7238 1 7245 7246
7239 1 7246 7247
7240 1 7247 7248
7241 1 7248 7249
7242 1 7249 7250
7243 1 7250 7251
7244 1 7251 7252
7245 1 7252 7253
7246 1 7253 7254
7247 1 7254 7255
7248 1 7255 7256
7249 1 7256 7257
7250 1 7257 7258
7251 1 7258 7259
7252 1 7259 7260
7253 1 7260 7261
7254 1 7261 7262
7255 1 7262 7263
7256 1 7263 7264
7257 1 7264 7265
7258 1 7265 7266
7259 1 7266 7267
7260 1 7267 7268
7261 1 7268 7269
7262 1 7269 7270
7263 1 7270 7271
7264 1 7271 7272
7265 1 7272 7273
7266 1 7273 7274
7267 1 7274 7275
7268 1 7275 7276
7269 1 7276 7277
7270 1 7277 7278
7271 1 7278 7279
7272 1 7279 7280
7273 1 7280 7281
7274 1 7281 7282
7275 1 7282 7283
7276 1 7283 7284
7277 1 7284 7285
7278 1 7285 7286
7279 1 7286 7287
7280 1 7287 7288
7281 1 7288 7289
7282 1 7289 7290
7283 1 7290 7291
7284 1 7291 7292
7285 1 7292 7293
7286 1 7293 7294
7287 1 7294 7295
7288 1 7295 7296
7289 1 7296 7297
7290 1 7297 7298
7291 1 7298 7299
7292 1 7299 7300
7293 1 7300 7301
7294 1 7301 7302
7295 1 7302 7303
7296 1 7303 7304
7297 1 7304 7305
7298 1 7305 7306
7299 1 7306 7307
7300 1 7307 7308
7301 1 7308 7309
7302 1 7309 7310
7303 1 7310 7311
7304 1 7311 7312
7305 1 7312 7313
7306 1 7313 7314
7307 1 7314 7315
7308 1 7315 7316
7309 1 7316 7317
7310 1 7317 7318
7311 1 7318 7319
7312 1 7319 7320
7313 1 7320 7321
7314 1 7321 7322
7315 1 7322 7323
7316 1 7323 7324
7317 1 7324 7325
7318 1 7325 7326
7319 1 7326 7327
7320 1 7327 7328
7321 1 7328 7329
7322 1 7329 7330
7323 1 7330 7331
7324 1 7331 7332
7325 1 7332 7333
7326 1 7333 7334
7327 1 7334 7335
7328 1 7335 7336
7329 1 7336 7337
7330 1 7337 7338
7331 1 7338 7339
7332 1 7339 7340
7333 1 7340 7341
7334 1 7341 7342
7335 1 7342 7343
7336 1 7343 7344
7337 1 7344 7345
7338 1 7345 7346
7339 1 7346 7347
7340 1 7347 7348
7341 1 7348 7349
7342 1 7349 7350
7343 1 7350 7351
7344 1 7351 7352
7345 1 7352 7353
7346 1 7353 7354
7347 1 7354 7355
7348 1 7355 7356
7349 1 7356 7357
7350 1 7357 7358
7351 1 7358 7359
7352 1 7359 7360
7353 1 7360 7361
7354 1 7361 7362
7355 1 7362 7363
7356 1 7363 7364
7357 1 7364 7365
7358 1 7365 7366
7359 1 7366 7367
7360 1 7367 7368
7361 1 7368 7369
7362 1 7369 7370
7363 1 7370 7371
7364 1 7371 7372
7365 1 7372 7373
7366 1 7373 7374
7367 1 7374 7375
7368 1 7375 7376
7369 1 7376 7377
7370 1 7377 7378
7371 1 7378 7379
7372 1 7379 7380
7373 1 7380 7381
7374 1 7381 7382
7375 1 7382 7383
7376 1 7383 7384
7377 1 7384 7385
7378 1 7385 7386
7379 1 7386 7387
7380 1 7387 7388
7381 1 7388 7389
7382 1 7389 7390
7383 1 7390 7391
7384 1 7391 7392
7385 1 7392 7393
7386 1 7393 7394
7387 1 7394 7395
7388 1 7395 7396
7389 1 7396 7397
7390 1 7397 7398
7391 1 7398 7399
7392 1 7399 7400
7393 1 7400 7401
7394 1 7401 7402
7395 1 7402 7403
7396 1 7403 7404
7397 1 7404 7405
7398 1 7405 7406
7399 1 7406 7407
7400 1 7407 7408
7401 1 7408 7409
7402 1 7409 7410
7403 1 7410 7411
7404 1 7411 7412
7405 1 7412 7413
7406 1 7413 7414
7407 1 7414 7415
7408 1 7415 7416
7409 1 7416 7417
7410 1 7417 7418
7411 1 7418 7419
7412 1 7419 7420
7413 1 7420 7421
7414 1 7421 7422
7415 1 7422 7423
7416 1 7423 7424
7417 1 7424 7425
7418 1 7425 7426
7419 1 7426 7427
7420 1 7427 7428
7421 1 7428 7429
7422 1 7429 7430
7423 1 7430 7431
7424 1 7431 7432
7425 1 7432 7433
7426 1 7433 7434
7427 1 7434 7435
7428 1 7435 7436
7429 1 7436 7437
7430 1 7437 7438
7431 1 7438 7439
7432 1 7439 7440
7433 1 7440 7441
7434 1 7441 7442
7435 1 7442 7443
7436 1 7443 7444
7437 1 7444 7445
7438 1 7445 7446
7439 1 7446 7447
7440 1 7447 7448
7441 1 7448 7449
7442 1 7449 7450
7443 1 7450 7451
7444 1 7451 7452
7445 1 7452 7453
7446 1 7453 7454
7447 1 7454 7455
7448 1 7455 7456
7449 1 7456 7457
7450 1 7457 7458
7451 1 7458 7459
7452 1 7459 7460
7453 1 7460 7461
7454 1 7461 7462
7455 1 7462 7463
7456 1 7463 7464
7457 1 7464 7465
7458 1 7465 7466
7459 1 7466 7467
7460 1 7467 7468
7461 1 7468 7469
7462 1 7469 7470
7463 1 7470 7471
7464 1 7471 7472
7465 1 7472 7473
7466 1 7473 7474
7467 1 7474 7475
7468 1 7475 7476
7469 1 7476 7477
7470 1 7477 7478
7471 1 7478 7479
7472 1 7479 7480
7473 1 7480 7481
7474 1 7481 7482
7475 1 7482 7483
7476 1 7483 7484
7477 1 7484 7485
7478 1 7485 7486
7479 1 7486 7487
7480 1 7487 7488
7481 1 7488 7489
7482 1 7489 7490
7483 1 7490 7491
7484 1 7491 7492
7485 1 7492 7493
7486 1 7493 7494
7487 1 7494 7495
7488 1 7495 7496
7489 1 7496 7497
7490 1 7497 7498
7491 1 7498 7499
7492 1 7499 7500
7493 1 7500 7501
7494 1 7501 7502
7495 1 7502 7503
7496 1 7503 7504
7497 1 7504 7505
7498 1 7505 7506
7499 1 7506 7507
7500 1 7507 7508
7501 1 7508 7509
7502 1 7509 7510
7503 1 7510 7511
7504 1 7511 7512
7505 1 7512 7513
7506 1 7513 7514
7507 1 7514 7515
7508 1 7515 7516
7509 1 7516 7517
7510 1 7517 7518
7511 1 7518 7519
7512 1 7519 7520
7513 1 7520 7521
7514 1 7521 7522
7515 1 7522 7523
7516 1 7523 7524
7517 1 7524 7525
7518 1 7525 7526
7519 1 7526 7527
7520 1 7527 7528
7521 1 7528 7529
7522 1 7529 7530
7523 1 7530 7531
7524 1 7531 7532
7525 1 7532 7533
7526 1 7533 7534
7527 1 7534 7535
7528 1 7535 7536
7529 1 7536 7537
7530 1 7537 7538
7531 1 7538 7539
7532 1 7539 7540
7533 1 7540 7541
7534 1 7541 7542
7535 1 7542 7543
7536 1 7543 7544
7537 1 7544 7545
7538 1 7545 7546
7539 1 7546 7547
7540 1 7547 7548
7541 1 7548 7549
7542 1 7549 7550
7543 1 7550 7551
7544 1 7551 7552
7545 1 7552 7553
7546 1 7553 7554
7547 1 7554 7555
7548 1 7555 7556
7549 1 7556 7557
7550 1 7557 7558
7551 1 7558 7559
7552 1 7559 7560
7553 1 7560 7561
7554 1 7561 7562
7555 1 7562 7563
7556 1 7563 7564
7557 1 7564 7565
7558 1 7565 7566
7559 1 7566 7567
7560 1 7567 7568
7561 1 7568 7569
7562 1 7569 7570
7563 1 7570 7571
7564 1 7571 7572
7565 1 7572 7573
7566 1 7573 7574
7567 1 7574 7575
7568 1 7575 7576
7569 1 7576 7577
7570 1 7577 7578
7571 1 7578 7579
7572 1 7579 7580
7573 1 7580 7581
7574 1 7581 7582
7575 1 7582 7583
7576 1 7583 7584
7577 1 7584 7585
7578 1 7585 7586
7579 1 7586 7587
7580 1 7587 7588
7581 1 7588 7589
7582 1 7589 7590
7583 1 7590 7591
7584 1 7591 7592
7585 1 7592 7593
7586 1 7593 7594
7587 1 7594 7595
7588 1 7595 7596
7589 1 7596 7597
7590 1 7597 7598
7591 1 7598 7599
7592 1 7599 7600
7593 1 7600 7601
7594 1 7601 7602
7595 1 7602 7603
7596 1 7603 7604
7597 1 7604 7605
7598 1 7605 7606
7599 1 7606 7607
7600 1 7607 7608
7601 1 7608 7609
7602 1 7609 7610
7603 1 7610 7611
7604 1 7611 7612
7605 1 7612 7613
7606 1 7613 7614
7607 1 7614 7615
7608 1 7615 7616
7609 1 7616 7617
7610 1 7617 7618
7611 1 7618 7619
7612 1 7619 7620
7613 1 7620 7621
7614 1 7621 7622
7615 1 7622 7623
7616 1 7623 7624
7617 1 7624 7625
7618 1 7625 7626
7619 1 7626 7627
7620 1 7627 7628
7621 1 7628 7629
7622 1 7629 7630
7623 1 7630 7631
7624 1 7631 7632
7625 1 7632 7633
7626 1 7633 7634
7627 1 7634 7635
7628 1 7635 7636
7629 1 7636 7637
7630 1 7637 7638
7631 1 7638 7639
7632 1 7639 7640
7633 1 7640 7641
7634 1 7641 7642
7635 1 7642 7643
7636 1 7643 7644
7637 1 7644 7645
7638 1 7645 7646
7639 1 7646 7647
7640 1 7647 7648
7641 1 7648 7649
7642 1 7649 7650
7643 1 7650 7651
7644 1 7651 7652
7645 1 7652 7653
7646 1 7653 7654
7647 1 7654 7655
7648 1 7655 7656
7649 1 7656 7657
7650 1 7657 7658
7651 1 7658 7659
7652 1 7659 7660
7653 1 7660 7661
7654 1 7661 7662
7655 1 7662 7663
7656 1 7663 7664
7657 1 7664 7665
7658 1 7665 7666
7659 1 7666 7667
7660 1 7667 7668
7661 1 7668 7669
7662 1 7669 7670
7663 1 7670 7671
7664 1 7671 7672
7665 1 7672 7673
7666 1 7673 7674
7667 1 7674 7675
7668 1 7675 7676
7669 1 7676 7677
7670 1 7677 7678
7671 1 7678 7679
7672 1 7679 7680
7673 1 7680 7681
7674 1 7681 7682
7675 1 7682 7683
7676 1 7683 7684
7677 1 7684 7685
7678 1 7685 7686
7679 1 7686 7687
7680 1 7687 7688
7681 1 7688 7689
7682 1 7689 7690
7683 1 7690 7691
7684 1 7691 7692
7685 1 7692 7693
7686 1 7693 7694
7687 1 7694 7695
7688 1 7695 7696
7689 1 7696 7697
7690 1 7697 7698
7691 1 7698 7699
7692 1 7699 7700
7693 1 7700 7701
7694 1 7701 7702
7695 1 7702 7703
7696 1 7703 7704
7697 1 7704 7705
7698 1 7705 7706
7699 1 7706 7707
7700 1 7707 7708
7701 1 7708 7709
7702 1 7709 7710
7703 1 7710 7711
7704 1 7711 7712
7705 1 7712 7713
7706 1 7713 7714
7707 1 7714 7715
7708 1 7715 7716
7709 1 7716 7717
7710 1 7717 7718
7711 1 7718 7719
7712 1 7719 7720
7713 1 7720 7721
7714 1 7721 7722
7715 1 7722 7723
7716 1 7723 7724
7717 1 7724 7725
7718 1 7725 7726
7719 1 7726 7727
7720 1 7727 7728
7721 1 7728 7729
7722 1 7729 7730
7723 1 7730 7731
7724 1 7731 7732
7725 1 7732 7733
7726 1 7733 7734
7727 1 7734 7735
7728 1 7735 7736
7729 1 7736 7737
7730 1 7737 7738
7731 1 7738 7739
7732 1 7739 7740
7733 1 7740 7741
7734 1 7741 7742
7735 1 7742 7743
7736 1 7743 7744
7737 1 7744 7745
7738 1 7745 7746
7739 1 7746 7747
7740 1 7747 7748
7741 1 7748 7749
7742 1 7749 7750
7743 1 7750 7751
7744 1 7751 7752
7745 1 7752 7753
7746 1 7753 7754
7747 1 7754 7755
7748 1 7755 7756
7749 1 7756 7757
7750 1 7757 7758
7751 1 7758 7759
7752 1 7759 7760
7753 1 7760 7761
7754 1 7761 7762
7755 1 7762 7763
7756 1 7763 7764
7757 1 7764 7765
7758 1 7765 7766
7759 1 7766 7767
7760 1 7767 7768
7761 1 7768 7769
7762 1 7769 7770
7763 1 7770 7771
7764 1 7771 7772
7765 1 7772 7773
7766 1 7773 7774
7767 1 7774 7775
7768 1 7775 7776
7769 1 7776 7777
7770 1 7777 7778
7771 1 7778 7779
7772 1 7779 7780
7773 1 7780 7781
7774 1 7781 7782
7775 1 7782 7783
7776 1 7783 7784
7777 1 7784 7785
7778 1 7785 7786
7779 1 7786 7787
7780 1 7787 7788
7781 1 7788 7789
7782 1 7789 7790
7783 1 7790 7791
7784 1 7791 7792
7785 1 7792 7793
7786 1 7793 7794
7787 1 7794 7795
7788 1 7795 7796
7789 1 7796 7797
7790 1 7797 7798
7791 1 7798 7799
7792 1 7799 7800
7793 1 7800 7801
7794 1 7801 7802
7795 1 7802 7803
7796 1 7803 7804
7797 1 7804 7805
7798 1 7805 7806
7799 1 7806 7807
7800 1 7807 7808
7801 1 7808 7809
7802 1 7809 7810
7803 1 7810 7811
7804 1 7811 7812
7805 1 7812 7813
7806 1 7813 7814
7807 1 7814 7815
7808 1 7815 7816
7809 1 7816 7817
7810 1 7817 7818
7811 1 7818 7819
7812 1 7819 7820
7813 1 7820 7821
7814 1 7821 7822
7815 1 7822 7823
7816 1 7823 7824
7817 1 7824 7825
7818 1 7825 7826
7819 1 7826 7827
7820 1 7827 7828
7821 1 7828 7829
7822 1 7829 7830
7823 1 7830 7831
7824 1 7831 7832
7825 1 7832 7833
7826 1 7833 7834
7827 1 7834 7835
7828 1 7835 7836
7829 1 7836 7837
7830 1 7837 7838
7831 1 7838 7839
7832 1 7839 7840
7833 1 7840 7841
7834 1 7841 7842
7835 1 7842 7843
7836 1 7843 7844
7837 1 7844 7845
7838 1 7845 7846
7839 1 7846 7847
7840 1 7847 7848
7841 1 7848 7849
7842 1 7849 7850
7843 1 7850 7851
7844 1 7851 7852
7845 1 7852 7853
7846 1 7853 7854
7847 1 7854 7855
7848 1 7855 7856
7849 1 7856 7857
7850 1 7857 7858
7851 1 7858 7859
7852 1 7859 7860
7853 1 7860 7861
7854 1 7861 7862
7855 1 7862 7863
7856 1 7863 7864
7857 1 7864 7865
7858 1 7865 7866
7859 1 7866 7867
7860 1 7867 7868
7861 1 7868 7869
7862 1 7869 7870
7863 1 7870 7871
7864 1 7871 7872
7865 1 7872 7873
7866 1 7873 7874
7867 1 7874 7875
7868 1 7875 7876
7869 1 7876 7877
7870 1 7877 7878
7871 1 7878 7879
7872 1 7879 7880
7873 1 7880 7881
7874 1 7881 7882
7875 1 7882 7883
7876 1 7883 7884
7877 1 7884 7885
7878 1 7885 7886
7879 1 7886 7887
7880 1 7887 7888
7881 1 7888 7889
7882 1 7889 7890
7883 1 7890 7891
7884 1 7891 7892
7885 1 7892 7893
7886 1 7893 7894
7887 1 7894 7895
7888 1 7895 7896
7889 1 7896 7897
7890 1 7897 7898
7891 1 7898 7899
7892 1 7899 7900
7893 1 7900 7901
7894 1 7901 7902
7895 1 7902 7903
7896 1 7903 7904
7897 1 7904 7905
7898 1 7905 7906
7899 1 7906 7907
7900 1 7907 7908
7901 1 7908 7909
7902 1 7909 7910
7903 1 7910 7911
7904 1 7911 7912
7905 1 7912 7913
7906 1 7913 7914
7907 1 7914 7915
7908 1 7915 7916
7909 1 7916 7917
7910 1 7917 7918
7911 1 7918 7919
7912 1 7919 7920
7913 1 7920 7921
7914 1 7921 7922
7915 1 7922 7923
7916 1 7923 7924
7917 1 7924 7925
7918 1 7925 7926
7919 1 7926 7927
7920 1 7927 7928
7921 1 7928 7929
7922 1 7929 7930
7923 1 7930 7931
7924 1 7931 7932
7925 1 7932 7933
7926 1 7933 7934
7927 1 7934 7935
7928 1 7935 7936
7929 1 7936 7937
7930 1 7937 7938
7931 1 7938 7939
7932 1 7939 7940
7933 1 7940 7941
7934 1 7941 7942
7935 1 7942 7943
7936 1 7943 7944
7937 1 7944 7945
7938 1 7945 7946
7939 1 7946 7947
7940 1 7947 7948
7941 1 7948 7949
7942 1 7949 7950
7943 1 7950 7951
7944 1 7951 7952
7945 1 7952 7953
7946 1 7953 7954
7947 1 7954 7955
7948 1 7955 7956
7949 1 7956 7957
7950 1 7957 7958
7951 1 7958 7959
7952 1 7959 7960
7953 1 7960 7961
7954 1 7961 7962
7955 1 7962 7963
7956 1 7963 7964
7957 1 7964 7965
7958 1 7965 7966
7959 1 7966 7967
7960 1 7967 7968
7961 1 7968 7969
7962 1 7969 7970
7963 1 7970 7971
7964 1 7971 7972
7965 1 7972 7973
7966 1 7973 7974
7967 1 7974 7975
7968 1 7975 7976
7969 1 7976 7977
7970 1 7977 7978
7971 1 7978 7979
7972 1 7979 7980
7973 1 7980 7981
7974 1 7981 7982
7975 1 7982 7983
7976 1 7983 7984
7977 1 7984 7985
7978 1 7985 7986
7979 1 7986 7987
7980 1 7987 7988
7981 1 7988 7989
7982 1 7989 7990
7983 1 7990 7991
7984 1 7991 7992
7985 1 7992 7993
7986 1 7993 7994
7987 1 7994 7995
7988 1 7995 7996
7989 1 7996 7997
7990 1 7997 7998
7991 1 7998 7999
7992 1 7999 8000
7993 1 8001 8002
7994 1 8002 8003
7995 1 8003 8004
7996 1 8004 8005
7997 1 8005 8006
7998 1 8006 8007
7999 1 8007 8008
8000 1 8008 8009
8001 1 8009 8010
8002 1 8010 8011
8003 1 8011 8012
8004 1 8012 8013
8005 1 8013 8014
8006 1 8014 8015
8007 1 8015 8016
8008 1 8016 8017
8009 1 8017 8018
8010 1 8018 8019
8011 1 8019 8020
8012 1 8020 8021
8013 1 8021 8022
8014 1 8022 8023
8015 1 8023 8024
8016 1 8024 8025
8017 1 8025 8026
8018 1 8026 8027
8019 1 8027 8028
8020 1 8028 8029
8021 1 8029 8030
8022 1 8030 8031
8023 1 8031 8032
8024 1 8032 8033
8025 1 8033 8034
8026 1 8034 8035
8027 1 8035 8036
8028 1 8036 8037
8029 1 8037 8038
8030 1 8038 8039
8031 1 8039 8040
8032 1 8040 8041
8033 1 8041 8042
8034 1 8042 8043
8035 1 8043 8044
8036 1 8044 8045
8037 1 8045 8046
8038 1 8046 8047
8039 1 8047 8048
8040 1 8048 8049
8041 1 8049 8050
8042 1 8050 8051
8043 1 8051 8052
8044 1 8052 8053
8045 1 8053 8054
8046 1 8054 8055
8047 1 8055 8056
8048 1 8056 8057
8049 1 8057 8058
8050 1 8058 8059
8051 1 8059 8060
8052 1 8060 8061
8053 1 8061 8062
8054 1 8062 8063
8055 1 8063 8064
8056 1 8064 8065
8057 1 8065 8066
8058 1 8066 8067
8059 1 8067 8068
8060 1 8068 8069
8061 1 8069 8070
8062 1 8070 8071
8063 1 8071 8072
8064 1 8072 8073
8065 1 8073 8074
8066 1 8074 8075
8067 1 8075 8076
8068 1 8076 8077
8069 1 8077 8078
8070 1 8078 8079
8071 1 8079 8080
8072 1 8080 8081
8073 1 8081 8082
8074 1 8082 8083
8075 1 8083 8084
8076 1 8084 8085
8077 1 8085 8086
8078 1 8086 8087
8079 1 8087 8088
8080 1 8088 8089
8081 1 8089 8090
8082 1 8090 8091
8083 1 8091 8092
8084 1 8092 8093
8085 1 8093 8094
8086 1 8094 8095
8087 1 8095 8096
8088 1 8096 8097
8089 1 8097 8098
8090 1 8098 8099
8091 1 8099 8100
8092 1 8100 8101
8093 1 8101 8102
8094 1 8102 8103
8095 1 8103 8104
8096 1 8104 8105
8097 1 8105 8106
8098 1 8106 8107
8099 1 8107 8108
8100 1 8108 8109
8101 1 8109 8110
8102 1 8110 8111
8103 1 8111 8112
8104 1 8112 8113
8105 1 8113 8114
8106 1 8114 8115
8107 1 8115 8116
8108 1 8116 8117
8109 1 8117 8118
8110 1 8118 8119
8111 1 8119 8120
8112 1 8120 8121
8113 1 8121 8122
8114 1 8122 8123
8115 1 8123 8124
8116 1 8124 8125
8117 1 8125 8126
8118 1 8126 8127
8119 1 8127 8128
8120 1 8128 8129
8121 1 8129 8130
8122 1 8130 8131
8123 1 8131 8132
8124 1 8132 8133
8125 1 8133 8134
8126 1 8134 8135
8127 1 8135 8136
8128 1 8136 8137
8129 1 8137 8138
8130 1 8138 8139
8131 1 8139 8140
8132 1 8140 8141
8133 1 8141 8142
8134 1 8142 8143
8135 1 8143 8144
8136 1 8144 8145
8137 1 8145 8146
8138 1 8146 8147
8139 1 8147 8148
8140 1 8148 8149
8141 1 8149 8150
8142 1 8150 8151
8143 1 8151 8152
8144 1 8152 8153
8145 1 8153 8154
8146 1 8154 8155
8147 1 8155 8156
8148 1 8156 8157
8149 1 8157 8158
8150 1 8158 8159
8151 1 8159 8160
8152 1 8160 8161
8153 1 8161 8162
8154 1 8162 8163
8155 1 8163 8164
8156 1 8164 8165
8157 1 8165 8166
8158 1 8166 8167
8159 1 8167 8168
8160 1 8168 8169
8161 1 8169 8170
8162 1 8170 8171
8163 1 8171 8172
8164 1 8172 8173
8165 1 8173 8174
8166 1 8174 8175
8167 1 8175 8176
8168 1 8176 8177
8169 1 8177 8178
8170 1 8178 8179
8171 1 8179 8180
8172 1 8180 8181
8173 1 8181 8182
8174 1 8182 8183
8175 1 8183 8184
8176 1 8184 8185
8177 1 8185 8186
8178 1 8186 8187
8179 1 8187 8188
8180 1 8188 8189
8181 1 8189 8190
8182 1 8190 8191
8183 1 8191 8192
8184 1 8192 8193
8185 1 8193 8194
8186 1 8194 8195
8187 1 8195 8196
8188 1 8196 8197
8189 1 8197 8198
8190 1 8198 8199
8191 1 8199 8200
8192 1 8200 8201
8193 1 8201 8202
8194 1 8202 8203
8195 1 8203 8204
8196 1 8204 8205
8197 1 8205 8206
8198 1 8206 8207
8199 1 8207 8208
8200 1 8208 8209
8201 1 8209 8210
8202 1 8210 8211
8203 1 8211 8212
8204 1 8212 8213
8205 1 8213 8214
8206 1 8214 8215
8207 1 8215 8216
8208 1 8216 8217
8209 1 8217 8218
8210 1 8218 8219
8211 1 8219 8220
8212 1 8220 8221
8213 1 8221 8222
8214 1 8222 8223
8215 1 8223 8224
8216 1 8224 8225
8217 1 8225 8226
8218 1 8226 8227
8219 1 8227 8228
8220 1 8228 8229
8221 1 8229 8230
8222 1 8230 8231
8223 1 8231 8232
8224 1 8232 8233
8225 1 8233 8234
8226 1 8234 8235
8227 1 8235 8236
8228 1 8236 8237
8229 1 8237 8238
8230 1 8238 8239
8231 1 8239 8240
8232 1 8240 8241
8233 1 8241 8242
8234 1 8242 8243
8235 1 8243 8244
8236 1 8244 8245
8237 1 8245 8246
8238 1 8246 8247
8239 1 8247 8248
8240 1 8248 8249
8241 1 8249 8250
8242 1 8250 8251
8243 1 8251 8252
8244 1 8252 8253
8245 1 8253 8254
8246 1 8254 8255
8247 1 8255 8256
8248 1 8256 8257
8249 1 8257 8258
8250 1 8258 8259
8251 1 8259 8260
8252 1 8260 8261
8253 1 8261 8262
8254 1 8262 8263
8255 1 8263 8264
8256 1 8264 8265
8257 1 8265 8266
8258 1 8266 8267
8259 1 8267 8268
8260 1 8268 8269
8261 1 8269 8270
8262 1 8270 8271
8263 1 8271 8272
8264 1 8272 8273
8265 1 8273 8274
8266 1 8274 8275
8267 1 8275 8276
8268 1 8276 8277
8269 1 8277 8278
8270 1 8278 8279
8271 1 8279 8280
8272 1 8280 8281
8273 1 8281 8282
8274 1 8282 8283
8275 1 8283 8284
8276 1 8284 8285
8277 1 8285 8286
8278 1 8286 8287
8279 1 8287 8288
8280 1 8288 8289
8281 1 8289 8290
8282 1 8290 8291
8283 1 8291 8292
8284 1 8292 8293
8285 1 8293 8294
8286 1 8294 8295
8287 1 8295 8296
8288 1 8296 8297
8289 1 8297 8298
8290 1 8298 8299
8291 1 8299 8300
8292 1 8300 8301
8293 1 8301 8302
8294 1 8302 8303
8295 1 8303 8304
8296 1 8304 8305
8297 1 8305 8306
8298 1 8306 8307
8299 1 8307 8308
8300 1 8308 8309
8301 1 8309 8310
8302 1 8310 8311
8303 1 8311 8312
8304 1 8312 8313
8305 1 8313 8314
8306 1 8314 8315
8307 1 8315 8316
8308 1 8316 8317
8309 1 8317 8318
8310 1 8318 8319
8311 1 8319 8320
8312 1 8320 8321
8313 1 8321 8322
8314 1 8322 8323
8315 1 8323 8324
8316 1 8324 8325
8317 1 8325 8326
8318 1 8326 8327
8319 1 8327 8328
8320 1 8328 8329
8321 1 8329 8330
8322 1 8330 8331
8323 1 8331 8332
8324 1 8332 8333
8325 1 8333 8334
8326 1 8334 8335
8327 1 8335 8336
8328 1 8336 8337
8329 1 8337 8338
8330 1 8338 8339
8331 1 8339 8340
8332 1 8340 8341
8333 1 8341 8342
8334 1 8342 8343
8335 1 8343 8344
8336 1 8344 8345
8337 1 8345 8346
8338 1 8346 8347
8339 1 8347 8348
8340 1 8348 8349
8341 1 8349 8350
8342 1 8350 8351
8343 1 8351 8352
8344 1 8352 8353
8345 1 8353 8354
8346 1 8354 8355
8347 1 8355 8356
8348 1 8356 8357
8349 1 8357 8358
8350 1 8358 8359
8351 1 8359 8360
8352 1 8360 8361
8353 1 8361 8362
8354 1 8362 8363
8355 1 8363 8364
8356 1 8364 8365
8357 1 8365 8366
8358 1 8366 8367
8359 1 8367 8368
8360 1 8368 8369
8361 1 8369 8370
8362 1 8370 8371
8363 1 8371 8372
8364 1 8372 8373
8365 1 8373 8374
8366 1 8374 8375
8367 1 8375 8376
8368 1 8376 8377
8369 1 8377 8378
8370 1 8378 8379
8371 1 8379 8380
8372 1 8380 8381
8373 1 8381 8382
8374 1 8382 8383
8375 1 8383 8384
8376 1 8384 8385
8377 1 8385 8386
8378 1 8386 8387
8379 1 8387 8388
8380 1 8388 8389
8381 1 8389 8390
8382 1 8390 8391
8383 1 8391 8392
8384 1 8392 8393
8385 1 8393 8394
8386 1 8394 8395
8387 1 8395 8396
8388 1 8396 8397
8389 1 8397 8398
8390 1 8398 8399
8391 1 8399 8400
8392 1 8400 8401
8393 1 8401 8402
8394 1 8402 8403
8395 1 8403 8404
8396 1 8404 8405
8397 1 8405 8406
8398 1 8406 8407
8399 1 8407 8408
8400 1 8408 8409
8401 1 8409 8410
8402 1 8410 8411
8403 1 8411 8412
8404 1 8412 8413
8405 1 8413 8414
8406 1 8414 8415
8407 1 8415 8416
8408 1 8416 8417
8409 1 8417 8418
8410 1 8418 8419
8411 1 8419 8420
8412 1 8420 8421
8413 1 8421 8422
8414 1 8422 8423
8415 1 8423 8424
8416 1 8424 8425
8417 1 8425 8426
8418 1 8426 8427
8419 1 8427 8428
8420 1 8428 8429
8421 1 8429 8430
8422 1 8430 8431
8423 1 8431 8432
8424 1 8432 8433
8425 1 8433 8434
8426 1 8434 8435
8427 1 8435 8436
8428 1 8436 8437
8429 1 8437 8438
8430 1 8438 8439
8431 1 8439 8440
8432 1 8440 8441
8433 1 8441 8442
8434 1 8442 8443
8435 1 8443 8444
8436 1 8444 8445
8437 1 8445 8446
8438 1 8446 8447
8439 1 8447 8448
8440 1 8448 8449
8441 1 8449 8450
8442 1 8450 8451
8443 1 8451 8452
8444 1 8452 8453
8445 1 8453 8454
8446 1 8454 8455
8447 1 8455 8456
8448 1 8456 8457
8449 1 8457 8458
8450 1 8458 8459
8451 1 8459 8460
8452 1 8460 8461
8453 1 8461 8462
8454 1 8462 8463
8455 1 8463 8464
8456 1 8464 8465
8457 1 8465 8466
8458 1 8466 8467
8459 1 8467 8468
8460 1 8468 8469
8461 1 8469 8470
8462 1 8470 8471
8463 1 8471 8472
8464 1 8472 8473
8465 1 8473 8474
8466 1 8474 8475
8467 1 8475 8476
8468 1 8476 8477
8469 1 8477 8478
8470 1 8478 8479
8471 1 8479 8480
8472 1 8480 8481
8473 1 8481 8482
8474 1 8482 8483
8475 1 8483 8484
8476 1 8484 8485
8477 1 8485 8486
8478 1 8486 8487
8479 1 8487 8488
8480 1 8488 8489
8481 1 8489 8490
8482 1 8490 8491
8483 1 8491 8492
8484 1 8492 8493
8485 1 8493 8494
8486 1 8494 8495
8487 1 8495 8496
8488 1 8496 8497
8489 1 8497 8498
8490 1 8498 8499
8491 1 8499 8500
8492 1 8500 8501
8493 1 8501 8502
8494 1 8502 8503
8495 1 8503 8504
8496 1 8504 8505
8497 1 8505 8506
8498 1 8506 8507
8499 1 8507 8508
8500 1 8508 8509
8501 1 8509 8510
8502 1 8510 8511
8503 1 8511 8512
8504 1 8512 8513
8505 1 8513 8514
8506 1 8514 8515
8507 1 8515 8516
8508 1 8516 8517
8509 1 8517 8518
8510 1 8518 8519
8511 1 8519 8520
8512 1 8520 8521
8513 1 8521 8522
8514 1 8522 8523
8515 1 8523 8524
8516 1 8524 8525
8517 1 8525 8526
8518 1 8526 8527
8519 1 8527 8528
8520 1 8528 8529
8521 1 8529 8530
8522 1 8530 8531
8523 1 8531 8532
8524 1 8532 8533
8525 1 8533 8534
8526 1 8534 8535
8527 1 8535 8536
8528 1 8536 8537
8529 1 8537 8538
8530 1 8538 8539
8531 1 8539 8540
8532 1 8540 8541
8533 1 8541 8542
8534 1 8542 8543
8535 1 8543 8544
8536 1 8544 8545
8537 1 8545 8546
8538 1 8546 8547
8539 1 8547 8548
8540 1 8548 8549
8541 1 8549 8550
8542 1 8550 8551
8543 1 8551 8552
8544 1 8552 8553
8545 1 8553 8554
8546 1 8554 8555
8547 1 8555 8556
8548 1 8556 8557
8549 1 8557 8558
8550 1 8558 8559
8551 1 8559 8560
8552 1 8560 8561
8553 1 8561 8562
8554 1 8562 8563
8555 1 8563 8564
8556 1 8564 8565
8557 1 8565 8566
8558 1 8566 8567
8559 1 8567 8568
8560 1 8568 8569
8561 1 8569 8570
8562 1 8570 8571
8563 1 8571 8572
8564 1 8572 8573
8565 1 8573 8574
8566 1 8574 8575
8567 1 8575 8576
8568 1 8576 8577
8569 1 8577 8578
8570 1 8578 8579
8571 1 8579 8580
8572 1 8580 8581
8573 1 8581 8582
8574 1 8582 8583
8575 1 8583 8584
8576 1 8584 8585
8577 1 8585 8586
8578 1 8586 8587
8579 1 8587 8588
8580 1 8588 8589
8581 1 8589 8590
8582 1 8590 8591
8583 1 8591 8592
8584 1 8592 8593
8585 1 8593 8594
8586 1 8594 8595
8587 1 8595 8596
8588 1 8596 8597
8589 1 8597 8598
8590 1 8598 8599
8591 1 8599 8600
8592 1 8600 8601
8593 1 8601 8602
8594 1 8602 8603
8595 1 8603 8604
8596 1 8604 8605
8597 1 8605 8606
8598 1 8606 8607
8599 1 8607 8608
8600 1 8608 8609
8601 1 8609 8610
8602 1 8610 8611
8603 1 8611 8612
8604 1 8612 8613
8605 1 8613 8614
8606 1 8614 8615
8607 1 8615 8616
8608 1 8616 8617
8609 1 8617 8618
8610 1 8618 8619
8611 1 8619 8620
8612 1 8620 8621
8613 1 8621 8622
8614 1 8622 8623
8615 1 8623 8624
8616 1 8624 8625
8617 1 8625 8626
8618 1 8626 8627
8619 1 8627 8628
8620 1 8628 8629
8621 1 8629 8630
8622 1 8630 8631
8623 1 8631 8632
8624 1 8632 8633
8625 1 8633 8634
8626 1 8634 8635
8627 1 8635 8636
8628 1 8636 8637
8629 1 8637 8638
8630 1 8638 8639
8631 1 8639 8640
8632 1 8640 8641
8633 1 8641 8642
8634 1 8642 8643
8635 1 8643 8644
8636 1 8644 8645
8637 1 8645 8646
8638 1 8646 8647
8639 1 8647 8648
8640 1 8648 8649
8641 1 8649 8650
8642 1 8650 8651
8643 1 8651 8652
8644 1 8652 8653
8645 1 8653 8654
8646 1 8654 8655
8647 1 8655 8656
8648 1 8656 8657
8649 1 8657 8658
8650 1 8658 8659
8651 1 8659 8660
8652 1 8660 8661
8653 1 8661 8662
8654 1 8662 8663
8655 1 8663 8664
8656 1 8664 8665
8657 1 8665 8666
8658 1 8666 8667
8659 1 8667 8668
8660 1 8668 8669
8661 1 8669 8670
8662 1 8670 8671
8663 1 8671 8672
8664 1 8672 8673
8665 1 8673 8674
8666 1 8674 8675
8667 1 8675 8676
8668 1 8676 8677
8669 1 8677 8678
8670 1 8678 8679
8671 1 8679 8680
8672 1 8680 8681
8673 1 8681 8682
8674 1 8682 8683
8675 1 8683 8684
8676 1 8684 8685
8677 1 8685 8686
8678 1 8686 8687
8679 1 8687 8688
8680 1 8688 8689
8681 1 8689 8690
8682 1 8690 8691
8683 1 8691 8692
8684 1 8692 8693
8685 1 8693 8694
8686 1 8694 8695
8687 1 8695 8696
8688 1 8696 8697
8689 1 8697 8698
8690 1 8698 8699
8691 1 8699 8700
8692 1 8700 8701
8693 1 8701 8702
8694 1 8702 8703
8695 1 8703 8704
8696 1 8704 8705
8697 1 8705 8706
8698 1 8706 8707
8699 1 8707 8708
8700 1 8708 8709
8701 1 8709 8710
8702 1 8710 8711
8703 1 8711 8712
8704 1 8712 8713
8705 1 8713 8714
8706 1 8714 8715
8707 1 8715 8716
8708 1 8716 8717
8709 1 8717 8718
8710 1 8718 8719
8711 1 8719 8720
8712 1 8720 8721
8713 1 8721 8722
8714 1 8722 8723
8715 1 8723 8724
8716 1 8724 8725
8717 1 8725 8726
8718 1 8726 8727
8719 1 8727 8728
8720 1 8728 8729
8721 1 8729 8730
8722 1 8730 8731
8723 1 8731 8732
8724 1 8732 8733
8725 1 8733 8734
8726 1 8734 8735
8727 1 8735 8736
8728 1 8736 8737
8729 1 8737 8738
8730 1 8738 8739
8731 1 8739 8740
8732 1 8740 8741
8733 1 8741 8742
8734 1 8742 8743
8735 1 8743 8744
8736 1 8744 8745
8737 1 8745 8746
8738 1 8746 8747
8739 1 8747 8748
8740 1 8748 8749
8741 1 8749 8750
8742 1 8750 8751
8743 1 8751 8752
8744 1 8752 8753
8745 1 8753 8754
8746 1 8754 8755
8747 1 8755 8756
8748 1 8756 8757
8749 1 8757 8758
8750 1 8758 8759
8751 1 8759 8760
8752 1 8760 8761
8753 1 8761 8762
8754 1 8762 8763
8755 1 8763 8764
8756 1 8764 8765
8757 1 8765 8766
8758 1 8766 8767
8759 1 8767 8768
8760 1 8768 8769
8761 1 8769 8770
8762 1 8770 8771
8763 1 8771 8772
8764 1 8772 8773
8765 1 8773 8774
8766 1 8774 8775
8767 1 8775 8776
8768 1 8776 8777
8769 1 8777 8778
8770 1 8778 8779
8771 1 8779 8780
8772 1 8780 8781
8773 1 8781 8782
8774 1 8782 8783
8775 1 8783 8784
8776 1 8784 8785
8777 1 8785 8786
8778 1 8786 8787
8779 1 8787 8788
8780 1 8788 8789
8781 1 8789 8790
8782 1 8790 8791
8783 1 8791 8792
8784 1 8792 8793
8785 1 8793 8794
8786 1 8794 8795
8787 1 8795 8796
8788 1 8796 8797
8789 1 8797 8798
8790 1 8798 8799
8791 1 8799 8800
8792 1 8800 8801
8793 1 8801 8802
8794 1 8802 8803
8795 1 8803 8804
8796 1 8804 8805
8797 1 8805 8806
8798 1 8806 8807
8799 1 8807 8808
8800 1 8808 8809
8801 1 8809 8810
8802 1 8810 8811
8803 1 8811 8812
8804 1 8812 8813
8805 1 8813 8814
8806 1 8814 8815
8807 1 8815 8816
8808 1 8816 8817
8809 1 8817 8818
8810 1 8818 8819
8811 1 8819 8820
8812 1 8820 8821
8813 1 8821 8822
8814 1 8822 8823
8815 1 8823 8824
8816 1 8824 8825
8817 1 8825 8826
8818 1 8826 8827
8819 1 8827 8828
8820 1 8828 8829
8821 1 8829 8830
8822 1 8830 8831
8823 1 8831 8832
8824 1 8832 8833
8825 1 8833 8834
8826 1 8834 8835
8827 1 8835 8836
8828 1 8836 8837
8829 1 8837 8838
8830 1 8838 8839
8831 1 8839 8840
8832 1 8840 8841
8833 1 8841 8842
8834 1 8842 8843
8835 1 8843 8844
8836 1 8844 8845
8837 1 8845 8846
8838 1 8846 8847
8839 1 8847 8848
8840 1 8848 8849
8841 1 8849 8850
8842 1 8850 8851
8843 1 8851 8852
8844 1 8852 8853
8845 1 8853 8854
8846 1 8854 8855
8847 1 8855 8856
8848 1 8856 8857
8849 1 8857 8858
8850 1 8858 8859
8851 1 8859 8860
8852 1 8860 8861
8853 1 8861 8862
8854 1 8862 8863
8855 1 8863 8864
8856 1 8864 8865
8857 1 8865 8866
8858 1 8866 8867
8859 1 8867 8868
8860 1 8868 8869
8861 1 8869 8870
8862 1 8870 8871
8863 1 8871 8872
8864 1 8872 8873
8865 1 8873 8874
8866 1 8874 8875
8867 1 8875 8876
8868 1 8876 8877
8869 1 8877 8878
8870 1 8878 8879
8871 1 8879 8880
8872 1 8880 8881
8873 1 8881 8882
8874 1 8882 8883
8875 1 8883 8884
8876 1 8884 8885
8877 1 8885 8886
8878 1 8886 8887
8879 1 8887 8888
8880 1 8888 8889
8881 1 8889 8890
8882 1 8890 8891
8883 1 8891 8892
8884 1 8892 8893
8885 1 8893 8894
8886 1 8894 8895
8887 1 8895 8896
8888 1 8896 8897
8889 1 8897 8898
8890 1 8898 8899
8891 1 8899 8900
8892 1 8900 8901
8893 1 8901 8902
8894 1 8902 8903
8895 1 8903 8904
8896 1 8904 8905
8897 1 8905 8906
8898 1 8906 8907
8899 1 8907 8908
8900 1 8908 8909
8901 1 8909 8910
8902 1 8910 8911
8903 1 8911 8912
8904 1 8912 8913
8905 1 8913 8914
8906 1 8914 8915
8907 1 8915 8916
8908 1 8916 8917
8909 1 8917 8918
8910 1 8918 8919
8911 1 8919 8920
8912 1 8920 8921
8913 1 8921 8922
8914 1 8922 8923
8915 1 8923 8924
8916 1 8924 8925
8917 1 8925 8926
8918 1 8926 8927
8919 1 8927 8928
8920 1 8928 8929
8921 1 8929 8930
8922 1 8930 8931
8923 1 8931 8932
8924 1 8932 8933
8925 1 8933 8934
8926 1 8934 8935
8927 1 8935 8936
8928 1 8936 8937
8929 1 8937 8938
8930 1 8938 8939
8931 1 8939 8940
8932 1 8940 8941
8933 1 8941 8942
8934 1 8942 8943
8935 1 8943 8944
8936 1 8944 8945
8937 1 8945 8946
8938 1 8946 8947
8939 1 8947 8948
8940 1 8948 8949
8941 1 8949 8950
8942 1 8950 8951
8943 1 8951 8952
8944 1 8952 8953
8945 1 8953 8954
8946 1 8954 8955
8947 1 8955 8956
8948 1 8956 8957
8949 1 8957 8958
8950 1 8958 8959
8951 1 8959 8960
8952 1 8960 8961
8953 1 8961 8962
8954 1 8962 8963
8955 1 8963 8964
8956 1 8964 8965
8957 1 8965 8966
8958 1 8966 8967
8959 1 8967 8968
8960 1 8968 8969
8961 1 8969 8970
8962 1 8970 8971
8963 1 8971 8972
8964 1 8972 8973
8965 1 8973 8974
8966 1 8974 8975
8967 1 8975 8976
8968 1 8976 8977
8969 1 8977 8978
8970 1 8978 8979
8971 1 8979 8980
8972 1 8980 8981
8973 1 8981 8982
8974 1 8982 8983
8975 1 8983 8984
8976 1 8984 8985
8977 1 8985 8986
8978 1 8986 8987
8979 1 8987 8988
8980 1 8988 8989
8981 1 8989 8990
8982 1 8990 8991
8983 1 8991 8992
8984 1 8992 8993
8985 1 8993 8994
8986 1 8994 8995
8987 1 8995 8996
8988 1 8996 8997
8989 1 8997 8998
8990 1 8998 8999
8991 1 8999 9000
8992 1 9001 9002
8993 1 9002 9003
8994 1 9003 9004
8995 1 9004 9005
8996 1 9005 9006
8997 1 9006 9007
8998 1 9007 9008
8999 1 9008 9009
9000 1 9009 9010
9001 1 9010 9011
9002 1 9011 9012
9003 1 9012 9013
9004 1 9013 9014
9005 1 9014 9015
9006 1 9015 9016
9007 1 9016 9017
9008 1 9017 9018
9009 1 9018 9019
9010 1 9019 9020
9011 1 9020 9021
9012 1 9021 9022
9013 1 9022 9023
9014 1 9023 9024
9015 1 9024 9025
9016 1 9025 9026
9017 1 9026 9027
9018 1 9027 9028
9019 1 9028 9029
9020 1 9029 9030
9021 1 9030 9031
9022 1 9031 9032
9023 1 9032 9033
9024 1 9033 9034
9025 1 9034 9035
9026 1 9035 9036
9027 1 9036 9037
9028 1 9037 9038
9029 1 9038 9039
9030 1 9039 9040
9031 1 9040 9041
9032 1 9041 9042
9033 1 9042 9043
9034 1 9043 9044
9035 1 9044 9045
9036 1 9045 9046
9037 1 9046 9047
9038 1 9047 9048
9039 1 9048 9049
9040 1 9049 9050
9041 1 9050 9051
9042 1 9051 9052
9043 1 9052 9053
9044 1 9053 9054
9045 1 9054 9055
9046 1 9055 9056
9047 1 9056 9057
9048 1 9057 9058
9049 1 9058 9059
9050 1 9059 9060
9051 1 9060 9061
9052 1 9061 9062
9053 1 9062 9063
9054 1 9063 9064
9055 1 9064 9065
9056 1 9065 9066
9057 1 9066 9067
9058 1 9067 9068
9059 1 9068 9069
9060 1 9069 9070
9061 1 9070 9071
9062 1 9071 9072
9063 1 9072 9073
9064 1 9073 9074
9065 1 9074 9075
9066 1 9075 9076
9067 1 9076 9077
9068 1 9077 9078
9069 1 9078 9079
9070 1 9079 9080
9071 1 9080 9081
9072 1 9081 9082
9073 1 9082 9083
9074 1 9083 9084
9075 1 9084 9085
9076 1 9085 9086
9077 1 9086 9087
9078 1 9087 9088
9079 1 9088 9089
9080 1 9089 9090
9081 1 9090 9091
9082 1 9091 9092
9083 1 9092 9093
9084 1 9093 9094
9085 1 9094 9095
9086 1 9095 9096
9087 1 9096 9097
9088 1 9097 9098
9089 1 9098 9099
9090 1 9099 9100
9091 1 9100 9101
9092 1 9101 9102
9093 1 9102 9103
9094 1 9103 9104
9095 1 9104 9105
9096 1 9105 9106
9097 1 9106 9107
9098 1 9107 9108
9099 1 9108 9109
9100 1 9109 9110
9101 1 9110 9111
9102 1 9111 9112
9103 1 9112 9113
9104 1 9113 9114
9105 1 9114 9115
9106 1 9115 9116
9107 1 9116 9117
9108 1 9117 9118
9109 1 9118 9119
9110 1 9119 9120
9111 1 9120 9121
9112 1 9121 9122
9113 1 9122 9123
9114 1 9123 9124
9115 1 9124 9125
9116 1 9125 9126
9117 1 9126 9127
9118 1 9127 9128
9119 1 9128 9129
9120 1 9129 9130
9121 1 9130 9131
9122 1 9131 9132
9123 1 9132 9133
9124 1 9133 9134
9125 1 9134 9135
9126 1 9135 9136
9127 1 9136 9137
9128 1 9137 9138
9129 1 9138 9139
9130 1 9139 9140
9131 1 9140 9141
9132 1 9141 9142
9133 1 9142 9143
9134 1 9143 9144
9135 1 9144 9145
9136 1 9145 9146
9137 1 9146 9147
9138 1 9147 9148
9139 1 9148 9149
9140 1 9149 9150
9141 1 9150 9151
9142 1 9151 9152
9143 1 9152 9153
9144 1 9153 9154
9145 1 9154 9155
9146 1 9155 9156
9147 1 9156 9157
9148 1 9157 9158
9149 1 9158 9159
9150 1 9159 9160
9151 1 9160 9161
9152 1 9161 9162
9153 1 9162 9163
9154 1 9163 9164
9155 1 9164 9165
9156 1 9165 9166
9157 1 9166 9167
9158 1 9167 9168
9159 1 9168 9169
9160 1 9169 9170
9161 1 9170 9171
9162 1 9171 9172
9163 1 9172 9173
9164 1 9173 9174
9165 1 9174 9175
9166 1 9175 9176
9167 1 9176 9177
9168 1 9177 9178
9169 1 9178 9179
9170 1 9179 9180
9171 1 9180 9181
9172 1 9181 9182
9173 1 9182 9183
9174 1 9183 9184
9175 1 9184 9185
9176 1 9185 9186
9177 1 9186 9187
9178 1 9187 9188
9179 1 9188 9189
9180 1 9189 9190
9181 1 9190 9191
9182 1 9191 9192
9183 1 9192 9193
9184 1 9193 9194
9185 1 9194 9195
9186 1 9195 9196
9187 1 9196 9197
9188 1 9197 9198
9189 1 9198 9199
9190 1 9199 9200
9191 1 9200 9201
9192 1 9201 9202
9193 1 9202 9203
9194 1 9203 9204
9195 1 9204 9205
9196 1 9205 9206
9197 1 9206 9207
9198 1 9207 9208
9199 1 9208 9209
9200 1 9209 9210
9201 1 9210 9211
9202 1 9211 9212
9203 1 9212 9213
9204 1 9213 9214
9205 1 9214 9215
9206 1 9215 9216
9207 1 9216 9217
9208 1 9217 9218
9209 1 9218 9219
9210 1 9219 9220
9211 1 9220 9221
9212 1 9221 9222
9213 1 9222 9223
9214 1 9223 9224
9215 1 9224 9225
9216 1 9225 9226
9217 1 9226 9227
9218 1 9227 9228
9219 1 9228 9229
9220 1 9229 9230
9221 1 9230 9231
9222 1 9231 9232
9223 1 9232 9233
9224 1 9233 9234
9225 1 9234 9235
9226 1 9235 9236
9227 1 9236 9237
9228 1 9237 9238
9229 1 9238 9239
9230 1 9239 9240
9231 1 9240 9241
9232 1 9241 9242
9233 1 9242 9243
9234 1 9243 9244
9235 1 9244 9245
9236 1 9245 9246
9237 1 9246 9247
9238 1 9247 9248
9239 1 9248 9249
9240 1 9249 9250
9241 1 9250 9251
9242 1 9251 9252
9243 1 9252 9253
9244 1 9253 9254
9245 1 9254 9255
9246 1 9255 9256
9247 1 9256 9257
9248 1 9257 9258
9249 1 9258 9259
9250 1 9259 9260
9251 1 9260 9261
9252 1 9261 9262
9253 1 9262 9263
9254 1 9263 9264
9255 1 9264 9265
9256 1 9265 9266
9257 1 9266 9267
9258 1 9267 9268
9259 1 9268 9269
9260 1 9269 9270
9261 1 9270 9271
9262 1 9271 9272
9263 1 9272 9273
9264 1 9273 9274
9265 1 9274 9275
9266 1 9275 9276
9267 1 9276 9277
9268 1 9277 9278
9269 1 9278 9279
9270 1 9279 9280
9271 1 9280 9281
9272 1 9281 9282
9273 1 9282 9283
9274 1 9283 9284
9275 1 9284 9285
9276 1 9285 9286
9277 1 9286 9287
9278 1 9287 9288
9279 1 9288 9289
9280 1 9289 9290
9281 1 9290 9291
9282 1 9291 9292
9283 1 9292 9293
9284 1 9293 9294
9285 1 9294 9295
9286 1 9295 9296
9287 1 9296 9297
9288 1 9297 9298
9289 1 9298 9299
9290 1 9299 9300
9291 1 9300 9301
9292 1 9301 9302
9293 1 9302 9303
9294 1 9303 9304
9295 1 9304 9305
9296 1 9305 9306
9297 1 9306 9307
9298 1 9307 9308
9299 1 9308 9309
9300 1 9309 9310
9301 1 9310 9311
9302 1 9311 9312
9303 1 9312 9313
9304 1 9313 9314
9305 1 9314 9315
9306 1 9315 9316
9307 1 9316 9317
9308 1 9317 9318
9309 1 9318 9319
9310 1 9319 9320
9311 1 9320 9321
9312 1 9321 9322
9313 1 9322 9323
9314 1 9323 9324
9315 1 9324 9325
9316 1 9325 9326
9317 1 9326 9327
9318 1 9327 9328
9319 1 9328 9329
9320 1 9329 9330
9321 1 9330 9331
9322 1 9331 9332
9323 1 9332 9333
9324 1 9333 9334
9325 1 9334 9335
9326 1 9335 9336
9327 1 9336 9337
9328 1 9337 9338
9329 1 9338 9339
9330 1 9339 9340
9331 1 9340 9341
9332 1 9341 9342
9333 1 9342 9343
9334 1 9343 9344
9335 1 9344 9345
9336 1 9345 9346
9337 1 9346 9347
9338 1 9347 9348
9339 1 9348 9349
9340 1 9349 9350
9341 1 9350 9351
9342 1 9351 9352
9343 1 9352 9353
9344 1 9353 9354
9345 1 9354 9355
9346 1 9355 9356
9347 1 9356 9357
9348 1 9357 9358
9349 1 9358 9359
9350 1 9359 9360
9351 1 9360 9361
9352 1 9361 9362
9353 1 9362 9363
9354 1 9363 9364
9355 1 9364 9365
9356 1 9365 9366
9357 1 9366 9367
9358 1 9367 9368
9359 1 9368 9369
9360 1 9369 9370
9361 1 9370 9371
9362 1 9371 9372
9363 1 9372 9373
9364 1 9373 9374
9365 1 9374 9375
9366 1 9375 9376
9367 1 9376 9377
9368 1 9377 9378
9369 1 9378 9379
9370 1 9379 9380
9371 1 9380 9381
9372 1 9381 9382
9373 1 9382 9383
9374 1 9383 9384
9375 1 9384 9385
9376 1 9385 9386
9377 1 9386 9387
9378 1 9387 9388
9379 1 9388 9389
9380 1 9389 9390
9381 1 9390 9391
9382 1 9391 9392
9383 1 9392 9393
9384 1 9393 9394
9385 1 9394 9395
9386 1 9395 9396
9387 1 9396 9397
9388 1 9397 9398
9389 1 9398 9399
9390 1 9399 9400
9391 1 9400 9401
9392 1 9401 9402
9393 1 9402 9403
9394 1 9403 9404
9395 1 9404 9405
9396 1 9405 9406
9397 1 9406 9407
9398 1 9407 9408
9399 1 9408 9409
9400 1 9409 9410
9401 1 9410 9411
9402 1 9411 9412
9403 1 9412 9413
9404 1 9413 9414
9405 1 9414 9415
9406 1 9415 9416
9407 1 9416 9417
9408 1 9417 9418
9409 1 9418 9419
9410 1 9419 9420
9411 1 9420 9421
9412 1 9421 9422
9413 1 9422 9423
9414 1 9423 9424
9415 1 9424 9425
9416 1 9425 9426
9417 1 9426 9427
9418 1 9427 9428
9419 1 9428 9429
9420 1 9429 9430
9421 1 9430 9431
9422 1 9431 9432
9423 1 9432 9433
9424 1 9433 9434
9425 1 9434 9435
9426 1 9435 9436
9427 1 9436 9437
9428 1 9437 9438
9429 1 9438 9439
9430 1 9439 9440
9431 1 9440 9441
9432 1 9441 9442
9433 1 9442 9443
9434 1 9443 9444
9435 1 9444 9445
9436 1 9445 9446
9437 1 9446 9447
9438 1 9447 9448
9439 1 9448 9449
9440 1 9449 9450
9441 1 9450 9451
9442 1 9451 9452
9443 1 9452 9453
9444 1 9453 9454
9445 1 9454 9455
9446 1 9455 9456
9447 1 9456 9457
9448 1 9457 9458
9449 1 9458 9459
9450 1 9459 9460
9451 1 9460 9461
9452 1 9461 9462
9453 1 9462 9463
9454 1 9463 9464
9455 1 9464 9465
9456 1 9465 9466
9457 1 9466 9467
9458 1 9467 9468
9459 1 9468 9469
9460 1 9469 9470
9461 1 9470 9471
9462 1 9471 9472
9463 1 9472 9473
9464 1 9473 9474
9465 1 9474 9475
9466 1 9475 9476
9467 1 9476 9477
9468 1 9477 9478
9469 1 9478 9479
9470 1 9479 9480
9471 1 9480 9481
9472 1 9481 9482
9473 1 9482 9483
9474 1 9483 9484
9475 1 9484 9485
9476 1 9485 9486
9477 1 9486 9487
9478 1 9487 9488
9479 1 9488 9489
9480 1 9489 9490
9481 1 9490 9491
9482 1 9491 9492
9483 1 9492 9493
9484 1 9493 9494
9485 1 9494 9495
9486 1 9495 9496
9487 1 9496 9497
9488 1 9497 9498
9489 1 9498 9499
9490 1 9499 9500
9491 1 9500 9501
9492 1 9501 9502
9493 1 9502 9503
9494 1 9503 9504
9495 1 9504 9505
9496 1 9505 9506
9497 1 9506 9507
9498 1 9507 9508
9499 1 9508 9509
9500 1 9509 9510
9501 1 9510 9511
9502 1 9511 9512
9503 1 9512 9513
9504 1 9513 9514
9505 1 9514 9515
9506 1 9515 9516
9507 1 9516 9517
9508 1 9517 9518
9509 1 9518 9519
9510 1 9519 9520
9511 1 9520 9521
9512 1 9521 9522
9513 1 9522 9523
9514 1 9523 9524
9515 1 9524 9525
9516 1 9525 9526
9517 1 9526 9527
9518 1 9527 9528
9519 1 9528 9529
9520 1 9529 9530
9521 1 9530 9531
9522 1 9531 9532
9523 1 9532 9533
9524 1 9533 9534
9525 1 9534 9535
9526 1 9535 9536
9527 1 9536 9537
9528 1 9537 9538
9529 1 9538 9539
9530 1 9539 9540
9531 1 9540 9541
9532 1 9541 9542
9533 1 9542 9543
9534 1 9543 9544
9535 1 9544 9545
9536 1 9545 9546
9537 1 9546 9547
9538 1 9547 9548
9539 1 9548 9549
9540 1 9549 9550
9541 1 9550 9551
9542 1 9551 9552
9543 1 9552 9553
9544 1 9553 9554
9545 1 9554 9555
9546 1 9555 9556
9547 1 9556 9557
9548 1 9557 9558
9549 1 9558 9559
9550 1 9559 9560
9551 1 9560 9561
9552 1 9561 9562
9553 1 9562 9563
9554 1 9563 9564
9555 1 9564 9565
9556 1 9565 9566
9557 1 9566 9567
9558 1 9567 9568
9559 1 9568 9569
9560 1 9569 9570
9561 1 9570 9571
9562 1 9571 9572
9563 1 9572 9573
9564 1 9573 9574
9565 1 9574 9575
9566 1 9575 9576
9567 1 9576 9577
9568 1 9577 9578
9569 1 9578 9579
9570 1 9579 9580
9571 1 9580 9581
9572 1 9581 9582
9573 1 9582 9583
9574 1 9583 9584
9575 1 9584 9585
9576 1 9585 9586
9577 1 9586 9587
9578 1 9587 9588
9579 1 9588 9589
9580 1 9589 9590
9581 1 9590 9591
9582 1 9591 9592
9583 1 9592 9593
9584 1 9593 9594
9585 1 9594 9595
9586 1 9595 9596
9587 1 9596 9597
9588 1 9597 9598
9589 1 9598 9599
9590 1 9599 9600
9591 1 9600 9601
9592 1 9601 9602
9593 1 9602 9603
9594 1 9603 9604
9595 1 9604 9605
9596 1 9605 9606
9597 1 9606 9607
9598 1 9607 9608
9599 1 9608 9609
9600 1 9609 9610
9601 1 9610 9611
9602 1 9611 9612
9603 1 9612 9613
9604 1 9613 9614
9605 1 9614 9615
9606 1 9615 9616
9607 1 9616 9617
9608 1 9617 9618
9609 1 9618 9619
9610 1 9619 9620
9611 1 9620 9621
9612 1 9621 9622
9613 1 9622 9623
9614 1 9623 9624
9615 1 9624 9625
9616 1 9625 9626
9617 1 9626 9627
9618 1 9627 9628
9619 1 9628 9629
9620 1 9629 9630
9621 1 9630 9631
9622 1 9631 9632
9623 1 9632 9633
9624 1 9633 9634
9625 1 9634 9635
9626 1 9635 9636
9627 1 9636 9637
9628 1 9637 9638
9629 1 9638 9639
9630 1 9639 9640
9631 1 9640 9641
9632 1 9641 9642
9633 1 9642 9643
9634 1 9643 9644
9635 1 9644 9645
9636 1 9645 9646
9637 1 9646 9647
9638 1 9647 9648
9639 1 9648 9649
9640 1 9649 9650
9641 1 9650 9651
9642 1 9651 9652
9643 1 9652 9653
9644 1 9653 9654
9645 1 9654 9655
9646 1 9655 9656
9647 1 9656 9657
9648 1 9657 9658
9649 1 9658 9659
9650 1 9659 9660
9651 1 9660 9661
9652 1 9661 9662
9653 1 9662 9663
9654 1 9663 9664
9655 1 9664 9665
9656 1 9665 9666
9657 1 9666 9667
9658 1 9667 9668
9659 1 9668 9669
9660 1 9669 9670
9661 1 9670 9671
9662 1 9671 9672
9663 1 9672 9673
9664 1 9673 9674
9665 1 9674 9675
9666 1 9675 9676
9667 1 9676 9677
9668 1 9677 9678
9669 1 9678 9679
9670 1 9679 9680
9671 1 9680 9681
9672 1 9681 9682
9673 1 9682 9683
9674 1 9683 9684
9675 1 9684 9685
9676 1 9685 9686
9677 1 9686 9687
9678 1 9687 9688
9679 1 9688 9689
9680 1 9689 9690
9681 1 9690 9691
9682 1 9691 9692
9683 1 9692 9693
9684 1 9693 9694
9685 1 9694 9695
9686 1 9695 9696
9687 1 9696 9697
9688 1 9697 9698
9689 1 9698 9699
9690 1 9699 9700
9691 1 9700 9701
9692 1 9701 9702
9693 1 9702 9703
9694 1 9703 9704
9695 1 9704 9705
9696 1 9705 9706
9697 1 9706 9707
9698 1 9707 9708
9699 1 9708 9709
9700 1 9709 9710
9701 1 9710 9711
9702 1 9711 9712
9703 1 9712 9713
9704 1 9713 9714
9705 1 9714 9715
9706 1 9715 9716
9707 1 9716 9717
9708 1 9717 9718
9709 1 9718 9719
9710 1 9719 9720
9711 1 9720 9721
9712 1 9721 9722
9713 1 9722 9723
9714 1 9723 9724
9715 1 9724 9725
9716 1 9725 9726
9717 1 9726 9727
9718 1 9727 9728
9719 1 9728 9729
9720 1 9729 9730
9721 1 9730 9731
9722 1 9731 9732
9723 1 9732 9733
9724 1 9733 9734
9725 1 9734 9735
9726 1 9735 9736
9727 1 9736 9737
9728 1 9737 9738
9729 1 9738 9739
9730 1 9739 9740
9731 1 9740 9741
9732 1 9741 9742
9733 1 9742 9743
9734 1 9743 9744
9735 1 9744 9745
9736 1 9745 9746
9737 1 9746 9747
9738 1 9747 9748
9739 1 9748 9749
9740 1 9749 9750
9741 1 9750 9751
9742 1 9751 9752
9743 1 9752 9753
9744 1 9753 9754
9745 1 9754 9755
9746 1 9755 9756
9747 1 9756 9757
9748 1 9757 9758
9749 1 9758 9759
9750 1 9759 9760
9751 1 9760 9761
9752 1 9761 9762
9753 1 9762 9763
9754 1 9763 9764
9755 1 9764 9765
9756 1 9765 9766
9757 1 9766 9767
9758 1 9767 9768
9759 1 9768 9769
9760 1 9769 9770
9761 1 9770 9771
9762 1 9771 9772
9763 1 9772 9773
9764 1 9773 9774
9765 1 9774 9775
9766 1 9775 9776
9767 1 9776 9777
9768 1 9777 9778
9769 1 9778 9779
9770 1 9779 9780
9771 1 9780 9781
9772 1 9781 9782
9773 1 9782 9783
9774 1 9783 9784
9775 1 9784 9785
9776 1 9785 9786
9777 1 9786 9787
9778 1 9787 9788
9779 1 9788 9789
9780 1 9789 9790
9781 1 9790 9791
9782 1 9791 9792
9783 1 9792 9793
9784 1 9793 9794
9785 1 9794 9795
9786 1 9795 9796
9787 1 9796 9797
9788 1 9797 9798
9789 1 9798 9799
9790 1 9799 9800
9791 1 9800 9801
9792 1 9801 9802
9793 1 9802 9803
9794 1 9803 9804
9795 1 9804 9805
9796 1 9805 9806
9797 1 9806 9807
9798 1 9807 9808
9799 1 9808 9809
9800 1 9809 9810
9801 1 9810 9811
9802 1 9811 9812
9803 1 9812 9813
9804 1 9813 9814
9805 1 9814 9815
9806 1 9815 9816
9807 1 9816 9817
9808 1 9817 9818
9809 1 9818 9819
9810 1 9819 9820
9811 1 9820 9821
9812 1 9821 9822
9813 1 9822 9823
9814 1 9823 9824
9815 1 9824 9825
9816 1 9825 9826
9817 1 9826 9827
9818 1 9827 9828
9819 1 9828 9829
9820 1 9829 9830
9821 1 9830 9831
9822 1 9831 9832
9823 1 9832 9833
9824 1 9833 9834
9825 1 9834 9835
9826 1 9835 9836
9827 1 9836 9837
9828 1 9837 9838
9829 1 9838 9839
9830 1 9839 9840
9831 1 9840 9841
9832 1 9841 9842
9833 1 9842 9843
9834 1 9843 9844
9835 1 9844 9845
9836 1 9845 9846
9837 1 9846 9847
9838 1 9847 9848
9839 1 9848 9849
9840 1 9849 9850
9841 1 9850 9851
9842 1 9851 9852
9843 1 9852 9853
9844 1 9853 9854
9845 1 9854 9855
9846 1 9855 9856
9847 1 9856 9857
9848 1 9857 9858
9849 1 9858 9859
9850 1 9859 9860
9851 1 9860 9861
9852 1 9861 9862
9853 1 9862 9863
9854 1 9863 9864
9855 1 9864 9865
9856 1 9865 9866
9857 1 9866 9867
9858 1 9867 9868
9859 1 9868 9869
9860 1 9869 9870
9861 1 9870 9871
9862 1 9871 9872
9863 1 9872 9873
9864 1 9873 9874
9865 1 9874 9875
9866 1 9875 9876
9867 1 9876 9877
9868 1 9877 9878
9869 1 9878 9879
9870 1 9879 9880
9871 1 9880 9881
9872 1 9881 9882
9873 1 9882 9883
9874 1 9883 9884
9875 1 9884 9885
9876 1 9885 9886
9877 1 9886 9887
9878 1 9887 9888
9879 1 9888 9889
9880 1 9889 9890
9881 1 9890 9891
9882 1 9891 9892
9883 1 9892 9893
9884 1 9893 9894
9885 1 9894 9895
9886 1 9895 9896
9887 1 9896 9897
9888 1 9897 9898
9889 1 9898 9899
9890 1 9899 9900
9891 1 9900 9901
9892 1 9901 9902
9893 1 9902 9903
9894 1 9903 9904
9895 1 9904 9905
9896 1 9905 9906
9897 1 9906 9907
9898 1 9907 9908
9899 1 9908 9909
9900 1 9909 9910
9901 1 9910 9911
9902 1 9911 9912
9903 1 9912 9913
9904 1 9913 9914
9905 1 9914 9915
9906 1 9915 9916
9907 1 9916 9917
9908 1 9917 9918
9909 1 9918 9919
9910 1 9919 9920
9911 1 9920 9921
9912 1 9921 9922
9913 1 9922 9923
9914 1 9923 9924
9915 1 9924 9925
9916 1 9925 9926
9917 1 9926 9927
9918 1 9927 9928
9919 1 9928 9929
9920 1 9929 9930
9921 1 9930 9931
9922 1 9931 9932
9923 1 9932 9933
9924 1 9933 9934
9925 1 9934 9935
9926 1 9935 9936
9927 1 9936 9937
9928 1 9937 9938
9929 1 9938 9939
9930 1 9939 9940
9931 1 9940 9941
9932 1 9941 9942
9933 1 9942 9943
9934 1 9943 9944
9935 1 9944 9945
9936 1 9945 9946
9937 1 9946 9947
9938 1 9947 9948
9939 1 9948 9949
9940 1 9949 9950
9941 1 9950 9951
9942 1 9951 9952
9943 1 9952 9953
9944 1 9953 9954
9945 1 9954 9955
9946 1 9955 9956
9947 1 9956 9957
9948 1 9957 9958
9949 1 9958 9959
9950 1 9959 9960
9951 1 9960 9961
9952 1 9961 9962
9953 1 9962 9963
9954 1 9963 9964
9955 1 9964 9965
9956 1 9965 9966
9957 1 9966 9967
9958 1 9967 9968
9959 1 9968 9969
9960 1 9969 9970
9961 1 9970 9971
9962 1 9971 9972
9963 1 9972 9973
9964 1 9973 9974
9965 1 9974 9975
9966 1 9975 9976
9967 1 9976 9977
9968 1 9977 9978
9969 1 9978 9979
9970 1 9979 9980
9971 1 9980 9981
9972 1 9981 9982
9973 1 9982 9983
9974 1 9983 9984
9975 1 9984 9985
9976 1 9985 9986
9977 1 9986 9987
9978 1 9987 9988
9979 1 9988 9989
9980 1 9989 9990
9981 1 9990 9991
9982 1 9991 9992
9983 1 9992 9993
9984 1 9993 9994
9985 1 9994 9995
9986 1 9995 9996
9987 1 9996 9997
9988 1 9997 9998
9989 1 9998 9999
9990 1 9999 10000
9991 2 10001 10002
9992 2 10001 10003
9993 2 10001 10004
9994 2 10001 10005
9995 2 10006 10007
9996 2 10006 10008
9997 2 10006 10009
9998 2 10006 10010
9999 2 10011 10012
10000 2 10011 10013
10001 2 10011 10014
10002 2 10011 10015
10003 2 10016 10017
10004 2 10016 10018
10005 2 10016 10019
10006 2 10016 10020
10007 2 10021 10022
10008 2 10021 10023
10009 2 10021 10024
10010 2 10021 10025
10011 2 10026 10027
10012 2 10026 10028
10013 2 10026 10029
10014 2 10026 10030
10015 2 10031 10032
10016 2 10031 10033
10017 2 10031 10034
10018 2 10031 10035
10019 2 10036 10037
10020 2 10036 10038
10021 2 10036 10039
10022 2 10036 10040
10023 2 10041 10042
10024 2 10041 10043
10025 2 10041 10044
10026 2 10041 10045
10027 2 10046 10047
10028 2 10046 10048
10029 2 10046 10049
10030 2 10046 10050
10031 2 10051 10052
10032 2 10051 10053
10033 2 10051 10054
10034 2 10051 10055
10035 2 10056 10057
10036 2 10056 10058
10037 2 10056 10059
10038 2 10056 10060
10039 2 10061 10062
10040 2 10061 10063
10041 2 10061 10064
10042 2 10061 10065
10043 2 10066 10067
10044 2 10066 10068
10045 2 10066 10069
10046 2 10066 10070
10047 2 10071 10072
10048 2 10071 10073
10049 2 10071 10074
10050 2 10071 10075
10051 2 10076 10077
10052 2 10076 10078
10053 2 10076 10079
10054 2 10076 10080
10055 2 10081 10082
10056 2 10081 10083
10057 2 10081 10084
10058 2 10081 10085
10059 2 10086 10087
10060 2 10086 10088
10061 2 10086 10089
10062 2 10086 10090
10063 2 10091 10092
10064 2 10091 10093
10065 2 10091 10094
10066 2 10091 10095
10067 2 10096 10097
10068 2 10096 10098
10069 2 10096 10099
10070 2 10096 10100
10071 2 10101 10102
10072 2 10101 10103
10073 2 10101 10104
10074 2 10101 10105
10075 2 10106 10107
10076 2 10106 10108
10077 2 10106 10109
10078 2 10106 10110
10079 2 10111 10112
10080 2 10111 10113
10081 2 10111 10114
10082 2 10111 10115
10083 2 10116 10117
10084 2 10116 10118
10085 2 10116 10119
10086 2 10116 10120
10087 2 10121 10122
10088 2 10121 10123
10089 2 10121 10124
10090 2 10121 10125
10091 2 10126 10127
10092 2 10126 10128
10093 2 10126 10129
10094 2 10126 10130
10095 2 10131 10132
10096 2 10131 10133
10097 2 10131 10134
10098 2 10131 10135
10099 2 10136 10137
10100 2 10136 10138
10101 2 10136 10139
10102 2 10136 10140
10103 2 10141 10142
10104 2 10141 10143
10105 2 10141 10144
10106 2 10141 10145
10107 2 10146 10147
10108 2 10146 10148
10109 2 10146 10149
10110 2 10146 10150
10111 2 10151 10152
10112 2 10151 10153
10113 2 10151 10154
10114 2 10151 10155
10115 2 10156 10157
10116 2 10156 10158
10117 2 10156 10159
10118 2 10156 10160
10119 2 10161 10162
10120 2 10161 10163
10121 2 10161 10164
10122 2 10161 10165
10123 2 10166 10167
10124 2 10166 10168
10125 2 10166 10169
10126 2 10166 10170
10127 2 10171 10172
10128 2 10171 10173
10129 2 10171 10174
10130 2 10171 10175
10131 2 10176 10177
10132 2 10176 10178
10133 2 10176 10179
10134 2 10176 10180
10135 2 10181 10182
10136 2 10181 10183
10137 2 10181 10184
10138 2 10181 10185
10139 2 10186 10187
10140 2 10186 10188
10141 2 10186 10189
10142 2 10186 10190
10143 2 10191 10192
10144 2 10191 10193
10145 2 10191 10194
10146 2 10191 10195
10147 2 10196 10197
10148 2 10196 10198
10149 2 10196 10199
10150 2 10196 10200
10151 2 10201 10202
10152 2 10201 10203
10153 2 10201 10204
10154 2 10201 10205
10155 2 10206 10207
10156 2 10206 10208
10157 2 10206 10209
10158 2 10206 10210
10159 2 10211 10212
10160 2 10211 10213
10161 2 10211 10214
10162 2 10211 10215
10163 2 10216 10217
10164 2 10216 10218
10165 2 10216 10219
10166 2 10216 10220
10167 2 10221 10222
10168 2 10221 10223
10169 2 10221 10224
10170 2 10221 10225
10171 2 10226 10227
10172 2 10226 10228
10173 2 10226 10229
10174 2 10226 10230
10175 2 10231 10232
10176 2 10231 10233
10177 2 10231 10234
10178 2 10231 10235
10179 2 10236 10237
10180 2 10236 10238
10181 2 10236 10239
10182 2 10236 10240
10183 2 10241 10242
10184 2 10241 10243
10185 2 10241 10244
10186 2 10241 10245
10187 2 10246 10247
10188 2 10246 10248
10189 2 10246 10249
10190 2 10246 10250
10191 2 10251 10252
10192 2 10251 10253
10193 2 10251 10254
10194 2 10251 10255
10195 2 10256 10257
10196 2 10256 10258
10197 2 10256 10259
10198 2 10256 10260
10199 2 10261 10262
10200 2 10261 10263
10201 2 10261 10264
10202 2 10261 10265
10203 2 10266 10267
10204 2 10266 10268
10205 2 10266 10269
10206 2 10266 10270
10207 2 10271 10272
10208 2 10271 10273
10209 2 10271 10274
10210 2 10271 10275
10211 2 10276 10277
10212 2 10276 10278
10213 2 10276 10279
10214 2 10276 10280
10215 2 10281 10282
10216 2 10281 10283
10217 2 10281 10284
10218 2 10281 10285
10219 2 10286 10287
10220 2 10286 10288
10221 2 10286 10289
10222 2 10286 10290
10223 2 10291 10292
10224 2 10291 10293
10225 2 10291 10294
10226 2 10291 10295
10227 2 10296 10297
10228 2 10296 10298
10229 2 10296 10299
10230 2 10296 10300
10231 2 10301 10302
10232 2 10301 10303
10233 2 10301 10304
10234 2 10301 10305
10235 2 10306 10307
10236 2 10306 10308
10237 2 10306 10309
10238 2 10306 10310
10239 2 10311 10312
10240 2 10311 10313
10241 2 10311 10314
10242 2 10311 10315
10243 2 10316 10317
10244 2 10316 10318
10245 2 10316 10319
10246 2 10316 10320
10247 2 10321 10322
10248 2 10321 10323
10249 2 10321 10324
10250 2 10321 10325
10251 2 10326 10327
10252 2 10326 10328
10253 2 10326 10329
10254 2 10326 10330
10255 2 10331 10332
10256 2 10331 10333
10257 2 10331 10334
10258 2 10331 10335
10259 2 10336 10337
10260 2 10336 10338
10261 2 10336 10339
10262 2 10336 10340
10263 2 10341 10342
10264 2 10341 10343
10265 2 10341 10344
10266 2 10341 10345
10267 2 10346 10347
10268 2 10346 10348
10269 2 10346 10349
10270 2 10346 10350
10271 2 10351 10352
10272 2 10351 10353
10273 2 10351 10354
10274 2 10351 10355
10275 2 10356 10357
10276 2 10356 10358
10277 2 10356 10359
10278 2 10356 10360
10279 2 10361 10362
10280 2 10361 10363
10281 2 10361 10364
10282 2 10361 10365
10283 2 10366 10367
10284 2 10366 10368
10285 2 10366 10369
10286 2 10366 10370
10287 2 10371 10372
10288 2 10371 10373
10289 2 10371 10374
10290 2 10371 10375
10291 2 10376 10377
10292 2 10376 10378
10293 2 10376 10379
10294 2 10376 10380
10295 2 10381 10382
10296 2 10381 10383
10297 2 10381 10384
10298 2 10381 10385
10299 2 10386 10387
10300 2 10386 10388
10301 2 10386 10389
10302 2 10386 10390
10303 2 10391 10392
10304 2 10391 10393
10305 2 10391 10394
10306 2 10391 10395
10307 2 10396 10397
10308 2 10396 10398
10309 2 10396 10399
10310 2 10396 10400
10311 2 10401 10402
10312 2 10401 10403
10313 2 10401 10404
10314 2 10401 10405
10315 2 10406 10407
10316 2 10406 10408
10317 2 10406 10409
10318 2 10406 10410
10319 2 10411 10412
10320 2 10411 10413
10321 2 10411 10414
10322 2 10411 10415
10323 2 10416 10417
10324 2 10416 10418
10325 2 10416 10419
10326 2 10416 10420
10327 2 10421 10422
10328 2 10421 10423
10329 2 10421 10424
10330 2 10421 10425
10331 2 10426 10427
10332 2 10426 10428
10333 2 10426 10429
10334 2 10426 10430
10335 2 10431 10432
10336 2 10431 10433
10337 2 10431 10434
10338 2 10431 10435
10339 2 10436 10437
10340 2 10436 10438
10341 2 10436 10439
10342 2 10436 10440
10343 2 10441 10442
10344 2 10441 10443
10345 2 10441 10444
10346 2 10441 10445
10347 2 10446 10447
10348 2 10446 10448
10349 2 10446 10449
10350 2 10446 10450
10351 2 10451 10452
10352 2 10451 10453
10353 2 10451 10454
10354 2 10451 10455
10355 2 10456 10457
10356 2 10456 10458
10357 2 10456 10459
10358 2 10456 10460
10359 2 10461 10462
10360 2 10461 10463
10361 2 10461 10464
10362 2 10461 10465
10363 2 10466 10467
10364 2 10466 10468
10365 2 10466 10469
10366 2 10466 10470
10367 2 10471 10472
10368 2 10471 10473
10369 2 10471 10474
10370 2 10471 10475
10371 2 10476 10477
10372 2 10476 10478
10373 2 10476 10479
10374 2 10476 10480
10375 2 10481 10482
10376 2 10481 10483
10377 2 10481 10484
10378 2 10481 10485
10379 2 10486 10487
10380 2 10486 10488
10381 2 10486 10489
10382 2 10486 10490
10383 2 10491 10492
10384 2 10491 10493
10385 2 10491 10494
10386 2 10491 10495
10387 2 10496 10497
10388 2 10496 10498
10389 2 10496 10499
10390 2 10496 10500
10391 2 10501 10502
10392 2 10501 10503
10393 2 10501 10504
10394 2 10501 10505
10395 2 10506 10507
10396 2 10506 10508
10397 2 10506 10509
10398 2 10506 10510
10399 2 10511 10512
10400 2 10511 10513
10401 2 10511 10514
10402 2 10511 10515
10403 2 10516 10517
10404 2 10516 10518
10405 2 10516 10519
10406 2 10516 10520
10407 2 10521 10522
10408 2 10521 10523
10409 2 10521 10524
10410 2 10521 10525
10411 2 10526 10527
10412 2 10526 10528
10413 2 10526 10529
10414 2 10526 10530
10415 2 10531 10532
10416 2 10531 10533
10417 2 10531 10534
10418 2 10531 10535
10419 2 10536 10537
10420 2 10536 10538
10421 2 10536 10539
10422 2 10536 10540
10423 2 10541 10542
10424 2 10541 10543
10425 2 10541 10544
10426 2 10541 10545
10427 2 10546 10547
10428 2 10546 10548
10429 2 10546 10549
10430 2 10546 10550
10431 2 10551 10552
10432 2 10551 10553
10433 2 10551 10554
10434 2 10551 10555
10435 2 10556 10557
10436 2 10556 10558
10437 2 10556 10559
10438 2 10556 10560
10439 2 10561 10562
10440 2 10561 10563
10441 2 10561 10564
10442 2 10561 10565
10443 2 10566 10567
10444 2 10566 10568
10445 2 10566 10569
10446 2 10566 10570
10447 2 10571 10572
10448 2 10571 10573
10449 2 10571 10574
10450 2 10571 10575
10451 2 10576 10577
10452 2 10576 10578
10453 2 10576 10579
10454 2 10576 10580
10455 2 10581 10582
10456 2 10581 10583
10457 2 10581 10584
10458 2 10581 10585
10459 2 10586 10587
10460 2 10586 10588
10461 2 10586 10589
10462 2 10586 10590
10463 2 10591 10592
10464 2 10591 10593
10465 2 10591 10594
10466 2 10591 10595
10467 2 10596 10597
10468 2 10596 10598
10469 2 10596 10599
10470 2 10596 10600
10471 2 10601 10602
10472 2 10601 10603
10473 2 10601 10604
10474 2 10601 10605
10475 2 10606 10607
10476 2 10606 10608
10477 2 10606 10609
10478 2 10606 10610
10479 2 10611 10612
10480 2 10611 10613
10481 2 10611 10614
10482 2 10611 10615
10483 2 10616 10617
10484 2 10616 10618
10485 2 10616 10619
10486 2 10616 10620
10487 2 10621 10622
10488 2 10621 10623
10489 2 10621 10624
10490 2 10621 10625
10491 2 10626 10627
10492 2 10626 10628
10493 2 10626 10629
10494 2 10626 10630
10495 2 10631 10632
10496 2 10631 10633
10497 2 10631 10634
10498 2 10631 10635
10499 2 10636 10637
10500 2 10636 10638
10501 2 10636 10639
10502 2 10636 10640
10503 2 10641 10642
10504 2 10641 10643
10505 2 10641 10644
10506 2 10641 10645
10507 2 10646 10647
10508 2 10646 10648
10509 2 10646 10649
10510 2 10646 10650
10511 2 10651 10652
10512 2 10651 10653
10513 2 10651 10654
10514 2 10651 10655
10515 2 10656 10657
10516 2 10656 10658
10517 2 10656 10659
10518 2 10656 10660
10519 2 10661 10662
10520 2 10661 10663
10521 2 10661 10664
10522 2 10661 10665
10523 2 10666 10667
10524 2 10666 10668
10525 2 10666 10669
10526 2 10666 10670
10527 2 10671 10672
10528 2 10671 10673
10529 2 10671 10674
10530 2 10671 10675
10531 2 10676 10677
10532 2 10676 10678
10533 2 10676 10679
10534 2 10676 10680
10535 2 10681 10682
10536 2 10681 10683
10537 2 10681 10684
10538 2 10681 10685
10539 2 10686 10687
10540 2 10686 10688
10541 2 10686 10689
10542 2 10686 10690
10543 2 10691 10692
10544 2 10691 10693
10545 2 10691 10694
10546 2 10691 10695
10547 2 10696 10697
10548 2 10696 10698
10549 2 10696 10699
10550 2 10696 10700
10551 2 10701 10702
10552 2 10701 10703
10553 2 10701 10704
10554 2 10701 10705
10555 2 10706 10707
10556 2 10706 10708
10557 2 10706 10709
10558 2 10706 10710
10559 2 10711 10712
10560 2 10711 10713
10561 2 10711 10714
10562 2 10711 10715
10563 2 10716 10717
10564 2 10716 10718
10565 2 10716 10719
10566 2 10716 10720
10567 2 10721 10722
10568 2 10721 10723
10569 2 10721 10724
10570 2 10721 10725
10571 2 10726 10727
10572 2 10726 10728
10573 2 10726 10729
10574 2 10726 10730
10575 2 10731 10732
10576 2 10731 10733
10577 2 10731 10734
10578 2 10731 10735
10579 2 10736 10737
10580 2 10736 10738
10581 2 10736 10739
10582 2 10736 10740
10583 2 10741 10742
10584 2 10741 10743
10585 2 10741 10744
10586 2 10741 10745
10587 2 10746 10747
10588 2 10746 10748
10589 2 10746 10749
10590 2 10746 10750
10591 2 10751 10752
10592 2 10751 10753
10593 2 10751 10754
10594 2 10751 10755
10595 2 10756 10757
10596 2 10756 10758
10597 2 10756 10759
10598 2 10756 10760
10599 2 10761 10762
10600 2 10761 10763
10601 2 10761 10764
10602 2 10761 10765
10603 2 10766 10767
10604 2 10766 10768
10605 2 10766 10769
10606 2 10766 10770
10607 2 10771 10772
10608 2 10771 10773
10609 2 10771 10774
10610 2 10771 10775
10611 2 10776 10777
10612 2 10776 10778
10613 2 10776 10779
10614 2 10776 10780
10615 2 10781 10782
10616 2 10781 10783
10617 2 10781 10784
10618 2 10781 10785
10619 2 10786 10787
10620 2 10786 10788
10621 2 10786 10789
10622 2 10786 10790
10623 2 10791 10792
10624 2 10791 10793
10625 2 10791 10794
10626 2 10791 10795
10627 2 10796 10797
10628 2 10796 10798
10629 2 10796 10799
10630 2 10796 10800
10631 2 10801 10802
10632 2 10801 10803
10633 2 10801 10804
10634 2 10801 10805
10635 2 10806 10807
10636 2 10806 10808
10637 2 10806 10809
10638 2 10806 10810
10639 2 10811 10812
10640 2 10811 10813
10641 2 10811 10814
10642 2 10811 10815
10643 2 10816 10817
10644 2 10816 10818
10645 2 10816 10819
10646 2 10816 10820
10647 2 10821 10822
10648 2 10821 10823
10649 2 10821 10824
10650 2 10821 10825
10651 2 10826 10827
10652 2 10826 10828
10653 2 10826 10829
10654 2 10826 10830
10655 2 10831 10832
10656 2 10831 10833
10657 2 10831 10834
10658 2 10831 10835
10659 2 10836 10837
10660 2 10836 10838
10661 2 10836 10839
10662 2 10836 10840
10663 2 10841 10842
10664 2 10841 10843
10665 2 10841 10844
10666 2 10841 10845
10667 2 10846 10847
10668 2 10846 10848
10669 2 10846 10849
10670 2 10846 10850
10671 2 10851 10852
10672 2 10851 10853
10673 2 10851 10854
10674 2 10851 10855
10675 2 10856 10857
10676 2 10856 10858
10677 2 10856 10859
10678 2 10856 10860
10679 2 10861 10862
10680 2 10861 10863
10681 2 10861 10864
10682 2 10861 10865
10683 2 10866 10867
10684 2 10866 10868
10685 2 10866 10869
10686 2 10866 10870
10687 2 10871 10872
10688 2 10871 10873
10689 2 10871 10874
10690 2 10871 10875
10691 2 10876 10877
10692 2 10876 10878
10693 2 10876 10879
10694 2 10876 10880
10695 2 10881 10882
10696 2 10881 10883
10697 2 10881 10884
10698 2 10881 10885
10699 2 10886 10887
10700 2 10886 10888
10701 2 10886 10889
10702 2 10886 10890
10703 2 10891 10892
10704 2 10891 10893
10705 2 10891 10894
10706 2 10891 10895
10707 2 10896 10897
10708 2 10896 10898
10709 2 10896 10899
10710 2 10896 10900
10711 2 10901 10902
10712 2 10901 10903
10713 2 10901 10904
10714 2 10901 10905
10715 2 10906 10907
10716 2 10906 10908
10717 2 10906 10909
10718 2 10906 10910
10719 2 10911 10912
10720 2 10911 10913
10721 2 10911 10914
10722 2 10911 10915
10723 2 10916 10917
10724 2 10916 10918
10725 2 10916 10919
10726 2 10916 10920
10727 2 10921 10922
10728 2 10921 10923
10729 2 10921 10924
10730 2 10921 10925
10731 2 10926 10927
10732 2 10926 10928
10733 2 10926 10929
10734 2 10926 10930
10735 2 10931 10932
10736 2 10931 10933
10737 2 10931 10934
10738 2 10931 10935
10739 2 10936 10937
10740 2 10936 10938
10741 2 10936 10939
10742 2 10936 10940
10743 2 10941 10942
10744 2 10941 10943
10745 2 10941 10944
10746 2 10941 10945
10747 2 10946 10947
10748 2 10946 10948
10749 2 10946 10949
10750 2 10946 10950
10751 2 10951 10952
10752 2 10951 10953
10753 2 10951 10954
10754 2 10951 10955
10755 2 10956 10957
10756 2 10956 10958
10757 2 10956 10959
10758 2 10956 10960
10759 2 10961 10962
10760 2 10961 10963
10761 2 10961 10964
10762 2 10961 10965
10763 2 10966 10967
10764 2 10966 10968
10765 2 10966 10969
10766 2 10966 10970
10767 2 10971 10972
10768 2 10971 10973
10769 2 10971 10974
10770 2 10971 10975
10771 2 10976 10977
10772 2 10976 10978
10773 2 10976 10979
10774 2 10976 10980
10775 2 10981 10982
10776 2 10981 10983
10777 2 10981 10984
10778 2 10981 10985
10779 2 10986 10987
10780 2 10986 10988
10781 2 10986 10989
10782 2 10986 10990
10783 2 10991 10992
10784 2 10991 10993
10785 2 10991 10994
10786 2 10991 10995
10787 2 10996 10997
10788 2 10996 10998
10789 2 10996 10999
10790 2 10996 11000
10791 2 11001 11002
10792 2 11001 11003
10793 2 11001 11004
10794 2 11001 11005
10795 2 11006 11007
10796 2 11006 11008
10797 2 11006 11009
10798 2 11006 11010
10799 2 11011 11012
10800 2 11011 11013
10801 2 11011 11014
10802 2 11011 11015
10803 2 11016 11017
10804 2 11016 11018
10805 2 11016 11019
10806 2 11016 11020
10807 2 11021 11022
10808 2 11021 11023
10809 2 11021 11024
10810 2 11021 11025
10811 2 11026 11027
10812 2 11026 11028
10813 2 11026 11029
10814 2 11026 11030
10815 2 11031 11032
10816 2 11031 11033
10817 2 11031 11034
10818 2 11031 11035
10819 2 11036 11037
10820 2 11036 11038
10821 2 11036 11039
10822 2 11036 11040
10823 2 11041 11042
10824 2 11041 11043
10825 2 11041 11044
10826 2 11041 11045
10827 2 11046 11047
10828 2 11046 11048
10829 2 11046 11049
10830 2 11046 11050
10831 2 11051 11052
10832 2 11051 11053
10833 2 11051 11054
10834 2 11051 11055
10835 2 11056 11057
10836 2 11056 11058
10837 2 11056 11059
10838 2 11056 11060
10839 2 11061 11062
10840 2 11061 11063
10841 2 11061 11064
10842 2 11061 11065
10843 2 11066 11067
10844 2 11066 11068
10845 2 11066 11069
10846 2 11066 11070
10847 2 11071 11072
10848 2 11071 11073
10849 2 11071 11074
10850 2 11071 11075
10851 2 11076 11077
10852 2 11076 11078
10853 2 11076 11079
10854 2 11076 11080
10855 2 11081 11082
10856 2 11081 11083
10857 2 11081 11084
10858 2 11081 11085
10859 2 11086 11087
10860 2 11086 11088
10861 2 11086 11089
10862 2 11086 11090
10863 2 11091 11092
10864 2 11091 11093
10865 2 11091 11094
10866 2 11091 11095
10867 2 11096 11097
10868 2 11096 11098
10869 2 11096 11099
10870 2 11096 11100
10871 2 11101 11102
10872 2 11101 11103
10873 2 11101 11104
10874 2 11101 11105
10875 2 11106 11107
10876 2 11106 11108
10877 2 11106 11109
10878 2 11106 11110
10879 2 11111 11112
10880 2 11111 11113
10881 2 11111 11114
10882 2 11111 11115
10883 2 11116 11117
10884 2 11116 11118
10885 2 11116 11119
10886 2 11116 11120
10887 2 11121 11122
10888 2 11121 11123
10889 2 11121 11124
10890 2 11121 11125
10891 2 11126 11127
10892 2 11126 11128
10893 2 11126 11129
10894 2 11126 11130
10895 2 11131 11132
10896 2 11131 11133
10897 2 11131 11134
10898 2 11131 11135
10899 2 11136 11137
10900 2 11136 11138
10901 2 11136 11139
10902 2 11136 11140
10903 2 11141 11142
10904 2 11141 11143
10905 2 11141 11144
10906 2 11141 11145
10907 2 11146 11147
10908 2 11146 11148
10909 2 11146 11149
10910 2 11146 11150
10911 2 11151 11152
10912 2 11151 11153
10913 2 11151 11154
10914 2 11151 11155
10915 2 11156 11157
10916 2 11156 11158
10917 2 11156 11159
10918 2 11156 11160
10919 2 11161 11162
10920 2 11161 11163
10921 2 11161 11164
10922 2 11161 11165
10923 2 11166 11167
10924 2 11166 11168
10925 2 11166 11169
10926 2 11166 11170
10927 2 11171 11172
10928 2 11171 11173
10929 2 11171 11174
10930 2 11171 11175
10931 2 11176 11177
10932 2 11176 11178
10933 2 11176 11179
10934 2 11176 11180
10935 2 11181 11182
10936 2 11181 11183
10937 2 11181 11184
10938 2 11181 11185
10939 2 11186 11187
10940 2 11186 11188
10941 2 11186 11189
10942 2 11186 11190
10943 2 11191 11192
10944 2 11191 11193
10945 2 11191 11194
10946 2 11191 11195
10947 2 11196 11197
10948 2 11196 11198
10949 2 11196 11199
10950 2 11196 11200
10951 2 11201 11202
10952 2 11201 11203
10953 2 11201 11204
10954 2 11201 11205
10955 2 11206 11207
10956 2 11206 11208
10957 2 11206 11209
10958 2 11206 11210
10959 2 11211 11212
10960 2 11211 11213
10961 2 11211 11214
10962 2 11211 11215
10963 2 11216 11217
10964 2 11216 11218
10965 2 11216 11219
10966 2 11216 11220
10967 2 11221 11222
10968 2 11221 11223
10969 2 11221 11224
10970 2 11221 11225
10971 2 11226 11227
10972 2 11226 11228
10973 2 11226 11229
10974 2 11226 11230
10975 2 11231 11232
10976 2 11231 11233
10977 2 11231 11234
10978 2 11231 11235
10979 2 11236 11237
10980 2 11236 11238
10981 2 11236 11239
10982 2 11236 11240
10983 2 11241 11242
10984 2 11241 11243
10985 2 11241 11244
10986 2 11241 11245
10987 2 11246 11247
10988 2 11246 11248
10989 2 11246 11249
10990 2 11246 11250
10991 2 11251 11252
10992 2 11251 11253
10993 2 11251 11254
10994 2 11251 11255
10995 2 11256 11257
10996 2 11256 11258
10997 2 11256 11259
10998 2 11256 11260
10999 2 11261 11262
11000 2 11261 11263
11001 2 11261 11264
11002 2 11261 11265
11003 2 11266 11267
11004 2 11266 11268
11005 2 11266 11269
11006 2 11266 11270
11007 2 11271 11272
11008 2 11271 11273
11009 2 11271 11274
11010 2 11271 11275
11011 2 11276 11277
11012 2 11276 11278
11013 2 11276 11279
11014 2 11276 11280
11015 2 11281 11282
11016 2 11281 11283
11017 2 11281 11284
11018 2 11281 11285
11019 2 11286 11287
11020 2 11286 11288
11021 2 11286 11289
11022 2 11286 11290
11023 2 11291 11292
11024 2 11291 11293
11025 2 11291 11294
11026 2 11291 11295
11027 2 11296 11297
11028 2 11296 11298
11029 2 11296 11299
11030 2 11296 11300
11031 2 11301 11302
11032 2 11301 11303
11033 2 11301 11304
11034 2 11301 11305
11035 2 11306 11307
11036 2 11306 11308
11037 2 11306 11309
11038 2 11306 11310
11039 2 11311 11312
11040 2 11311 11313
11041 2 11311 11314
11042 2 11311 11315
11043 2 11316 11317
11044 2 11316 11318
11045 2 11316 11319
11046 2 11316 11320
11047 2 11321 11322
11048 2 11321 11323
11049 2 11321 11324
11050 2 11321 11325
11051 2 11326 11327
11052 2 11326 11328
11053 2 11326 11329
11054 2 11326 11330
11055 2 11331 11332
11056 2 11331 11333
11057 2 11331 11334
11058 2 11331 11335
11059 2 11336 11337
11060 2 11336 11338
11061 2 11336 11339
11062 2 11336 11340
11063 2 11341 11342
11064 2 11341 11343
11065 2 11341 11344
11066 2 11341 11345
11067 2 11346 11347
11068 2 11346 11348
11069 2 11346 11349
11070 2 11346 11350
11071 2 11351 11352
11072 2 11351 11353
11073 2 11351 11354
11074 2 11351 11355
11075 2 11356 11357
11076 2 11356 11358
11077 2 11356 11359
11078 2 11356 11360
11079 2 11361 11362
11080 2 11361 11363
11081 2 11361 11364
11082 2 11361 11365
11083 2 11366 11367
11084 2 11366 11368
11085 2 11366 11369
11086 2 11366 11370
11087 2 11371 11372
11088 2 11371 11373
11089 2 11371 11374
11090 2 11371 11375
11091 2 11376 11377
11092 2 11376 11378
11093 2 11376 11379
11094 2 11376 11380
11095 2 11381 11382
11096 2 11381 11383
11097 2 11381 11384
11098 2 11381 11385
11099 2 11386 11387
11100 2 11386 11388
11101 2 11386 11389
11102 2 11386 11390
11103 2 11391 11392
11104 2 11391 11393
11105 2 11391 11394
11106 2 11391 11395
11107 2 11396 11397
11108 2 11396 11398
11109 2 11396 11399
11110 2 11396 11400
11111 2 11401 11402
11112 2 11401 11403
11113 2 11401 11404
11114 2 11401 11405
11115 2 11406 11407
11116 2 11406 11408
11117 2 11406 11409
11118 2 11406 11410
11119 2 11411 11412
11120 2 11411 11413
11121 2 11411 11414
11122 2 11411 11415
11123 2 11416 11417
11124 2 11416 11418
11125 2 11416 11419
11126 2 11416 11420
11127 2 11421 11422
11128 2 11421 11423
11129 2 11421 11424
11130 2 11421 11425
11131 2 11426 11427
11132 2 11426 11428
11133 2 11426 11429
11134 2 11426 11430
11135 2 11431 11432
11136 2 11431 11433
11137 2 11431 11434
11138 2 11431 11435
11139 2 11436 11437
11140 2 11436 11438
11141 2 11436 11439
11142 2 11436 11440
11143 2 11441 11442
11144 2 11441 11443
11145 2 11441 11444
11146 2 11441 11445
11147 2 11446 11447
11148 2 11446 11448
11149 2 11446 11449
11150 2 11446 11450
11151 2 11451 11452
11152 2 11451 11453
11153 2 11451 11454
11154 2 11451 11455
11155 2 11456 11457
11156 2 11456 11458
11157 2 11456 11459
11158 2 11456 11460
11159 2 11461 11462
11160 2 11461 11463
11161 2 11461 11464
11162 2 11461 11465
11163 2 11466 11467
11164 2 11466 11468
11165 2 11466 11469
11166 2 11466 11470
11167 2 11471 11472
11168 2 11471 11473
11169 2 11471 11474
11170 2 11471 11475
11171 2 11476 11477
11172 2 11476 11478
11173 2 11476 11479
11174 2 11476 11480
11175 2 11481 11482
11176 2 11481 11483
11177 2 11481 11484
11178 2 11481 11485
11179 2 11486 11487
11180 2 11486 11488
11181 2 11486 11489
11182 2 11486 11490
11183 2 11491 11492
11184 2 11491 11493
11185 2 11491 11494
11186 2 11491 11495
11187 2 11496 11497
11188 2 11496 11498
11189 2 11496 11499
11190 2 11496 11500
11191 2 11501 11502
11192 2 11501 11503
11193 2 11501 11504
11194 2 11501 11505
11195 2 11506 11507
11196 2 11506 11508
11197 2 11506 11509
11198 2 11506 11510
11199 2 11511 11512
11200 2 11511 11513
11201 2 11511 11514
11202 2 11511 11515
11203 2 11516 11517
11204 2 11516 11518
11205 2 11516 11519
11206 2 11516 11520
11207 2 11521 11522
11208 2 11521 11523
11209 2 11521 11524
11210 2 11521 11525
11211 2 11526 11527
11212 2 11526 11528
11213 2 11526 11529
11214 2 11526 11530
11215 2 11531 11532
11216 2 11531 11533
11217 2 11531 11534
11218 2 11531 11535
11219 2 11536 11537
11220 2 11536 11538
11221 2 11536 11539
11222 2 11536 11540
11223 2 11541 11542
11224 2 11541 11543
11225 2 11541 11544
11226 2 11541 11545
11227 2 11546 11547
11228 2 11546 11548
11229 2 11546 11549
11230 2 11546 11550
11231 2 11551 11552
11232 2 11551 11553
11233 2 11551 11554
11234 2 11551 11555
11235 2 11556 11557
11236 2 11556 11558
11237 2 11556 11559
11238 2 11556 11560
11239 2 11561 11562
11240 2 11561 11563
11241 2 11561 11564
11242 2 11561 11565
11243 2 11566 11567
11244 2 11566 11568
11245 2 11566 11569
11246 2 11566 11570
11247 2 11571 11572
11248 2 11571 11573
11249 2 11571 11574
11250 2 11571 11575
11251 2 11576 11577
11252 2 11576 11578
11253 2 11576 11579
11254 2 11576 11580
11255 2 11581 11582
11256 2 11581 11583
11257 2 11581 11584
11258 2 11581 11585
11259 2 11586 11587
11260 2 11586 11588
11261 2 11586 11589
11262 2 11586 11590
11263 2 11591 11592
11264 2 11591 11593
11265 2 11591 11594
11266 2 11591 11595
11267 2 11596 11597
11268 2 11596 11598
11269 2 11596 11599
11270 2 11596 11600
11271 2 11601 11602
11272 2 11601 11603
11273 2 11601 11604
11274 2 11601 11605
11275 2 11606 11607
11276 2 11606 11608
11277 2 11606 11609
11278 2 11606 11610
11279 2 11611 11612
11280 2 11611 11613
11281 2 11611 11614
11282 2 11611 11615
11283 2 11616 11617
11284 2 11616 11618
11285 2 11616 11619
11286 2 11616 11620
11287 2 11621 11622
11288 2 11621 11623
11289 2 11621 11624
11290 2 11621 11625
11291 2 11626 11627
11292 2 11626 11628
11293 2 11626 11629
11294 2 11626 11630
11295 2 11631 11632
11296 2 11631 11633
11297 2 11631 11634
11298 2 11631 11635
11299 2 11636 11637
11300 2 11636 11638
11301 2 11636 11639
11302 2 11636 11640
11303 2 11641 11642
11304 2 11641 11643
11305 2 11641 11644
11306 2 11641 11645
11307 2 11646 11647
11308 2 11646 11648
11309 2 11646 11649
11310 2 11646 11650
11311 2 11651 11652
11312 2 11651 11653
11313 2 11651 11654
11314 2 11651 11655
11315 2 11656 11657
11316 2 11656 11658
11317 2 11656 11659
11318 2 11656 11660
11319 2 11661 11662
11320 2 11661 11663
11321 2 11661 11664
11322 2 11661 11665
11323 2 11666 11667
11324 2 11666 11668
11325 2 11666 11669
11326 2 11666 11670
11327 2 11671 11672
11328 2 11671 11673
11329 2 11671 11674
11330 2 11671 11675
11331 2 11676 11677
11332 2 11676 11678
11333 2 11676 11679
11334 2 11676 11680
11335 2 11681 11682
11336 2 11681 11683
11337 2 11681 11684
11338 2 11681 11685
11339 2 11686 11687
11340 2 11686 11688
11341 2 11686 11689
11342 2 11686 11690
11343 2 11691 11692
11344 2 11691 11693
11345 2 11691 11694
11346 2 11691 11695
11347 2 11696 11697
11348 2 11696 11698
11349 2 11696 11699
11350 2 11696 11700
11351 2 11701 11702
11352 2 11701 11703
11353 2 11701 11704
11354 2 11701 11705
11355 2 11706 11707
11356 2 11706 11708
11357 2 11706 11709
11358 2 11706 11710
11359 2 11711 11712
11360 2 11711 11713
11361 2 11711 11714
11362 2 11711 11715
11363 2 11716 11717
11364 2 11716 11718
11365 2 11716 11719
11366 2 11716 11720
11367 2 11721 11722
11368 2 11721 11723
11369 2 11721 11724
11370 2 11721 11725
11371 2 11726 11727
11372 2 11726 11728
11373 2 11726 11729
11374 2 11726 11730
11375 2 11731 11732
11376 2 11731 11733
11377 2 11731 11734
11378 2 11731 11735
11379 2 11736 11737
11380 2 11736 11738
11381 2 11736 11739
11382 2 11736 11740
11383 2 11741 11742
11384 2 11741 11743
11385 2 11741 11744
11386 2 11741 11745
11387 2 11746 11747
11388 2 11746 11748
11389 2 11746 11749
11390 2 11746 11750
11391 2 11751 11752
11392 2 11751 11753
11393 2 11751 11754
11394 2 11751 11755
11395 2 11756 11757
11396 2 11756 11758
11397 2 11756 11759
11398 2 11756 11760
11399 2 11761 11762
11400 2 11761 11763
11401 2 11761 11764
11402 2 11761 11765
11403 2 11766 11767
11404 2 11766 11768
11405 2 11766 11769
11406 2 11766 11770
11407 2 11771 11772
11408 2 11771 11773
11409 2 11771 11774
11410 2 11771 11775
11411 2 11776 11777
11412 2 11776 11778
11413 2 11776 11779
11414 2 11776 11780
11415 2 11781 11782
11416 2 11781 11783
11417 2 11781 11784
11418 2 11781 11785
11419 2 11786 11787
11420 2 11786 11788
11421 2 11786 11789
11422 2 11786 11790
11423 2 11791 11792
11424 2 11791 11793
11425 2 11791 11794
11426 2 11791 11795
11427 2 11796 11797
11428 2 11796 11798
11429 2 11796 11799
11430 2 11796 11800
11431 2 11801 11802
11432 2 11801 11803
11433 2 11801 11804
11434 2 11801 11805
11435 2 11806 11807
11436 2 11806 11808
11437 2 11806 11809
11438 2 11806 11810
11439 2 11811 11812
11440 2 11811 11813
11441 2 11811 11814
11442 2 11811 11815
11443 2 11816 11817
11444 2 11816 11818
11445 2 11816 11819
11446 2 11816 11820
11447 2 11821 11822
11448 2 11821 11823
11449 2 11821 11824
11450 2 11821 11825
11451 2 11826 11827
11452 2 11826 11828
11453 2 11826 11829
11454 2 11826 11830
11455 2 11831 11832
11456 2 11831 11833
11457 2 11831 11834
11458 2 11831 11835
11459 2 11836 11837
11460 2 11836 11838
11461 2 11836 11839
11462 2 11836 11840
11463 2 11841 11842
11464 2 11841 11843
11465 2 11841 11844
11466 2 11841 11845
11467 2 11846 11847
11468 2 11846 11848
11469 2 11846 11849
11470 2 11846 11850
11471 2 11851 11852
11472 2 11851 11853
11473 2 11851 11854
11474 2 11851 11855
11475 2 11856 11857
11476 2 11856 11858
11477 2 11856 11859
11478 2 11856 11860
11479 2 11861 11862
11480 2 11861 11863
11481 2 11861 11864
11482 2 11861 11865
11483 2 11866 11867
11484 2 11866 11868
11485 2 11866 11869
11486 2 11866 11870
11487 2 11871 11872
11488 2 11871 11873
11489 2 11871 11874
11490 2 11871 11875
11491 2 11876 11877
11492 2 11876 11878
11493 2 11876 11879
11494 2 11876 11880
11495 2 11881 11882
11496 2 11881 11883
11497 2 11881 11884
11498 2 11881 11885
11499 2 11886 11887
11500 2 11886 11888
11501 2 11886 11889
11502 2 11886 11890
11503 2 11891 11892
11504 2 11891 11893
11505 2 11891 11894
11506 2 11891 11895
11507 2 11896 11897
11508 2 11896 11898
11509 2 11896 11899
11510 2 11896 11900
11511 2 11901 11902
11512 2 11901 11903
11513 2 11901 11904
11514 2 11901 11905
11515 2 11906 11907
11516 2 11906 11908
11517 2 11906 11909
11518 2 11906 11910
11519 2 11911 11912
11520 2 11911 11913
11521 2 11911 11914
11522 2 11911 11915
11523 2 11916 11917
11524 2 11916 11918
11525 2 11916 11919
11526 2 11916 11920
11527 2 11921 11922
11528 2 11921 11923
11529 2 11921 11924
11530 2 11921 11925
11531 2 11926 11927
11532 2 11926 11928
11533 2 11926 11929
11534 2 11926 11930
11535 2 11931 11932
11536 2 11931 11933
11537 2 11931 11934
11538 2 11931 11935
11539 2 11936 11937
11540 2 11936 11938
11541 2 11936 11939
11542 2 11936 11940
11543 2 11941 11942
11544 2 11941 11943
11545 2 11941 11944
11546 2 11941 11945
11547 2 11946 11947
11548 2 11946 11948
11549 2 11946 11949
11550 2 11946 11950
11551 2 11951 11952
11552 2 11951 11953
11553 2 11951 11954
11554 2 11951 11955
11555 2 11956 11957
11556 2 11956 11958
11557 2 11956 11959
11558 2 11956 11960
11559 2 11961 11962
11560 2 11961 11963
11561 2 11961 11964
11562 2 11961 11965
11563 2 11966 11967
11564 2 11966 11968
11565 2 11966 11969
11566 2 11966 11970
11567 2 11971 11972
11568 2 11971 11973
11569 2 11971 11974
11570 2 11971 11975
11571 2 11976 11977
11572 2 11976 11978
11573 2 11976 11979
11574 2 11976 11980
11575 2 11981 11982
11576 2 11981 11983
11577 2 11981 11984
11578 2 11981 11985
11579 2 11986 11987
11580 2 11986 11988
11581 2 11986 11989
11582 2 11986 11990
11583 2 11991 11992
11584 2 11991 11993
11585 2 11991 11994
11586 2 11991 11995
11587 2 11996 11997
11588 2 11996 11998
11589 2 11996 11999
11590 2 11996 12000
11591 2 12001 12002
11592 2 12001 12003
11593 2 12001 12004
11594 2 12001 12005
11595 2 12006 12007
11596 2 12006 12008
11597 2 12006 12009
11598 2 12006 12010
11599 2 12011 12012
11600 2 12011 12013
11601 2 12011 12014
11602 2 12011 12015
11603 2 12016 12017
11604 2 12016 12018
11605 2 12016 12019
11606 2 12016 12020
11607 2 12021 12022
11608 2 12021 12023
11609 2 12021 12024
11610 2 12021 12025
11611 2 12026 12027
11612 2 12026 12028
11613 2 12026 12029
11614 2 12026 12030
11615 2 12031 12032
11616 2 12031 12033
11617 2 12031 12034
11618 2 12031 12035
11619 2 12036 12037
11620 2 12036 12038
11621 2 12036 12039
11622 2 12036 12040
11623 2 12041 12042
11624 2 12041 12043
11625 2 12041 12044
11626 2 12041 12045
11627 2 12046 12047
11628 2 12046 12048
11629 2 12046 12049
11630 2 12046 12050
11631 2 12051 12052
11632 2 12051 12053
11633 2 12051 12054
11634 2 12051 12055
11635 2 12056 12057
11636 2 12056 12058
11637 2 12056 12059
11638 2 12056 12060
11639 2 12061 12062
11640 2 12061 12063
11641 2 12061 12064
11642 2 12061 12065
11643 2 12066 12067
11644 2 12066 12068
11645 2 12066 12069
11646 2 12066 12070
11647 2 12071 12072
11648 2 12071 12073
11649 2 12071 12074
11650 2 12071 12075
11651 2 12076 12077
11652 2 12076 12078
11653 2 12076 12079
11654 2 12076 12080
11655 2 12081 12082
11656 2 12081 12083
11657 2 12081 12084
11658 2 12081 12085
11659 2 12086 12087
11660 2 12086 12088
11661 2 12086 12089
11662 2 12086 12090
11663 2 12091 12092
11664 2 12091 12093
11665 2 12091 12094
11666 2 12091 12095
11667 2 12096 12097
11668 2 12096 12098
11669 2 12096 12099
11670 2 12096 12100
11671 2 12101 12102
11672 2 12101 12103
11673 2 12101 12104
11674 2 12101 12105
11675 2 12106 12107
11676 2 12106 12108
11677 2 12106 12109
11678 2 12106 12110
11679 2 12111 12112
11680 2 12111 12113
11681 2 12111 12114
11682 2 12111 12115
11683 2 12116 12117
11684 2 12116 12118
11685 2 12116 12119
11686 2 12116 12120
11687 2 12121 12122
11688 2 12121 12123
11689 2 12121 12124
11690 2 12121 12125
11691 2 12126 12127
11692 2 12126 12128
11693 2 12126 12129
11694 2 12126 12130
11695 2 12131 12132
11696 2 12131 12133
11697 2 12131 12134
11698 2 12131 12135
11699 2 12136 12137
11700 2 12136 12138
11701 2 12136 12139
11702 2 12136 12140
11703 2 12141 12142
11704 2 12141 12143
11705 2 12141 12144
11706 2 12141 12145
11707 2 12146 12147
11708 2 12146 12148
11709 2 12146 12149
11710 2 12146 12150
11711 2 12151 12152
11712 2 12151 12153
11713 2 12151 12154
11714 2 12151 12155
11715 2 12156 12157
11716 2 12156 12158
11717 2 12156 12159
11718 2 12156 12160
11719 2 12161 12162
11720 2 12161 12163
11721 2 12161 12164
11722 2 12161 12165
11723 2 12166 12167
11724 2 12166 12168
11725 2 12166 12169
11726 2 12166 12170
11727 2 12171 12172
11728 2 12171 12173
11729 2 12171 12174
11730 2 12171 12175
11731 2 12176 12177
11732 2 12176 12178
11733 2 12176 12179
11734 2 12176 12180
11735 2 12181 12182
11736 2 12181 12183
11737 2 12181 12184
11738 2 12181 12185
11739 2 12186 12187
11740 2 12186 12188
11741 2 12186 12189
11742 2 12186 12190
11743 2 12191 12192
11744 2 12191 12193
11745 2 12191 12194
11746 2 12191 12195
11747 2 12196 12197
11748 2 12196 12198
11749 2 12196 12199
11750 2 12196 12200
11751 2 12201 12202
11752 2 12201 12203
11753 2 12201 12204
11754 2 12201 12205
11755 2 12206 12207
11756 2 12206 12208
11757 2 12206 12209
11758 2 12206 12210
11759 2 12211 12212
11760 2 12211 12213
11761 2 12211 12214
11762 2 12211 12215
11763 2 12216 12217
11764 2 12216 12218
11765 2 12216 12219
11766 2 12216 12220
11767 2 12221 12222
11768 2 12221 12223
11769 2 12221 12224
11770 2 12221 12225
11771 2 12226 12227
11772 2 12226 12228
11773 2 12226 12229
11774 2 12226 12230
11775 2 12231 12232
11776 2 12231 12233
11777 2 12231 12234
11778 2 12231 12235
11779 2 12236 12237
11780 2 12236 12238
11781 2 12236 12239
11782 2 12236 12240
11783 2 12241 12242
11784 2 12241 12243
11785 2 12241 12244
11786 2 12241 12245
11787 2 12246 12247
11788 2 12246 12248
11789 2 12246 12249
11790 2 12246 12250
11791 2 12251 12252
11792 2 12251 12253
11793 2 12251 12254
11794 2 12251 12255
11795 2 12256 12257
11796 2 12256 12258
11797 2 12256 12259
11798 2 12256 12260
11799 2 12261 12262
11800 2 12261 12263
11801 2 12261 12264
11802 2 12261 12265
11803 2 12266 12267
11804 2 12266 12268
11805 2 12266 12269
11806 2 12266 12270
11807 2 12271 12272
11808 2 12271 12273
11809 2 12271 12274
11810 2 12271 12275
11811 2 12276 12277
11812 2 12276 12278
11813 2 12276 12279
11814 2 12276 12280
11815 2 12281 12282
11816 2 12281 12283
11817 2 12281 12284
11818 2 12281 12285
11819 2 12286 12287
11820 2 12286 12288
11821 2 12286 12289
11822 2 12286 12290
11823 2 12291 12292
11824 2 12291 12293
11825 2 12291 12294
11826 2 12291 12295
11827 2 12296 12297
11828 2 12296 12298
11829 2 12296 12299
11830 2 12296 12300
11831 2 12301 12302
11832 2 12301 12303
11833 2 12301 12304
11834 2 12301 12305
11835 2 12306 12307
11836 2 12306 12308
11837 2 12306 12309
11838 2 12306 12310
11839 2 12311 12312
11840 2 12311 12313
11841 2 12311 12314
11842 2 12311 12315
11843 2 12316 12317
11844 2 12316 12318
11845 2 12316 12319
11846 2 12316 12320
11847 2 12321 12322
11848 2 12321 12323
11849 2 12321 12324
11850 2 12321 12325
11851 2 12326 12327
11852 2 12326 12328
11853 2 12326 12329
11854 2 12326 12330
11855 2 12331 12332
11856 2 12331 12333
11857 2 12331 12334
11858 2 12331 12335
11859 2 12336 12337
11860 2 12336 12338
11861 2 12336 12339
11862 2 12336 12340
11863 2 12341 12342
11864 2 12341 12343
11865 2 12341 12344
11866 2 12341 12345
11867 2 12346 12347
11868 2 12346 12348
11869 2 12346 12349
11870 2 12346 12350
11871 2 12351 12352
11872 2 12351 12353
11873 2 12351 12354
11874 2 12351 12355
11875 2 12356 12357
11876 2 12356 12358
11877 2 12356 12359
11878 2 12356 12360
11879 2 12361 12362
11880 2 12361 12363
11881 2 12361 12364
11882 2 12361 12365
11883 2 12366 12367
11884 2 12366 12368
11885 2 12366 12369
11886 2 12366 12370
11887 2 12371 12372
11888 2 12371 12373
11889 2 12371 12374
11890 2 12371 12375
11891 2 12376 12377
11892 2 12376 12378
11893 2 12376 12379
11894 2 12376 12380
11895 2 12381 12382
11896 2 12381 12383
11897 2 12381 12384
11898 2 12381 12385
11899 2 12386 12387
11900 2 12386 12388
11901 2 12386 12389
11902 2 12386 12390
11903 2 12391 12392
11904 2 12391 12393
11905 2 12391 12394
11906 2 12391 12395
11907 2 12396 12397
11908 2 12396 12398
11909 2 12396 12399
11910 2 12396 12400
11911 2 12401 12402
11912 2 12401 12403
11913 2 12401 12404
11914 2 12401 12405
11915 2 12406 12407
11916 2 12406 12408
11917 2 12406 12409
11918 2 12406 12410
11919 2 12411 12412
11920 2 12411 12413
11921 2 12411 12414
11922 2 12411 12415
11923 2 12416 12417
11924 2 12416 12418
11925 2 12416 12419
11926 2 12416 12420
11927 2 12421 12422
11928 2 12421 12423
11929 2 12421 12424
11930 2 12421 12425
11931 2 12426 12427
11932 2 12426 12428
11933 2 12426 12429
11934 2 12426 12430
11935 2 12431 12432
11936 2 12431 12433
11937 2 12431 12434
11938 2 12431 12435
11939 2 12436 12437
11940 2 12436 12438
11941 2 12436 12439
11942 2 12436 12440
11943 2 12441 12442
11944 2 12441 12443
11945 2 12441 12444
11946 2 12441 12445
11947 2 12446 12447
11948 2 12446 12448
11949 2 12446 12449
11950 2 12446 12450
11951 2 12451 12452
11952 2 12451 12453
11953 2 12451 12454
11954 2 12451 12455
11955 2 12456 12457
11956 2 12456 12458
11957 2 12456 12459
11958 2 12456 12460
11959 2 12461 12462
11960 2 12461 12463
11961 2 12461 12464
11962 2 12461 12465
11963 2 12466 12467
11964 2 12466 12468
11965 2 12466 12469
11966 2 12466 12470
11967 2 12471 12472
11968 2 12471 12473
11969 2 12471 12474
11970 2 12471 12475
11971 2 12476 12477
11972 2 12476 12478
11973 2 12476 12479
11974 2 12476 12480
11975 2 12481 12482
11976 2 12481 12483
11977 2 12481 12484
11978 2 12481 12485
11979 2 12486 12487
11980 2 12486 12488
11981 2 12486 12489
11982 2 12486 12490
11983 2 12491 12492
11984 2 12491 12493
11985 2 12491 12494
11986 2 12491 12495
11987 2 12496 12497
11988 2 12496 12498
11989 2 12496 12499
11990 2 12496 12500
11991 2 12501 12502
11992 2 12501 12503
11993 2 12501 12504
11994 2 12501 12505
11995 2 12506 12507
11996 2 12506 12508
11997 2 12506 12509
11998 2 12506 12510
11999 2 12511 12512
12000 2 12511 12513
12001 2 12511 12514
12002 2 12511 12515
12003 2 12516 12517
12004 2 12516 12518
12005 2 12516 12519
12006 2 12516 12520
12007 2 12521 12522
12008 2 12521 12523
12009 2 12521 12524
12010 2 12521 12525
12011 2 12526 12527
12012 2 12526 12528
12013 2 12526 12529
12014 2 12526 12530
12015 2 12531 12532
12016 2 12531 12533
12017 2 12531 12534
12018 2 12531 12535
12019 2 12536 12537
12020 2 12536 12538
12021 2 12536 12539
12022 2 12536 12540
12023 2 12541 12542
12024 2 12541 12543
12025 2 12541 12544
12026 2 12541 12545
12027 2 12546 12547
12028 2 12546 12548
12029 2 12546 12549
12030 2 12546 12550
12031 2 12551 12552
12032 2 12551 12553
12033 2 12551 12554
12034 2 12551 12555
12035 2 12556 12557
12036 2 12556 12558
12037 2 12556 12559
12038 2 12556 12560
12039 2 12561 12562
12040 2 12561 12563
12041 2 12561 12564
12042 2 12561 12565
12043 2 12566 12567
12044 2 12566 12568
12045 2 12566 12569
12046 2 12566 12570
12047 2 12571 12572
12048 2 12571 12573
12049 2 12571 12574
12050 2 12571 12575
12051 2 12576 12577
12052 2 12576 12578
12053 2 12576 12579
12054 2 12576 12580
12055 2 12581 12582
12056 2 12581 12583
12057 2 12581 12584
12058 2 12581 12585
12059 2 12586 12587
12060 2 12586 12588
12061 2 12586 12589
12062 2 12586 12590
12063 2 12591 12592
12064 2 12591 12593
12065 2 12591 12594
12066 2 12591 12595
12067 2 12596 12597
12068 2 12596 12598
12069 2 12596 12599
12070 2 12596 12600
12071 2 12601 12602
12072 2 12601 12603
12073 2 12601 12604
12074 2 12601 12605
12075 2 12606 12607
12076 2 12606 12608
12077 2 12606 12609
12078 2 12606 12610
12079 2 12611 12612
12080 2 12611 12613
12081 2 12611 12614
12082 2 12611 12615
12083 2 12616 12617
12084 2 12616 12618
12085 2 12616 12619
12086 2 12616 12620
12087 2 12621 12622
12088 2 12621 12623
12089 2 12621 12624
12090 2 12621 12625
12091 2 12626 12627
12092 2 12626 12628
12093 2 12626 12629
12094 2 12626 12630
12095 2 12631 12632
12096 2 12631 12633
12097 2 12631 12634
12098 2 12631 12635
12099 2 12636 12637
12100 2 12636 12638
12101 2 12636 12639
12102 2 12636 12640
12103 2 12641 12642
12104 2 12641 12643
12105 2 12641 12644
12106 2 12641 12645
12107 2 12646 12647
12108 2 12646 12648
12109 2 12646 12649
12110 2 12646 12650
12111 2 12651 12652
12112 2 12651 12653
12113 2 12651 12654
12114 2 12651 12655
12115 2 12656 12657
12116 2 12656 12658
12117 2 12656 12659
12118 2 12656 12660
12119 2 12661 12662
12120 2 12661 12663
12121 2 12661 12664
12122 2 12661 12665
12123 2 12666 12667
12124 2 12666 12668
12125 2 12666 12669
12126 2 12666 12670
12127 2 12671 12672
12128 2 12671 12673
12129 2 12671 12674
12130 2 12671 12675
12131 2 12676 12677
12132 2 12676 12678
12133 2 12676 12679
12134 2 12676 12680
12135 2 12681 12682
12136 2 12681 12683
12137 2 12681 12684
12138 2 12681 12685
12139 2 12686 12687
12140 2 12686 12688
12141 2 12686 12689
12142 2 12686 12690
12143 2 12691 12692
12144 2 12691 12693
12145 2 12691 12694
12146 2 12691 12695
12147 2 12696 12697
12148 2 12696 12698
12149 2 12696 12699
12150 2 12696 12700
12151 2 12701 12702
12152 2 12701 12703
12153 2 12701 12704
12154 2 12701 12705
12155 2 12706 12707
12156 2 12706 12708
12157 2 12706 12709
12158 2 12706 12710
12159 2 12711 12712
12160 2 12711 12713
12161 2 12711 12714
12162 2 12711 12715
12163 2 12716 12717
12164 2 12716 12718
12165 2 12716 12719
12166 2 12716 12720
12167 2 12721 12722
12168 2 12721 12723
12169 2 12721 12724
12170 2 12721 12725
12171 2 12726 12727
12172 2 12726 12728
12173 2 12726 12729
12174 2 12726 12730
12175 2 12731 12732
12176 2 12731 12733
12177 2 12731 12734
12178 2 12731 12735
12179 2 12736 12737
12180 2 12736 12738
12181 2 12736 12739
12182 2 12736 12740
12183 2 12741 12742
12184 2 12741 12743
12185 2 12741 12744
12186 2 12741 12745
12187 2 12746 12747
12188 2 12746 12748
12189 2 12746 12749
12190 2 12746 12750
12191 2 12751 12752
12192 2 12751 12753
12193 2 12751 12754
12194 2 12751 12755
12195 2 12756 12757
12196 2 12756 12758
12197 2 12756 12759
12198 2 12756 12760
12199 2 12761 12762
12200 2 12761 12763
12201 2 12761 12764
12202 2 12761 12765
12203 2 12766 12767
12204 2 12766 12768
12205 2 12766 12769
12206 2 12766 12770
12207 2 12771 12772
12208 2 12771 12773
12209 2 12771 12774
12210 2 12771 12775
12211 2 12776 12777
12212 2 12776 12778
12213 2 12776 12779
12214 2 12776 12780
12215 2 12781 12782
12216 2 12781 12783
12217 2 12781 12784
12218 2 12781 12785
12219 2 12786 12787
12220 2 12786 12788
12221 2 12786 12789
12222 2 12786 12790
12223 2 12791 12792
12224 2 12791 12793
12225 2 12791 12794
12226 2 12791 12795
12227 2 12796 12797
12228 2 12796 12798
12229 2 12796 12799
12230 2 12796 12800
12231 2 12801 12802
12232 2 12801 12803
12233 2 12801 12804
12234 2 12801 12805
12235 2 12806 12807
12236 2 12806 12808
12237 2 12806 12809
12238 2 12806 12810
12239 2 12811 12812
12240 2 12811 12813
12241 2 12811 12814
12242 2 12811 12815
12243 2 12816 12817
12244 2 12816 12818
12245 2 12816 12819
12246 2 12816 12820
12247 2 12821 12822
12248 2 12821 12823
12249 2 12821 12824
12250 2 12821 12825
12251 2 12826 12827
12252 2 12826 12828
12253 2 12826 12829
12254 2 12826 12830
12255 2 12831 12832
12256 2 12831 12833
12257 2 12831 12834
12258 2 12831 12835
12259 2 12836 12837
12260 2 12836 12838
12261 2 12836 12839
12262 2 12836 12840
12263 2 12841 12842
12264 2 12841 12843
12265 2 12841 12844
12266 2 12841 12845
12267 2 12846 12847
12268 2 12846 12848
12269 2 12846 12849
12270 2 12846 12850
12271 2 12851 12852
12272 2 12851 12853
12273 2 12851 12854
12274 2 12851 12855
12275 2 12856 12857
12276 2 12856 12858
12277 2 12856 12859
12278 2 12856 12860
12279 2 12861 12862
12280 2 12861 12863
12281 2 12861 12864
12282 2 12861 12865
12283 2 12866 12867
12284 2 12866 12868
12285 2 12866 12869
12286 2 12866 12870
12287 2 12871 12872
12288 2 12871 12873
12289 2 12871 12874
12290 2 12871 12875
12291 2 12876 12877
12292 2 12876 12878
12293 2 12876 12879
12294 2 12876 12880
12295 2 12881 12882
12296 2 12881 12883
12297 2 12881 12884
12298 2 12881 12885
12299 2 12886 12887
12300 2 12886 12888
12301 2 12886 12889
12302 2 12886 12890
12303 2 12891 12892
12304 2 12891 12893
12305 2 12891 12894
12306 2 12891 12895
12307 2 12896 12897
12308 2 12896 12898
12309 2 12896 12899
12310 2 12896 12900
12311 2 12901 12902
12312 2 12901 12903
12313 2 12901 12904
12314 2 12901 12905
12315 2 12906 12907
12316 2 12906 12908
12317 2 12906 12909
12318 2 12906 12910
12319 2 12911 12912
12320 2 12911 12913
12321 2 12911 12914
12322 2 12911 12915
12323 2 12916 12917
12324 2 12916 12918
12325 2 12916 12919
12326 2 12916 12920
12327 2 12921 12922
12328 2 12921 12923
12329 2 12921 12924
12330 2 12921 12925
12331 2 12926 12927
12332 2 12926 12928
12333 2 12926 12929
12334 2 12926 12930
12335 2 12931 12932
12336 2 12931 12933
12337 2 12931 12934
12338 2 12931 12935
12339 2 12936 12937
12340 2 12936 12938
12341 2 12936 12939
12342 2 12936 12940
12343 2 12941 12942
12344 2 12941 12943
12345 2 12941 12944
12346 2 12941 12945
12347 2 12946 12947
12348 2 12946 12948
12349 2 12946 12949
12350 2 12946 12950
12351 2 12951 12952
12352 2 12951 12953
12353 2 12951 12954
12354 2 12951 12955
12355 2 12956 12957
12356 2 12956 12958
12357 2 12956 12959
12358 2 12956 12960
12359 2 12961 12962
12360 2 12961 12963
12361 2 12961 12964
12362 2 12961 12965
12363 2 12966 12967
12364 2 12966 12968
12365 2 12966 12969
12366 2 12966 12970
12367 2 12971 12972
12368 2 12971 12973
12369 2 12971 12974
12370 2 12971 12975
12371 2 12976 12977
12372 2 12976 12978
12373 2 12976 12979
12374 2 12976 12980
12375 2 12981 12982
12376 2 12981 12983
12377 2 12981 12984
12378 2 12981 12985
12379 2 12986 12987
12380 2 12986 12988
12381 2 12986 12989
12382 2 12986 12990
12383 2 12991 12992
12384 2 12991 12993
12385 2 12991 12994
12386 2 12991 12995
12387 2 12996 12997
12388 2 12996 12998
12389 2 12996 12999
12390 2 12996 13000
12391 2 13001 13002
12392 2 13001 13003
12393 2 13001 13004
12394 2 13001 13005
12395 2 13006 13007
12396 2 13006 13008
12397 2 13006 13009
12398 2 13006 13010
12399 2 13011 13012
12400 2 13011 13013
12401 2 13011 13014
12402 2 13011 13015
12403 2 13016 13017
12404 2 13016 13018
12405 2 13016 13019
12406 2 13016 13020
12407 2 13021 13022
12408 2 13021 13023
12409 2 13021 13024
12410 2 13021 13025
12411 2 13026 13027
12412 2 13026 13028
12413 2 13026 13029
12414 2 13026 13030
12415 2 13031 13032
12416 2 13031 13033
12417 2 13031 13034
12418 2 13031 13035
12419 2 13036 13037
12420 2 13036 13038
12421 2 13036 13039
12422 2 13036 13040
12423 2 13041 13042
12424 2 13041 13043
12425 2 13041 13044
12426 2 13041 13045
12427 2 13046 13047
12428 2 13046 13048
12429 2 13046 13049
12430 2 13046 13050
12431 2 13051 13052
12432 2 13051 13053
12433 2 13051 13054
12434 2 13051 13055
12435 2 13056 13057
12436 2 13056 13058
12437 2 13056 13059
12438 2 13056 13060
12439 2 13061 13062
12440 2 13061 13063
12441 2 13061 13064
12442 2 13061 13065
12443 2 13066 13067
12444 2 13066 13068
12445 2 13066 13069
12446 2 13066 13070
12447 2 13071 13072
12448 2 13071 13073
12449 2 13071 13074
12450 2 13071 13075
12451 2 13076 13077
12452 2 13076 13078
12453 2 13076 13079
12454 2 13076 13080
12455 2 13081 13082
12456 2 13081 13083
12457 2 13081 13084
12458 2 13081 13085
12459 2 13086 13087
12460 2 13086 13088
12461 2 13086 13089
12462 2 13086 13090
12463 2 13091 13092
12464 2 13091 13093
12465 2 13091 13094
12466 2 13091 13095
12467 2 13096 13097
12468 2 13096 13098
12469 2 13096 13099
12470 2 13096 13100
12471 2 13101 13102
12472 2 13101 13103
12473 2 13101 13104
12474 2 13101 13105
12475 2 13106 13107
12476 2 13106 13108
12477 2 13106 13109
12478 2 13106 13110
12479 2 13111 13112
12480 2 13111 13113
12481 2 13111 13114
12482 2 13111 13115
12483 2 13116 13117
12484 2 13116 13118
12485 2 13116 13119
12486 2 13116 13120
12487 2 13121 13122
12488 2 13121 13123
12489 2 13121 13124
12490 2 13121 13125
12491 2 13126 13127
12492 2 13126 13128
12493 2 13126 13129
12494 2 13126 13130
12495 2 13131 13132
12496 2 13131 13133
12497 2 13131 13134
12498 2 13131 13135
12499 2 13136 13137
12500 2 13136 13138
12501 2 13136 13139
12502 2 13136 13140
12503 2 13141 13142
12504 2 13141 13143
12505 2 13141 13144
12506 2 13141 13145
12507 2 13146 13147
12508 2 13146 13148
12509 2 13146 13149
12510 2 13146 13150
12511 2 13151 13152
12512 2 13151 13153
12513 2 13151 13154
12514 2 13151 13155
12515 2 13156 13157
12516 2 13156 13158
12517 2 13156 13159
12518 2 13156 13160
12519 2 13161 13162
12520 2 13161 13163
12521 2 13161 13164
12522 2 13161 13165
12523 2 13166 13167
12524 2 13166 13168
12525 2 13166 13169
12526 2 13166 13170
12527 2 13171 13172
12528 2 13171 13173
12529 2 13171 13174
12530 2 13171 13175
12531 2 13176 13177
12532 2 13176 13178
12533 2 13176 13179
12534 2 13176 13180
12535 2 13181 13182
12536 2 13181 13183
12537 2 13181 13184
12538 2 13181 13185
12539 2 13186 13187
12540 2 13186 13188
12541 2 13186 13189
12542 2 13186 13190
12543 2 13191 13192
12544 2 13191 13193
12545 2 13191 13194
12546 2 13191 13195
12547 2 13196 13197
12548 2 13196 13198
12549 2 13196 13199
12550 2 13196 13200
12551 2 13201 13202
12552 2 13201 13203
12553 2 13201 13204
12554 2 13201 13205
12555 2 13206 13207
12556 2 13206 13208
12557 2 13206 13209
12558 2 13206 13210
12559 2 13211 13212
12560 2 13211 13213
12561 2 13211 13214
12562 2 13211 13215
12563 2 13216 13217
12564 2 13216 13218
12565 2 13216 13219
12566 2 13216 13220
12567 2 13221 13222
12568 2 13221 13223
12569 2 13221 13224
12570 2 13221 13225
12571 2 13226 13227
12572 2 13226 13228
12573 2 13226 13229
12574 2 13226 13230
12575 2 13231 13232
12576 2 13231 13233
12577 2 13231 13234
12578 2 13231 13235
12579 2 13236 13237
12580 2 13236 13238
12581 2 13236 13239
12582 2 13236 13240
12583 2 13241 13242
12584 2 13241 13243
12585 2 13241 13244
12586 2 13241 13245
12587 2 13246 13247
12588 2 13246 13248
12589 2 13246 13249
12590 2 13246 13250
12591 2 13251 13252
12592 2 13251 13253
12593 2 13251 13254
12594 2 13251 13255
12595 2 13256 13257
12596 2 13256 13258
12597 2 13256 13259
12598 2 13256 13260
12599 2 13261 13262
12600 2 13261 13263
12601 2 13261 13264
12602 2 13261 13265
12603 2 13266 13267
12604 2 13266 13268
12605 2 13266 13269
12606 2 13266 13270
12607 2 13271 13272
12608 2 13271 13273
12609 2 13271 13274
12610 2 13271 13275
12611 2 13276 13277
12612 2 13276 13278
12613 2 13276 13279
12614 2 13276 13280
12615 2 13281 13282
12616 2 13281 13283
12617 2 13281 13284
12618 2 13281 13285
12619 2 13286 13287
12620 2 13286 13288
12621 2 13286 13289
12622 2 13286 13290
12623 2 13291 13292
12624 2 13291 13293
12625 2 13291 13294
12626 2 13291 13295
12627 2 13296 13297
12628 2 13296 13298
12629 2 13296 13299
12630 2 13296 13300
12631 2 13301 13302
12632 2 13301 13303
12633 2 13301 13304
12634 2 13301 13305
12635 2 13306 13307
12636 2 13306 13308
12637 2 13306 13309
12638 2 13306 13310
12639 2 13311 13312
12640 2 13311 13313
12641 2 13311 13314
12642 2 13311 13315
12643 2 13316 13317
12644 2 13316 13318
12645 2 13316 13319
12646 2 13316 13320
12647 2 13321 13322
12648 2 13321 13323
12649 2 13321 13324
12650 2 13321 13325
12651 2 13326 13327
12652 2 13326 13328
12653 2 13326 13329
12654 2 13326 13330
12655 2 13331 13332
12656 2 13331 13333
12657 2 13331 13334
12658 2 13331 13335
12659 2 13336 13337
12660 2 13336 13338
12661 2 13336 13339
12662 2 13336 13340
12663 2 13341 13342
12664 2 13341 13343
12665 2 13341 13344
12666 2 13341 13345
12667 2 13346 13347
12668 2 13346 13348
12669 2 13346 13349
12670 2 13346 13350
12671 2 13351 13352
12672 2 13351 13353
12673 2 13351 13354
12674 2 13351 13355
12675 2 13356 13357
12676 2 13356 13358
12677 2 13356 13359
12678 2 13356 13360
12679 2 13361 13362
12680 2 13361 13363
12681 2 13361 13364
12682 2 13361 13365
12683 2 13366 13367
12684 2 13366 13368
12685 2 13366 13369
12686 2 13366 13370
12687 2 13371 13372
12688 2 13371 13373
12689 2 13371 13374
12690 2 13371 13375
12691 2 13376 13377
12692 2 13376 13378
12693 2 13376 13379
12694 2 13376 13380
12695 2 13381 13382
12696 2 13381 13383
12697 2 13381 13384
12698 2 13381 13385
12699 2 13386 13387
12700 2 13386 13388
12701 2 13386 13389
12702 2 13386 13390
12703 2 13391 13392
12704 2 13391 13393
12705 2 13391 13394
12706 2 13391 13395
12707 2 13396 13397
12708 2 13396 13398
12709 2 13396 13399
12710 2 13396 13400
12711 2 13401 13402
12712 2 13401 13403
12713 2 13401 13404
12714 2 13401 13405
12715 2 13406 13407
12716 2 13406 13408
12717 2 13406 13409
12718 2 13406 13410
12719 2 13411 13412
12720 2 13411 13413
12721 2 13411 13414
12722 2 13411 13415
12723 2 13416 13417
12724 2 13416 13418
12725 2 13416 13419
12726 2 13416 13420
12727 2 13421 13422
12728 2 13421 13423
12729 2 13421 13424
12730 2 13421 13425
12731 2 13426 13427
12732 2 13426 13428
12733 2 13426 13429
12734 2 13426 13430
12735 2 13431 13432
12736 2 13431 13433
12737 2 13431 13434
12738 2 13431 13435
12739 2 13436 13437
12740 2 13436 13438
12741 2 13436 13439
12742 2 13436 13440
12743 2 13441 13442
12744 2 13441 13443
12745 2 13441 13444
12746 2 13441 13445
12747 2 13446 13447
12748 2 13446 13448
12749 2 13446 13449
12750 2 13446 13450
12751 2 13451 13452
12752 2 13451 13453
12753 2 13451 13454
12754 2 13451 13455
12755 2 13456 13457
12756 2 13456 13458
12757 2 13456 13459
12758 2 13456 13460
12759 2 13461 13462
12760 2 13461 13463
12761 2 13461 13464
12762 2 13461 13465
12763 2 13466 13467
12764 2 13466 13468
12765 2 13466 13469
12766 2 13466 13470
12767 2 13471 13472
12768 2 13471 13473
12769 2 13471 13474
12770 2 13471 13475
12771 2 13476 13477
12772 2 13476 13478
12773 2 13476 13479
12774 2 13476 13480
12775 2 13481 13482
12776 2 13481 13483
12777 2 13481 13484
12778 2 13481 13485
12779 2 13486 13487
12780 2 13486 13488
12781 2 13486 13489
12782 2 13486 13490
12783 2 13491 13492
12784 2 13491 13493
12785 2 13491 13494
12786 2 13491 13495
12787 2 13496 13497
12788 2 13496 13498
12789 2 13496 13499
12790 2 13496 13500
12791 2 13501 13502
12792 2 13501 13503
12793 2 13501 13504
12794 2 13501 13505
12795 2 13506 13507
12796 2 13506 13508
12797 2 13506 13509
12798 2 13506 13510
12799 2 13511 13512
12800 2 13511 13513
12801 2 13511 13514
12802 2 13511 13515
12803 2 13516 13517
12804 2 13516 13518
12805 2 13516 13519
12806 2 13516 13520
12807 2 13521 13522
12808 2 13521 13523
12809 2 13521 13524
12810 2 13521 13525
12811 2 13526 13527
12812 2 13526 13528
12813 2 13526 13529
12814 2 13526 13530
12815 2 13531 13532
12816 2 13531 13533
12817 2 13531 13534
12818 2 13531 13535
12819 2 13536 13537
12820 2 13536 13538
12821 2 13536 13539
12822 2 13536 13540
12823 2 13541 13542
12824 2 13541 13543
12825 2 13541 13544
12826 2 13541 13545
12827 2 13546 13547
12828 2 13546 13548
12829 2 13546 13549
12830 2 13546 13550
12831 2 13551 13552
12832 2 13551 13553
12833 2 13551 13554
12834 2 13551 13555
12835 2 13556 13557
12836 2 13556 13558
12837 2 13556 13559
12838 2 13556 13560
12839 2 13561 13562
12840 2 13561 13563
12841 2 13561 13564
12842 2 13561 13565
12843 2 13566 13567
12844 2 13566 13568
12845 2 13566 13569
12846 2 13566 13570
12847 2 13571 13572
12848 2 13571 13573
12849 2 13571 13574
12850 2 13571 13575
12851 2 13576 13577
12852 2 13576 13578
12853 2 13576 13579
12854 2 13576 13580
12855 2 13581 13582
12856 2 13581 13583
12857 2 13581 13584
12858 2 13581 13585
12859 2 13586 13587
12860 2 13586 13588
12861 2 13586 13589
12862 2 13586 13590
12863 2 13591 13592
12864 2 13591 13593
12865 2 13591 13594
12866 2 13591 13595
12867 2 13596 13597
12868 2 13596 13598
12869 2 13596 13599
12870 2 13596 13600
12871 2 13601 13602
12872 2 13601 13603
12873 2 13601 13604
12874 2 13601 13605
12875 2 13606 13607
12876 2 13606 13608
12877 2 13606 13609
12878 2 13606 13610
12879 2 13611 13612
12880 2 13611 13613
12881 2 13611 13614
12882 2 13611 13615
12883 2 13616 13617
12884 2 13616 13618
12885 2 13616 13619
12886 2 13616 13620
12887 2 13621 13622
12888 2 13621 13623
12889 2 13621 13624
12890 2 13621 13625
12891 2 13626 13627
12892 2 13626 13628
12893 2 13626 13629
12894 2 13626 13630
12895 2 13631 13632
12896 2 13631 13633
12897 2 13631 13634
12898 2 13631 13635
12899 2 13636 13637
12900 2 13636 13638
12901 2 13636 13639
12902 2 13636 13640
12903 2 13641 13642
12904 2 13641 13643
12905 2 13641 13644
12906 2 13641 13645
12907 2 13646 13647
12908 2 13646 13648
12909 2 13646 13649
12910 2 13646 13650
12911 2 13651 13652
12912 2 13651 13653
12913 2 13651 13654
12914 2 13651 13655
12915 2 13656 13657
12916 2 13656 13658
12917 2 13656 13659
12918 2 13656 13660
12919 2 13661 13662
12920 2 13661 13663
12921 2 13661 13664
12922 2 13661 13665
12923 2 13666 13667
12924 2 13666 13668
12925 2 13666 13669
12926 2 13666 13670
12927 2 13671 13672
12928 2 13671 13673
12929 2 13671 13674
12930 2 13671 13675
12931 2 13676 13677
12932 2 13676 13678
12933 2 13676 13679
12934 2 13676 13680
12935 2 13681 13682
12936 2 13681 13683
12937 2 13681 13684
12938 2 13681 13685
12939 2 13686 13687
12940 2 13686 13688
12941 2 13686 13689
12942 2 13686 13690
12943 2 13691 13692
12944 2 13691 13693
12945 2 13691 13694
12946 2 13691 13695
12947 2 13696 13697
12948 2 13696 13698
12949 2 13696 13699
12950 2 13696 13700
12951 2 13701 13702
12952 2 13701 13703
12953 2 13701 13704
12954 2 13701 13705
12955 2 13706 13707
12956 2 13706 13708
12957 2 13706 13709
12958 2 13706 13710
12959 2 13711 13712
12960 2 13711 13713
12961 2 13711 13714
12962 2 13711 13715
12963 2 13716 13717
12964 2 13716 13718
12965 2 13716 13719
12966 2 13716 13720
12967 2 13721 13722
12968 2 13721 13723
12969 2 13721 13724
12970 2 13721 13725
12971 2 13726 13727
12972 2 13726 13728
12973 2 13726 13729
12974 2 13726 13730
12975 2 13731 13732
12976 2 13731 13733
12977 2 13731 13734
12978 2 13731 13735
12979 2 13736 13737
12980 2 13736 13738
12981 2 13736 13739
12982 2 13736 13740
12983 2 13741 13742
12984 2 13741 13743
12985 2 13741 13744
12986 2 13741 13745
12987 2 13746 13747
12988 2 13746 13748
12989 2 13746 13749
12990 2 13746 13750
12991 2 13751 13752
12992 2 13751 13753
12993 2 13751 13754
12994 2 13751 13755
12995 2 13756 13757
12996 2 13756 13758
12997 2 13756 13759
12998 2 13756 13760
12999 2 13761 13762
13000 2 13761 13763
13001 2 13761 13764
13002 2 13761 13765
13003 2 13766 13767
13004 2 13766 13768
13005 2 13766 13769
13006 2 13766 13770
13007 2 13771 13772
13008 2 13771 13773
13009 2 13771 13774
13010 2 13771 13775
13011 2 13776 13777
13012 2 13776 13778
13013 2 13776 13779
13014 2 13776 13780
13015 2 13781 13782
13016 2 13781 13783
13017 2 13781 13784
13018 2 13781 13785
13019 2 13786 13787
13020 2 13786 13788
13021 2 13786 13789
13022 2 13786 13790
13023 2 13791 13792
13024 2 13791 13793
13025 2 13791 13794
13026 2 13791 13795
13027 2 13796 13797
13028 2 13796 13798
13029 2 13796 13799
13030 2 13796 13800
13031 2 13801 13802
13032 2 13801 13803
13033 2 13801 13804
13034 2 13801 13805
13035 2 13806 13807
13036 2 13806 13808
13037 2 13806 13809
13038 2 13806 13810
13039 2 13811 13812
13040 2 13811 13813
13041 2 13811 13814
13042 2 13811 13815
13043 2 13816 13817
13044 2 13816 13818
13045 2 13816 13819
13046 2 13816 13820
13047 2 13821 13822
13048 2 13821 13823
13049 2 13821 13824
13050 2 13821 13825
13051 2 13826 13827
13052 2 13826 13828
13053 2 13826 13829
13054 2 13826 13830
13055 2 13831 13832
13056 2 13831 13833
13057 2 13831 13834
13058 2 13831 13835
13059 2 13836 13837
13060 2 13836 13838
13061 2 13836 13839
13062 2 13836 13840
13063 2 13841 13842
13064 2 13841 13843
13065 2 13841 13844
13066 2 13841 13845
13067 2 13846 13847
13068 2 13846 13848
13069 2 13846 13849
13070 2 13846 13850
13071 2 13851 13852
13072 2 13851 13853
13073 2 13851 13854
13074 2 13851 13855
13075 2 13856 13857
13076 2 13856 13858
13077 2 13856 13859
13078 2 13856 13860
13079 2 13861 13862
13080 2 13861 13863
13081 2 13861 13864
13082 2 13861 13865
13083 2 13866 13867
13084 2 13866 13868
13085 2 13866 13869
13086 2 13866 13870
13087 2 13871 13872
13088 2 13871 13873
13089 2 13871 13874
13090 2 13871 13875
13091 2 13876 13877
13092 2 13876 13878
13093 2 13876 13879
13094 2 13876 13880
13095 2 13881 13882
13096 2 13881 13883
13097 2 13881 13884
13098 2 13881 13885
13099 2 13886 13887
13100 2 13886 13888
13101 2 13886 13889
13102 2 13886 13890
13103 2 13891 13892
13104 2 13891 13893
13105 2 13891 13894
13106 2 13891 13895
13107 2 13896 13897
13108 2 13896 13898
13109 2 13896 13899
13110 2 13896 13900
13111 2 13901 13902
13112 2 13901 13903
13113 2 13901 13904
13114 2 13901 13905
13115 2 13906 13907
13116 2 13906 13908
13117 2 13906 13909
13118 2 13906 13910
13119 2 13911 13912
13120 2 13911 13913
13121 2 13911 13914
13122 2 13911 13915
13123 2 13916 13917
13124 2 13916 13918
13125 2 13916 13919
13126 2 13916 13920
13127 2 13921 13922
13128 2 13921 13923
13129 2 13921 13924
13130 2 13921 13925
13131 2 13926 13927
13132 2 13926 13928
13133 2 13926 13929
13134 2 13926 13930
13135 2 13931 13932
13136 2 13931 13933
13137 2 13931 13934
13138 2 13931 13935
13139 2 13936 13937
13140 2 13936 13938
13141 2 13936 13939
13142 2 13936 13940
13143 2 13941 13942
13144 2 13941 13943
13145 2 13941 13944
13146 2 13941 13945
13147 2 13946 13947
13148 2 13946 13948
13149 2 13946 13949
13150 2 13946 13950
13151 2 13951 13952
13152 2 13951 13953
13153 2 13951 13954
13154 2 13951 13955
13155 2 13956 13957
13156 2 13956 13958
13157 2 13956 13959
13158 2 13956 13960
13159 2 13961 13962
13160 2 13961 13963
13161 2 13961 13964
13162 2 13961 13965
13163 2 13966 13967
13164 2 13966 13968
13165 2 13966 13969
13166 2 13966 13970
13167 2 13971 13972
13168 2 13971 13973
13169 2 13971 13974
13170 2 13971 13975
13171 2 13976 13977
13172 2 13976 13978
13173 2 13976 13979
13174 2 13976 13980
13175 2 13981 13982
13176 2 13981 13983
13177 2 13981 13984
13178 2 13981 13985
13179 2 13986 13987
13180 2 13986 13988
13181 2 13986 13989
13182 2 13986 13990
13183 2 13991 13992
13184 2 13991 13993
13185 2 13991 13994
13186 2 13991 13995
13187 2 13996 13997
13188 2 13996 13998
13189 2 13996 13999
13190 2 13996 14000
13191 2 14001 14002
13192 2 14001 14003
13193 2 14001 14004
13194 2 14001 14005
13195 2 14006 14007
13196 2 14006 14008
13197 2 14006 14009
13198 2 14006 14010
13199 2 14011 14012
13200 2 14011 14013
13201 2 14011 14014
13202 2 14011 14015
13203 2 14016 14017
13204 2 14016 14018
13205 2 14016 14019
13206 2 14016 14020
13207 2 14021 14022
13208 2 14021 14023
13209 2 14021 14024
13210 2 14021 14025
13211 2 14026 14027
13212 2 14026 14028
13213 2 14026 14029
13214 2 14026 14030
13215 2 14031 14032
13216 2 14031 14033
13217 2 14031 14034
13218 2 14031 14035
13219 2 14036 14037
13220 2 14036 14038
13221 2 14036 14039
13222 2 14036 14040
13223 2 14041 14042
13224 2 14041 14043
13225 2 14041 14044
13226 2 14041 14045
13227 2 14046 14047
13228 2 14046 14048
13229 2 14046 14049
13230 2 14046 14050
13231 2 14051 14052
13232 2 14051 14053
13233 2 14051 14054
13234 2 14051 14055
13235 2 14056 14057
13236 2 14056 14058
13237 2 14056 14059
13238 2 14056 14060
13239 2 14061 14062
13240 2 14061 14063
13241 2 14061 14064
13242 2 14061 14065
13243 2 14066 14067
13244 2 14066 14068
13245 2 14066 14069
13246 2 14066 14070
13247 2 14071 14072
13248 2 14071 14073
13249 2 14071 14074
13250 2 14071 14075
13251 2 14076 14077
13252 2 14076 14078
13253 2 14076 14079
13254 2 14076 14080
13255 2 14081 14082
13256 2 14081 14083
13257 2 14081 14084
13258 2 14081 14085
13259 2 14086 14087
13260 2 14086 14088
13261 2 14086 14089
13262 2 14086 14090
13263 2 14091 14092
13264 2 14091 14093
13265 2 14091 14094
13266 2 14091 14095
13267 2 14096 14097
13268 2 14096 14098
13269 2 14096 14099
13270 2 14096 14100
13271 2 14101 14102
13272 2 14101 14103
13273 2 14101 14104
13274 2 14101 14105
13275 2 14106 14107
13276 2 14106 14108
13277 2 14106 14109
13278 2 14106 14110
13279 2 14111 14112
13280 2 14111 14113
13281 2 14111 14114
13282 2 14111 14115
13283 2 14116 14117
13284 2 14116 14118
13285 2 14116 14119
13286 2 14116 14120
13287 2 14121 14122
13288 2 14121 14123
13289 2 14121 14124
13290 2 14121 14125
13291 2 14126 14127
13292 2 14126 14128
13293 2 14126 14129
13294 2 14126 14130
13295 2 14131 14132
13296 2 14131 14133
13297 2 14131 14134
13298 2 14131 14135
13299 2 14136 14137
13300 2 14136 14138
13301 2 14136 14139
13302 2 14136 14140
13303 2 14141 14142
13304 2 14141 14143
13305 2 14141 14144
13306 2 14141 14145
13307 2 14146 14147
13308 2 14146 14148
13309 2 14146 14149
13310 2 14146 14150
13311 2 14151 14152
13312 2 14151 14153
13313 2 14151 14154
13314 2 14151 14155
13315 2 14156 14157
13316 2 14156 14158
13317 2 14156 14159
13318 2 14156 14160
13319 2 14161 14162
13320 2 14161 14163
13321 2 14161 14164
13322 2 14161 14165
13323 2 14166 14167
13324 2 14166 14168
13325 2 14166 14169
13326 2 14166 14170
13327 2 14171 14172
13328 2 14171 14173
13329 2 14171 14174
13330 2 14171 14175
13331 2 14176 14177
13332 2 14176 14178
13333 2 14176 14179
13334 2 14176 14180
13335 2 14181 14182
13336 2 14181 14183
13337 2 14181 14184
13338 2 14181 14185
13339 2 14186 14187
13340 2 14186 14188
13341 2 14186 14189
13342 2 14186 14190
13343 2 14191 14192
13344 2 14191 14193
13345 2 14191 14194
13346 2 14191 14195
13347 2 14196 14197
13348 2 14196 14198
13349 2 14196 14199
13350 2 14196 14200
13351 2 14201 14202
13352 2 14201 14203
13353 2 14201 14204
13354 2 14201 14205
13355 2 14206 14207
13356 2 14206 14208
13357 2 14206 14209
13358 2 14206 14210
13359 2 14211 14212
13360 2 14211 14213
13361 2 14211 14214
13362 2 14211 14215
13363 2 14216 14217
13364 2 14216 14218
13365 2 14216 14219
13366 2 14216 14220
13367 2 14221 14222
13368 2 14221 14223
13369 2 14221 14224
13370 2 14221 14225
13371 2 14226 14227
13372 2 14226 14228
13373 2 14226 14229
13374 2 14226 14230
13375 2 14231 14232
13376 2 14231 14233
13377 2 14231 14234
13378 2 14231 14235
13379 2 14236 14237
13380 2 14236 14238
13381 2 14236 14239
13382 2 14236 14240
13383 2 14241 14242
13384 2 14241 14243
13385 2 14241 14244
13386 2 14241 14245
13387 2 14246 14247
13388 2 14246 14248
13389 2 14246 14249
13390 2 14246 14250
13391 2 14251 14252
13392 2 14251 14253
13393 2 14251 14254
13394 2 14251 14255
13395 2 14256 14257
13396 2 14256 14258
13397 2 14256 14259
13398 2 14256 14260
13399 2 14261 14262
13400 2 14261 14263
13401 2 14261 14264
13402 2 14261 14265
13403 2 14266 14267
13404 2 14266 14268
13405 2 14266 14269
13406 2 14266 14270
13407 2 14271 14272
13408 2 14271 14273
13409 2 14271 14274
13410 2 14271 14275
13411 2 14276 14277
13412 2 14276 14278
13413 2 14276 14279
13414 2 14276 14280
13415 2 14281 14282
13416 2 14281 14283
13417 2 14281 14284
13418 2 14281 14285
13419 2 14286 14287
13420 2 14286 14288
13421 2 14286 14289
13422 2 14286 14290
13423 2 14291 14292
13424 2 14291 14293
13425 2 14291 14294
13426 2 14291 14295
13427 2 14296 14297
13428 2 14296 14298
13429 2 14296 14299
13430 2 14296 14300
13431 2 14301 14302
13432 2 14301 14303
13433 2 14301 14304
13434 2 14301 14305
13435 2 14306 14307
13436 2 14306 14308
13437 2 14306 14309
13438 2 14306 14310
13439 2 14311 14312
13440 2 14311 14313
13441 2 14311 14314
13442 2 14311 14315
13443 2 14316 14317
13444 2 14316 14318
13445 2 14316 14319
13446 2 14316 14320
13447 2 14321 14322
13448 2 14321 14323
13449 2 14321 14324
13450 2 14321 14325
13451 2 14326 14327
13452 2 14326 14328
13453 2 14326 14329
13454 2 14326 14330
13455 2 14331 14332
13456 2 14331 14333
13457 2 14331 14334
13458 2 14331 14335
13459 2 14336 14337
13460 2 14336 14338
13461 2 14336 14339
13462 2 14336 14340
13463 2 14341 14342
13464 2 14341 14343
13465 2 14341 14344
13466 2 14341 14345
13467 2 14346 14347
13468 2 14346 14348
13469 2 14346 14349
13470 2 14346 14350
13471 2 14351 14352
13472 2 14351 14353
13473 2 14351 14354
13474 2 14351 14355
13475 2 14356 14357
13476 2 14356 14358
13477 2 14356 14359
13478 2 14356 14360
13479 2 14361 14362
13480 2 14361 14363
13481 2 14361 14364
13482 2 14361 14365
13483 2 14366 14367
13484 2 14366 14368
13485 2 14366 14369
13486 2 14366 14370
13487 2 14371 14372
13488 2 14371 14373
13489 2 14371 14374
13490 2 14371 14375
13491 2 14376 14377
13492 2 14376 14378
13493 2 14376 14379
13494 2 14376 14380
13495 2 14381 14382
13496 2 14381 14383
13497 2 14381 14384
13498 2 14381 14385
13499 2 14386 14387
13500 2 14386 14388
13501 2 14386 14389
13502 2 14386 14390
13503 2 14391 14392
13504 2 14391 14393
13505 2 14391 14394
13506 2 14391 14395
13507 2 14396 14397
13508 2 14396 14398
13509 2 14396 14399
13510 2 14396 14400
13511 2 14401 14402
13512 2 14401 14403
13513 2 14401 14404
13514 2 14401 14405
13515 2 14406 14407
13516 2 14406 14408
13517 2 14406 14409
13518 2 14406 14410
13519 2 14411 14412
13520 2 14411 14413
13521 2 14411 14414
13522 2 14411 14415
13523 2 14416 14417
13524 2 14416 14418
13525 2 14416 14419
13526 2 14416 14420
13527 2 14421 14422
13528 2 14421 14423
13529 2 14421 14424
13530 2 14421 14425
13531 2 14426 14427
13532 2 14426 14428
13533 2 14426 14429
13534 2 14426 14430
13535 2 14431 14432
13536 2 14431 14433
13537 2 14431 14434
13538 2 14431 14435
13539 2 14436 14437
13540 2 14436 14438
13541 2 14436 14439
13542 2 14436 14440
13543 2 14441 14442
13544 2 14441 14443
13545 2 14441 14444
13546 2 14441 14445
13547 2 14446 14447
13548 2 14446 14448
13549 2 14446 14449
13550 2 14446 14450
13551 2 14451 14452
13552 2 14451 14453
13553 2 14451 14454
13554 2 14451 14455
13555 2 14456 14457
13556 2 14456 14458
13557 2 14456 14459
13558 2 14456 14460
13559 2 14461 14462
13560 2 14461 14463
13561 2 14461 14464
13562 2 14461 14465
13563 2 14466 14467
13564 2 14466 14468
13565 2 14466 14469
13566 2 14466 14470
13567 2 14471 14472
13568 2 14471 14473
13569 2 14471 14474
13570 2 14471 14475
13571 2 14476 14477
13572 2 14476 14478
13573 2 14476 14479
13574 2 14476 14480
13575 2 14481 14482
13576 2 14481 14483
13577 2 14481 14484
13578 2 14481 14485
13579 2 14486 14487
13580 2 14486 14488
13581 2 14486 14489
13582 2 14486 14490
13583 2 14491 14492
13584 2 14491 14493
13585 2 14491 14494
13586 2 14491 14495
13587 2 14496 14497
13588 2 14496 14498
13589 2 14496 14499
13590 2 14496 14500
13591 2 14501 14502
13592 2 14501 14503
13593 2 14501 14504
13594 2 14501 14505
13595 2 14506 14507
13596 2 14506 14508
13597 2 14506 14509
13598 2 14506 14510
13599 2 14511 14512
13600 2 14511 14513
13601 2 14511 14514
13602 2 14511 14515
13603 2 14516 14517
13604 2 14516 14518
13605 2 14516 14519
13606 2 14516 14520
13607 2 14521 14522
13608 2 14521 14523
13609 2 14521 14524
13610 2 14521 14525
13611 2 14526 14527
13612 2 14526 14528
13613 2 14526 14529
13614 2 14526 14530
13615 2 14531 14532
13616 2 14531 14533
13617 2 14531 14534
13618 2 14531 14535
13619 2 14536 14537
13620 2 14536 14538
13621 2 14536 14539
13622 2 14536 14540
13623 2 14541 14542
13624 2 14541 14543
13625 2 14541 14544
13626 2 14541 14545
13627 2 14546 14547
13628 2 14546 14548
13629 2 14546 14549
13630 2 14546 14550
13631 2 14551 14552
13632 2 14551 14553
13633 2 14551 14554
13634 2 14551 14555
13635 2 14556 14557
13636 2 14556 14558
13637 2 14556 14559
13638 2 14556 14560
13639 2 14561 14562
13640 2 14561 14563
13641 2 14561 14564
13642 2 14561 14565
13643 2 14566 14567
13644 2 14566 14568
13645 2 14566 14569
13646 2 14566 14570
13647 2 14571 14572
13648 2 14571 14573
13649 2 14571 14574
13650 2 14571 14575
13651 2 14576 14577
13652 2 14576 14578
13653 2 14576 14579
13654 2 14576 14580
13655 2 14581 14582
13656 2 14581 14583
13657 2 14581 14584
13658 2 14581 14585
13659 2 14586 14587
13660 2 14586 14588
13661 2 14586 14589
13662 2 14586 14590
13663 2 14591 14592
13664 2 14591 14593
13665 2 14591 14594
13666 2 14591 14595
13667 2 14596 14597
13668 2 14596 14598
13669 2 14596 14599
13670 2 14596 14600
13671 2 14601 14602
13672 2 14601 14603
13673 2 14601 14604
13674 2 14601 14605
13675 2 14606 14607
13676 2 14606 14608
13677 2 14606 14609
13678 2 14606 14610
13679 2 14611 14612
13680 2 14611 14613
13681 2 14611 14614
13682 2 14611 14615
13683 2 14616 14617
13684 2 14616 14618
13685 2 14616 14619
13686 2 14616 14620
13687 2 14621 14622
13688 2 14621 14623
13689 2 14621 14624
13690 2 14621 14625
13691 2 14626 14627
13692 2 14626 14628
13693 2 14626 14629
13694 2 14626 14630
13695 2 14631 14632
13696 2 14631 14633
13697 2 14631 14634
13698 2 14631 14635
13699 2 14636 14637
13700 2 14636 14638
13701 2 14636 14639
13702 2 14636 14640
13703 2 14641 14642
13704 2 14641 14643
13705 2 14641 14644
13706 2 14641 14645
13707 2 14646 14647
13708 2 14646 14648
13709 2 14646 14649
13710 2 14646 14650
13711 2 14651 14652
13712 2 14651 14653
13713 2 14651 14654
13714 2 14651 14655
13715 2 14656 14657
13716 2 14656 14658
13717 2 14656 14659
13718 2 14656 14660
13719 2 14661 14662
13720 2 14661 14663
13721 2 14661 14664
13722 2 14661 14665
13723 2 14666 14667
13724 2 14666 14668
13725 2 14666 14669
13726 2 14666 14670
13727 2 14671 14672
13728 2 14671 14673
13729 2 14671 14674
13730 2 14671 14675
13731 2 14676 14677
13732 2 14676 14678
13733 2 14676 14679
13734 2 14676 14680
13735 2 14681 14682
13736 2 14681 14683
13737 2 14681 14684
13738 2 14681 14685
13739 2 14686 14687
13740 2 14686 14688
13741 2 14686 14689
13742 2 14686 14690
13743 2 14691 14692
13744 2 14691 14693
13745 2 14691 14694
13746 2 14691 14695
13747 2 14696 14697
13748 2 14696 14698
13749 2 14696 14699
13750 2 14696 14700
13751 2 14701 14702
13752 2 14701 14703
13753 2 14701 14704
13754 2 14701 14705
13755 2 14706 14707
13756 2 14706 14708
13757 2 14706 14709
13758 2 14706 14710
13759 2 14711 14712
13760 2 14711 14713
13761 2 14711 14714
13762 2 14711 14715
13763 2 14716 14717
13764 2 14716 14718
13765 2 14716 14719
13766 2 14716 14720
13767 2 14721 14722
13768 2 14721 14723
13769 2 14721 14724
13770 2 14721 14725
13771 2 14726 14727
13772 2 14726 14728
13773 2 14726 14729
13774 2 14726 14730
13775 2 14731 14732
13776 2 14731 14733
13777 2 14731 14734
13778 2 14731 14735
13779 2 14736 14737
13780 2 14736 14738
13781 2 14736 14739
13782 2 14736 14740
13783 2 14741 14742
13784 2 14741 14743
13785 2 14741 14744
13786 2 14741 14745
13787 2 14746 14747
13788 2 14746 14748
13789 2 14746 14749
13790 2 14746 14750
13791 2 14751 14752
13792 2 14751 14753
13793 2 14751 14754
13794 2 14751 14755
13795 2 14756 14757
13796 2 14756 14758
13797 2 14756 14759
13798 2 14756 14760
13799 2 14761 14762
13800 2 14761 14763
13801 2 14761 14764
13802 2 14761 14765
13803 2 14766 14767
13804 2 14766 14768
13805 2 14766 14769
13806 2 14766 14770
13807 2 14771 14772
13808 2 14771 14773
13809 2 14771 14774
13810 2 14771 14775
13811 2 14776 14777
13812 2 14776 14778
13813 2 14776 14779
13814 2 14776 14780
13815 2 14781 14782
13816 2 14781 14783
13817 2 14781 14784
13818 2 14781 14785
13819 2 14786 14787
13820 2 14786 14788
13821 2 14786 14789
13822 2 14786 14790
13823 2 14791 14792
13824 2 14791 14793
13825 2 14791 14794
13826 2 14791 14795
13827 2 14796 14797
13828 2 14796 14798
13829 2 14796 14799
13830 2 14796 14800
13831 2 14801 14802
13832 2 14801 14803
13833 2 14801 14804
13834 2 14801 14805
13835 2 14806 14807
13836 2 14806 14808
13837 2 14806 14809
13838 2 14806 14810
13839 2 14811 14812
13840 2 14811 14813
13841 2 14811 14814
13842 2 14811 14815
13843 2 14816 14817
13844 2 14816 14818
13845 2 14816 14819
13846 2 14816 14820
13847 2 14821 14822
13848 2 14821 14823
13849 2 14821 14824
13850 2 14821 14825
13851 2 14826 14827
13852 2 14826 14828
13853 2 14826 14829
13854 2 14826 14830
13855 2 14831 14832
13856 2 14831 14833
13857 2 14831 14834
13858 2 14831 14835
13859 2 14836 14837
13860 2 14836 14838
13861 2 14836 14839
13862 2 14836 14840
13863 2 14841 14842
13864 2 14841 14843
13865 2 14841 14844
13866 2 14841 14845
13867 2 14846 14847
13868 2 14846 14848
13869 2 14846 14849
13870 2 14846 14850
13871 2 14851 14852
13872 2 14851 14853
13873 2 14851 14854
13874 2 14851 14855
13875 2 14856 14857
13876 2 14856 14858
13877 2 14856 14859
13878 2 14856 14860
13879 2 14861 14862
13880 2 14861 14863
13881 2 14861 14864
13882 2 14861 14865
13883 2 14866 14867
13884 2 14866 14868
13885 2 14866 14869
13886 2 14866 14870
13887 2 14871 14872
13888 2 14871 14873
13889 2 14871 14874
13890 2 14871 14875
13891 2 14876 14877
13892 2 14876 14878
13893 2 14876 14879
13894 2 14876 14880
13895 2 14881 14882
13896 2 14881 14883
13897 2 14881 14884
13898 2 14881 14885
13899 2 14886 14887
13900 2 14886 14888
13901 2 14886 14889
13902 2 14886 14890
13903 2 14891 14892
13904 2 14891 14893
13905 2 14891 14894
13906 2 14891 14895
13907 2 14896 14897
13908 2 14896 14898
13909 2 14896 14899
13910 2 14896 14900
13911 2 14901 14902
13912 2 14901 14903
13913 2 14901 14904
13914 2 14901 14905
13915 2 14906 14907
13916 2 14906 14908
13917 2 14906 14909
13918 2 14906 14910
13919 2 14911 14912
13920 2 14911 14913
13921 2 14911 14914
13922 2 14911 14915
13923 2 14916 14917
13924 2 14916 14918
13925 2 14916 14919
13926 2 14916 14920
13927 2 14921 14922
13928 2 14921 14923
13929 2 14921 14924
13930 2 14921 14925
13931 2 14926 14927
13932 2 14926 14928
13933 2 14926 14929
13934 2 14926 14930
13935 2 14931 14932
13936 2 14931 14933
13937 2 14931 14934
13938 2 14931 14935
13939 2 14936 14937
13940 2 14936 14938
13941 2 14936 14939
13942 2 14936 14940
13943 2 14941 14942
13944 2 14941 14943
13945 2 14941 14944
13946 2 14941 14945
13947 2 14946 14947
13948 2 14946 14948
13949 2 14946 14949
13950 2 14946 14950
13951 2 14951 14952
13952 2 14951 14953
13953 2 14951 14954
13954 2 14951 14955
13955 2 14956 14957
13956 2 14956 14958
13957 2 14956 14959
13958 2 14956 14960
13959 2 14961 14962
13960 2 14961 14963
13961 2 14961 14964
13962 2 14961 14965
13963 2 14966 14967
13964 2 14966 14968
13965 2 14966 14969
13966 2 14966 14970
13967 2 14971 14972
13968 2 14971 14973
13969 2 14971 14974
13970 2 14971 14975
13971 2 14976 14977
13972 2 14976 14978
13973 2 14976 14979
13974 2 14976 14980
13975 2 14981 14982
13976 2 14981 14983
13977 2 14981 14984
13978 2 14981 14985
13979 2 14986 14987
13980 2 14986 14988
13981 2 14986 14989
13982 2 14986 14990
13983 2 14991 14992
13984 2 14991 14993
13985 2 14991 14994
13986 2 14991 14995
13987 2 14996 14997
13988 2 14996 14998
13989 2 14996 14999
13990 2 14996 15000

