LAMMPS (2 Aug 2023 - Update 3)
# ====================================================================== #
# Equilibrate a test system of 20 polymers of length 1000 and 500 tetrahedral
# crosslinkers in implicit solvent.
#
# Authors:
#     Kee-Myoung Nam
#
# Last updated:
#     4/17/2024
# ====================================================================== #
# INITIALIZATION
# ==============
# Use Lennard-Jones units in 3 dimensions
units lj
dimension 3

# Use FENE bonds (without angular, dihedral, improper, etc. contributions)
# and use harmonic bonds for polymer/crosslinker bonds
atom_style bond
bond_style hybrid fene harmonic

# Use Lennard-Jones potentials between unbonded molecules (note that the
# 2.5 cutoff ratio is re-written below)
pair_style lj/cut 2.5

# Use periodic boundary conditions in all 3 dimensions
boundary p p p

# Maintain neighbor lists with given additional "skin" distance
neighbor 1.4 bin

# Build neighbor lists at every timestep
neigh_modify every 1 delay 1

# ====================================================================== #
# PARSE INPUT MOLECULES
# =====================
# Allow for one additional bond for each atom
read_data init.data extra/bond/per/atom 1 extra/special/per/atom 1
Reading data file ...
  orthogonal box = (-50 -50 -50) to (50 50 50)
  1 by 1 by 1 MPI processor grid
  reading atoms ...
  21000 atoms
  scanning bonds ...
  5 = max bonds/atom
  reading bonds ...
  20780 bonds
Finding 1-2 1-3 1-4 neighbors ...
  special bond factors lj:    0        0        0       
  special bond factors coul:  0        0        0       
     4 = max # of 1-2 neighbors
     3 = max # of 1-3 neighbors
     4 = max # of 1-4 neighbors
     7 = max # of special neighbors
  special bonds CPU = 0.003 seconds
  read_data CPU = 0.035 seconds

# ====================================================================== #
# DEFINE BOND AND POTENTIAL PARAMETERS
# ====================================
# Define FENE bond parameters (K, R0, \epsilon, \sigma)
# - Set maximum length to slightly more than double the monomer radius
bond_coeff 1 fene 30.0 2.5 1.0 1.0

# Define within-crosslinker harmonic bond parameters (K, R0)
# - Set equilibrium length to crosslinker radius
bond_coeff 2 harmonic 100.0 3.0

# Define polymer-crosslinker harmonic bond parameters (K, R0)
# - Set equilibrium length to monomer radius
bond_coeff 3 harmonic 100.0 1.0

# Define Lennard-Jones potential parameters (\epsilon, \sigma, cutoff ratio)
# - Set cutoff distance for monomers to 2^(1/6)
# - Set cutoff distance for crosslinkers to 5.0 (larger than crosslinker radius)
# - Weak attraction between crosslinkers, strong attraction between monomers
#   and crosslinkers
pair_coeff 1 1 1.0 1.0 1.1224620483    # Only repulsion for monomers
pair_coeff 2 2 2.0 1.0 5.0             # Attraction and repulsion for crosslinkers
pair_coeff 3 3 2.0 1.0 5.0             # Attraction and repulsion for crosslinkers
pair_coeff 1 2 4.0 1.0 5.0             # Fix cutoffs between different types of atoms
pair_coeff 1 3 4.0 1.0 5.0
pair_coeff 2 3 2.0 1.0 5.0
pair_modify shift yes

# Exclude Lennard-Jones potential contributions between FENE-bonded atoms
special_bonds fene
Finding 1-2 1-3 1-4 neighbors ...
  special bond factors lj:    0        1        1       
  special bond factors coul:  0        1        1       
     4 = max # of 1-2 neighbors
     7 = max # of special neighbors
  special bonds CPU = 0.001 seconds

# ====================================================================== #
# PRINT THERMODYNAMIC INFORMATION DURING MINIMIZATION
# ===================================================
thermo 10
thermo_style custom step temp pe ke etotal epair ebond press

# ====================================================================== #
# ENERGY MINIMIZATION
# ===================
minimize 1.0e-4 1.0e-6 5000 10000
Switching to 'neigh_modify every 1 delay 0 check yes' setting during minimization
Generated 0 of 3 mixed pair_coeff terms from geometric mixing rule
Neighbor list info ...
  update: every = 1 steps, delay = 0 steps, check = yes
  max neighbors/atom: 2000, page size: 100000
  master list distance cutoff = 6.4
  ghost atom cutoff = 6.4
  binsize = 3.2, bins = 32 32 32
  1 neighbor lists, perpetual/occasional/extra = 1 0 0
  (1) pair lj/cut, perpetual
      attributes: half, newton on
      pair build: half/bin/newton
      stencil: half/bin/3d
      bin: standard
Per MPI rank memory allocation (min/avg/max) = 13.62 | 13.62 | 13.62 Mbytes
   Step          Temp          PotEng         KinEng         TotEng         E_pair         E_bond         Press     
         0   0              171.60573      0              171.60573      155.10261      16.503128      13.020741    
        10   0              16.766027      0              16.766027      0.29446666     16.47156       0.023291664  
        20   0              16.402327      0              16.402327      0.013210376    16.389117      0.006683468  
        23   0              16.391171      0              16.391171      0.0037663933   16.387405      0.0032749794 
Loop time of 0.0249483 on 1 procs for 23 steps with 21000 atoms

99.7% CPU use with 1 MPI tasks x no OpenMP threads

Minimization stats:
  Stopping criterion = energy tolerance
  Energy initial, next-to-last, final = 
       171.60573377921   16.3926579303403    16.391171455482
  Force two-norm initial, final = 1.6883247e+08 234.25292
  Force max component initial, final = 97352956 73.707172
  Final line search alpha, max atom move = 0.0019840064 0.1462355
  Iterations, force evaluations = 23 32

MPI task timing breakdown:
Section |  min time  |  avg time  |  max time  |%varavg| %total
---------------------------------------------------------------
Pair    | 0.0099656  | 0.0099656  | 0.0099656  |   0.0 | 39.95
Bond    | 0.0053321  | 0.0053321  | 0.0053321  |   0.0 | 21.37
Neigh   | 0          | 0          | 0          |   0.0 |  0.00
Comm    | 0.00072333 | 0.00072333 | 0.00072333 |   0.0 |  2.90
Output  | 5.6374e-05 | 5.6374e-05 | 5.6374e-05 |   0.0 |  0.23
Modify  | 0          | 0          | 0          |   0.0 |  0.00
Other   |            | 0.008871   |            |       | 35.56

Nlocal:          21000 ave       21000 max       21000 min
Histogram: 1 0 0 0 0 0 0 0 0 0
Nghost:          10447 ave       10447 max       10447 min
Histogram: 1 0 0 0 0 0 0 0 0 0
Neighs:         140445 ave      140445 max      140445 min
Histogram: 1 0 0 0 0 0 0 0 0 0

Total # of neighbors = 140445
Ave neighs/atom = 6.6878571
Ave special neighs/atom = 1.9790476
Neighbor list builds = 0
Dangerous builds = 0

# ====================================================================== #
# DEFINE INITIAL VELOCITIES
# =========================
# Set initial velocities of all molecules from a Gaussian distribution with
# angular momenta set to zero
variable g equal 1.0
velocity all create $g 12345 rot yes dist gaussian
velocity all create 1 12345 rot yes dist gaussian

# ====================================================================== #
# PRINT THERMODYNAMIC INFORMATION DURING SIMULATION
# =================================================
thermo 1000
thermo_style custom step temp press vol pxx pyy pzz etotal epair ebond

# ====================================================================== #
# SET UP AND RUN INITIAL EQUILIBRATION
# ====================================
timestep 0.0001
reset_timestep 0

# Equilibrate using the NVE ensemble and Langevin thermostat
fix fxinit1 all nve
fix fxinit2 all langevin $g $g 2.0 12345
fix fxinit2 all langevin 1 $g 2.0 12345
fix fxinit2 all langevin 1 1 2.0 12345

run 100000
Generated 0 of 3 mixed pair_coeff terms from geometric mixing rule
Per MPI rank memory allocation (min/avg/max) = 11.37 | 11.37 | 11.37 Mbytes
   Step          Temp          Press          Volume          Pxx            Pyy            Pzz           TotEng         E_pair         E_bond    
         0   1              0.024273979    1000000        0.024632036    0.024054041    0.024135862    17.8911        0.0037663933   16.387405    
      1000   0.76704979    -0.019335711    1000000       -0.02007356    -0.020231395   -0.017702178    17.921378      0.08391256     16.686945    
      2000   0.81376812     0.026016454    1000000        0.026467101    0.026565148    0.025017113    17.958865      0.04691798     16.691353    
      3000   0.83181638     0.004832678    1000000        0.0054073298   0.0032661686   0.0058245356   17.978787      0.037467549    16.693654    
      4000   0.8360654      0.0040600788   1000000        0.0037641469   0.0054860293   0.0029300603   18.008997      0.03355982     16.721398    
      5000   0.85296724     0.0092680817   1000000        0.0092306557   0.0086832738   0.0098903156   18.036791      0.029987042    16.727414    
      6000   0.86254946     0.0011245723   1000000        0.0023774185   0.00024442656  0.00075187191  18.056556      0.027318459    16.735475    
      7000   0.86827296     0.0037675858   1000000        0.0041637902   0.0033944318   0.0037445355   18.081176      0.024815873    16.754012    
      8000   0.8821383      0.0049832524   1000000        0.0056985697   0.0052464958   0.0040046916   18.107251      0.022438861    16.761668    
      9000   0.88982031     0.0026094282   1000000        0.0020513596   0.0028877728   0.0028891522   18.126335      0.021434404    16.770234    
     10000   0.89611622     0.0019617232   1000000        0.0026235767   0.00020258842  0.0030590046   18.145817      0.019033621    16.782673    
     11000   0.90314799     0.0022742425   1000000        0.0017651435   0.0020943101   0.002963274    18.160657      0.01791438     16.788085    
     12000   0.91073064     0.0025212638   1000000        0.00021478282  0.0042535613   0.0030954473   18.180844      0.015758342    16.799055    
     13000   0.91754043     0.0030911626   1000000        0.0057276018   0.00091372958  0.0026321565   18.195355      0.015187875    16.803922    
     14000   0.92083399     0.0035301292   1000000        0.0020757192   0.0021198463   0.0063948221   18.205784      0.016166956    16.808432    
     15000   0.92433007     0.0013443903   1000000        0.0018399028   0.0025032225  -0.00030995451  18.221643      0.011287177    16.823927    
     16000   0.93086447     0.0020748288   1000000        0.002565508   -0.00070632115  0.0043652996   18.232796      0.011623281    16.824943    
     17000   0.93335871     0.0024006199   1000000        0.0027555905   0.0031583074   0.0012879619   18.249184      0.011105797    16.838107    
     18000   0.94277909     0.0038223854   1000000        0.0036961694   0.00405809     0.0037128969   18.26169       0.0089610437   16.838628    
     19000   0.94064981     0.0010250903   1000000       -0.00012564192  0.00050650492  0.0026944078   18.26604       0.006221204    16.848911    
     20000   0.94804868     0.0038666027   1000000        0.0041756756   0.0045586546   0.0028654778   18.275203      0.0046178724   16.84858     
     21000   0.950713       0.00028621462  1000000       -0.00076213277  0.00085849166  0.00076228497  18.288115      0.00265753     16.859456    
     22000   0.95462276     0.0030729467   1000000        0.0032892332   0.0017718263   0.0041577805   18.292716      0.0011231905   16.859727    
     23000   0.95542443     0.0011964969   1000000        0.00094477168  0.00079310046  0.0018516186   18.295133     -0.00054338601  16.862608    
     24000   0.96098669     0.00074479027  1000000        0.00040243763  0.001126451    0.0007054822   18.304386     -0.0036806051   16.866655    
     25000   0.96454267     0.001800478    1000000        0.0014045694   0.0014571264   0.0025397382   18.317131     -0.0044909323   16.874877    
     26000   0.96977315     0.0018134408   1000000        0.0017952665   0.001920031    0.0017250249   18.32461      -0.0086205568   16.87864     
     27000   0.97993657     0.0013144411   1000000        0.0010458498   0.00025447165  0.0026430019   18.335475     -0.0088254828   16.874465    
     28000   0.97373373     0.0027560171   1000000        0.0039515966   0.0015582872   0.0027581676   18.33393      -0.009523861    16.882923    
     29000   0.97418478    -0.00011273647  1000000       -0.00052425957  0.00095967234 -0.00077362217  18.339824     -0.01053001     16.889146    
     30000   0.98204306     0.0037368516   1000000        0.0034709443   0.0029783101   0.0047613006   18.345621     -0.014418176    16.887044    
     31000   0.98125335     0.00072383931  1000000        0.0011833478   0.00036720693  0.00062096323  18.347697     -0.014098745    16.889986    
     32000   0.98454748     0.0027832641   1000000        0.0034185902   0.0030051385   0.0019260635   18.350788     -0.017046772    16.891084    
     33000   0.98561004     0.0020561322   1000000        0.0012938394   0.0013754556   0.0034991016   18.356342     -0.022541204    16.900539    
     34000   0.98505218     0.0010118278   1000000        0.0018828871   0.00057988055  0.00057271566  18.3566       -0.023558986    16.902652    
     35000   0.98412952     0.0030464366   1000000        0.0026886374   0.0042912428   0.0021594297   18.355312     -0.024513606    16.903701    
     36000   0.99230282     0.0011394893   1000000       -0.00015825368  0.0012143726   0.002362349    18.364208     -0.028945276    16.90477     
     37000   0.99197992     0.0017968082   1000000        0.0039004639   0.00097290352  0.00051705723  18.365777     -0.030885951    16.908764    
     38000   0.99390714     0.0012522607   1000000        0.00027643844  0.0023195861   0.0011607574   18.370155     -0.032684114    16.912049    
     39000   0.99638152     0.0028705617   1000000        0.0024539278   0.0022693488   0.0038884084   18.366765     -0.035748543    16.908012    
     40000   0.99344804     0.00039656947  1000000        0.0014074674   7.7281665e-06 -0.00022548716  18.366407     -0.037075289    16.913382    
     41000   0.9953861      0.0038817316   1000000        0.0038250672   0.0050801231   0.0027400046   18.367447     -0.039027693    16.913466    
     42000   0.99651365     0.00079543574  1000000        0.0014700644   0.00051085894  0.0004053839   18.367595     -0.042725553    16.915622    
     43000   1.0000664      0.0020645578   1000000        0.0014026436   0.0020260595   0.0027649705   18.37174      -0.045961219    16.917673    
     44000   1.0039409      0.0024112988   1000000        0.0018477063   0.0017059073   0.0036802829   18.376507     -0.048918955    16.919586    
     45000   1.0039741      0.00014490167  1000000        0.00095781687  0.00082437047 -0.0013474823   18.374294     -0.049490003    16.917895    
     46000   1.0030598      0.0036781355   1000000        0.0039206771   0.0031286433   0.0039850862   18.375328     -0.051086843    16.921897    
     47000   1.0082599      0.00055388907  1000000        3.8623276e-05  0.00012619655  0.0014968474   18.377876     -0.05605641     16.921615    
     48000   1.0057816      0.0022363613   1000000        0.0025724883   0.0022657701   0.0018708255   18.372982     -0.056638721    16.92102     
     49000   1.0007         0.0012979332   1000000        0.00073683075  0.003076735    8.0233773e-05  18.372087     -0.060574187    16.931683    
     50000   1.0015342      0.0016440411   1000000        0.0027945017  -0.00035472809  0.0024923497   18.362195     -0.065764285    16.925729    
     51000   1.0061213      0.00060410821  1000000        0.00063867303  0.0008249694   0.0003486822   18.362756     -0.069919779    16.923565    
     52000   1.0091735      0.0028834697   1000000        0.0038976085   0.0032736713   0.0014791292   18.360312     -0.071467376    16.918092    
     53000   1.0030962      0.0018770294   1000000        0.0014346647   0.0018937657   0.0023026578   18.361565     -0.074689955    16.931682    
     54000   1.0030319      0.0019051987   1000000        0.0013698683   0.0025819048   0.0017638231   18.356501     -0.073229564    16.925254    
     55000   1.0107358      0.0031829579   1000000        0.004135957    0.0047154953   0.00069742151  18.359799     -0.077507353    16.921275    
     56000   1.0109103     -0.00098275609  1000000       -0.0016011922   3.0818155e-05 -0.0013778942   18.354191     -0.082455278    16.920353    
     57000   1.010398       0.002321379    1000000        0.0033847344  -0.00031256348  0.0038919659   18.352253     -0.086615127    16.923343    
     58000   1.0081681      4.1439925e-06  1000000       -0.00021084793  0.0021631094  -0.0019398295   18.345545     -0.090006693    16.923371    
     59000   1.0031304     -0.00062764482  1000000       -0.0014184908  -0.0019800307   0.001515587    18.347971     -0.08863314     16.93198     
     60000   1.0047193      0.0028315674   1000000        0.0037578042   0.0036836913   0.0010532068   18.34691      -0.091486298    16.931389    
     61000   1.0017185      0.0015162495   1000000        0.00069222404  0.0020573139   0.0017992106   18.338961     -0.093756933    16.930212    
     62000   1.0024421      0.00024278     1000000        0.003038308   -0.00078096574 -0.0015290023   18.340911     -0.094340657    16.93166     
     63000   1.0030683      0.0034011695   1000000        0.0018885263   0.0054940898   0.0028208923   18.339822     -0.098912035    16.934203    
     64000   1.0063396      0.0012687137   1000000       -0.00019407916  0.0017809677   0.0022192524   18.334207     -0.1007413      16.925511    
     65000   1.002218       0.001976531    1000000        0.0024338728   0.001924883    0.0015708372   18.335603     -0.10238854     16.934736    
     66000   1.0059581      0.0015995096   1000000        0.0017052732   0.0018864793   0.0012067763   18.335722     -0.10639629     16.933253    
     67000   1.0074924      0.0005624697   1000000        0.00037356255 -0.0002400373   0.0015538839   18.336337     -0.10959851     16.934769    
     68000   1.0123289      0.00073201172  1000000        8.2012789e-06  0.0017992088   0.00038862511  18.337176     -0.11386938     16.932625    
     69000   1.0140945      0.0020711312   1000000        0.0019927096   0.0015685916   0.0026520925   18.33552      -0.11842375     16.932875    
     70000   1.0127262     -0.0013735373   1000000       -0.00076116391 -0.0014011509  -0.0019582971   18.337519     -0.12017213     16.938674    
     71000   1.0133828      0.00091323395  1000000        0.0036211485  -0.00040389725 -0.00047754942  18.330793     -0.12100134     16.931793    
     72000   1.0113541      0.0020304813   1000000        0.00082605174  0.0038106707   0.0014547215   18.326558     -0.12299597     16.932595    
     73000   1.013767       0.0023602251   1000000        0.0020589956   0.0029514617   0.0020702181   18.321537     -0.12932996     16.930289    
     74000   1.0100617     -0.0004163118   1000000        0.00075388797 -0.0020757715   7.2948085e-05  18.321185     -0.13319496     16.93936     
     75000   1.0124614      0.0027984411   1000000        0.0018163991   0.0049428702   0.001636054    18.321247     -0.13875851     16.941386    
     76000   1.0152748      0.00064516379  1000000        0.0019365892  -0.00012933998  0.0001282421   18.324954     -0.13933232     16.941447    
     77000   1.0144844      2.5545851e-06  1000000       -0.00018348735  0.00022701419 -3.5863086e-05  18.320113     -0.14246516     16.940924    
     78000   1.0122443      0.0025807006   1000000        0.0022895729   0.0020997254   0.0033528035   18.31955      -0.14527777     16.946534    
     79000   1.0151334      0.00061270233  1000000        0.00047942791  0.0011959858   0.00016269332  18.320993     -0.14502305     16.943389    
     80000   1.0180218      0.00098740772  1000000        0.0011355911   0.001479641    0.00034699106  18.319951     -0.14981005     16.942801    
     81000   1.0193654      0.0021144288   1000000        0.00059507553  0.0028471038   0.0029011071   18.313375     -0.15471022     16.93911     
     82000   1.0214175      0.0011360566   1000000        0.0022740248  -1.8296239e-05  0.0011524414   18.311754     -0.15933002     16.93903     
     83000   1.0175633     -0.00056105449  1000000       -0.0020827239   0.0003715816   2.7978841e-05  18.309346     -0.16306208     16.946136    
     84000   1.01164        0.0039155902   1000000        0.0059577099   0.0037988763   0.0019901843   18.305142     -0.1623012      16.950055    
     85000   1.012783       0.0001558935   1000000       -0.00053365939 -3.7189717e-06  0.0010050589   18.296236     -0.16698477     16.944119    
     86000   1.0133998     -1.8237253e-05  1000000        0.00039229281  0.0006486471  -0.0010956517   18.295782     -0.17103859     16.946793    
     87000   1.0171019      0.0019027559   1000000        0.0018603626   0.0018536118   0.0019942932   18.291938     -0.17203699     16.938394    
     88000   1.017399      -1.7089461e-05  1000000       -0.00085178381  0.00029671585  0.00050379958  18.29203      -0.17669333     16.942697    
     89000   1.0202593      0.0035382184   1000000        0.0029107326   0.0037355488   0.0039683738   18.29213      -0.18112465     16.942939    
     90000   1.0203301     -0.00191701     1000000       -0.0019702739  -0.0026430284  -0.0011377277   18.283718     -0.18387494     16.93717     
     91000   1.0224014      0.0020770804   1000000        0.0011413405   0.0017488811   0.0033410195   18.281477     -0.1874752      16.935423    
     92000   1.0202233      0.00021588053  1000000        0.00040428454  0.0015183498  -0.0012749927   18.281917     -0.18778671     16.939442    
     93000   1.0158298     -0.00018323928  1000000       -0.00080236201 -0.00010538679  0.00035803096  18.27783      -0.18886739     16.943025    
     94000   1.0192311      0.0017630743   1000000        0.00092504445  0.004396608   -3.2429499e-05  18.272682     -0.194069       16.937977    
     95000   1.0264267      0.00051819055  1000000       -0.00020790011 -0.00054645738  0.0023089291   18.274806     -0.20245683     16.937696    
     96000   1.0187417     -9.875281e-05   1000000        0.0011765209  -0.00036977657 -0.0011030028   18.27436      -0.20306196     16.949382    
     97000   1.0267917      0.00090283327  1000000       -0.00010265392  0.0014637139   0.0013474398   18.27132      -0.20810926     16.939315    
     98000   1.0280064      0.00055097306  1000000        0.00093854135  0.00076989231 -5.5514483e-05  18.269036     -0.20987074     16.936971    
     99000   1.0230885     -0.0006348095   1000000       -0.00046193281 -0.0007828616  -0.00065963408  18.260548     -0.21028309     16.936272    
    100000   1.0193522      0.0025133837   1000000        0.0013548906   0.0036264405   0.0025588201   18.251694     -0.21598973     16.938728    
Loop time of 68.2814 on 1 procs for 100000 steps with 21000 atoms

Performance: 12653.521 tau/day, 1464.528 timesteps/s, 30.755 Matom-step/s
99.8% CPU use with 1 MPI tasks x no OpenMP threads

MPI task timing breakdown:
Section |  min time  |  avg time  |  max time  |%varavg| %total
---------------------------------------------------------------
Pair    | 17.307     | 17.307     | 17.307     |   0.0 | 25.35
Bond    | 10.175     | 10.175     | 10.175     |   0.0 | 14.90
Neigh   | 0.51791    | 0.51791    | 0.51791    |   0.0 |  0.76
Comm    | 2.3698     | 2.3698     | 2.3698     |   0.0 |  3.47
Output  | 0.0060905  | 0.0060905  | 0.0060905  |   0.0 |  0.01
Modify  | 35.915     | 35.915     | 35.915     |   0.0 | 52.60
Other   |            | 1.991      |            |       |  2.92

Nlocal:          21000 ave       21000 max       21000 min
Histogram: 1 0 0 0 0 0 0 0 0 0
Nghost:          10234 ave       10234 max       10234 min
Histogram: 1 0 0 0 0 0 0 0 0 0
Neighs:         101077 ave      101077 max      101077 min
Histogram: 1 0 0 0 0 0 0 0 0 0

Total # of neighbors = 101077
Ave neighs/atom = 4.8131905
Ave special neighs/atom = 1.9790476
Neighbor list builds = 63
Dangerous builds = 0

# ====================================================================== #
# SET UP SIMULATION
# =================
timestep 0.0001
reset_timestep 0

# Write polymer and crosslinker coordinates from simulation to file:
# - Write every 2000 timesteps
# - Write atom ID, molecule ID, atom type, and atom coordinates
# - Sort lines by atom ID
dump 1 all custom 2000 tetrahedral_20p200c.lammpstrj id mol type xu yu zu vx vy vz
dump_modify 1 sort id

# Write polymer bonds and polymer/crosslinker bonds to file
compute 1 all property/local btype batom1 batom2
dump 2 all local 2000 tetrahedral_20p200c.bond index c_1[1] c_1[2] c_1[3]
dump_modify 2 sort 3

# ====================================================================== #
# DEFINE MOLECULE TEMPLATES
# =========================
molecule forward_unbonded unreacted.data_template
Read molecule template forward_unbonded:
  1 molecules
  0 fragments
  4 atoms with max type 3
  2 bonds with max type 2
  0 angles with max type 0
  0 dihedrals with max type 0
  0 impropers with max type 0
molecule forward_bonded reacted.data_template
Read molecule template forward_bonded:
  1 molecules
  0 fragments
  4 atoms with max type 3
  3 bonds with max type 3
  0 angles with max type 0
  0 dihedrals with max type 0
  0 impropers with max type 0
molecule reverse_bonded reacted.data_template
Read molecule template reverse_bonded:
  1 molecules
  0 fragments
  4 atoms with max type 3
  3 bonds with max type 3
  0 angles with max type 0
  0 dihedrals with max type 0
  0 impropers with max type 0
molecule reverse_unbonded unreacted.data_template
Read molecule template reverse_unbonded:
  1 molecules
  0 fragments
  4 atoms with max type 3
  2 bonds with max type 2
  0 angles with max type 0
  0 dihedrals with max type 0
  0 impropers with max type 0

# ====================================================================== #
# DEFINE POLYMER/CROSSLINKER BONDING REACTION
# ===========================================
# - Apply reaction site stabilization (apply nve/limit to reacting atoms
#   for fixed number of timesteps to disallow immediate participation in
#   further reactions)
# - Perform bonding reaction (rxn1) if reacting atoms are within distance
#   [0, 1.1] (1.0 = harmonic bond equilibrium length)
# - Perform unbonding reaction (rxn2) if reacting atoms are within distance
#   [0.9, 1.1] (1.0 = harmonic bond equilibrium length)
# - Set prob = 1.0 to ensure that the reaction proceeds if all constraints
#   (including the Arrhenius constraint) is satisfied
fix myrxns all bond/react stabilization yes statted_group 0.5     react rxn1 all 1 0.0 1.1 forward_unbonded forward_bonded forward_map prob 1.0 1234     react rxn2 all 1 0.9 1.1 reverse_bonded reverse_unbonded reverse_map prob 1.0 12345
dynamic group bond_react_MASTER_group defined
dynamic group statted_group_REACT defined

# ====================================================================== #
# SET UP ENSEMBLES
# ================
# - Apply NVT ensemble on unreacting atoms throughout the simulation
# - Apply Langevin dynamics on reacting atoms throughout the simulation
fix fx1 statted_group_REACT nvt temp $g $g 2.0
fix fx1 statted_group_REACT nvt temp 1 $g 2.0
fix fx1 statted_group_REACT nvt temp 1 1 2.0
fix fx2 bond_react_MASTER_group langevin $g $g 2.0 12345
fix fx2 bond_react_MASTER_group langevin 1 $g 2.0 12345
fix fx2 bond_react_MASTER_group langevin 1 1 2.0 12345

# ====================================================================== #
# RUN SIMULATION
# ==============
run 2000000

CITE-CITE-CITE-CITE-CITE-CITE-CITE-CITE-CITE-CITE-CITE-CITE-CITE

Your simulation uses code contributions which should be cited:

- fix bond/react: reacter.org doi:10.1016/j.polymer.2017.09.038, doi:10.1021/acs.macromol.0c02012

@Article{Gissinger17,
 author = {J. R. Gissinger and B. D. Jensen and K. E. Wise},
 title = {Modeling Chemical Reactions in Classical Molecular Dynamics Simulations},
 journal = {Polymer},
 year =    2017,
 volume =  128,
 pages =   {211--217}
}

@Article{Gissinger20,
 author = {J. R. Gissinger, B. D. Jensen, K. E. Wise},
 title = {{REACTER}: A Heuristic Method for Reactive Molecular Dynamics},
 journal = {Macromolecules},
 year =    2020,
 volume =  53,
 number =  22,
 pages =   {9953--9961}
}

CITE-CITE-CITE-CITE-CITE-CITE-CITE-CITE-CITE-CITE-CITE-CITE-CITE

Generated 0 of 3 mixed pair_coeff terms from geometric mixing rule
Neighbor list info ...
  update: every = 1 steps, delay = 1 steps, check = yes
  max neighbors/atom: 2000, page size: 100000
  master list distance cutoff = 6.4
  ghost atom cutoff = 6.4
  binsize = 3.2, bins = 32 32 32
  2 neighbor lists, perpetual/occasional/extra = 1 1 0
  (1) pair lj/cut, perpetual
      attributes: half, newton on
      pair build: half/bin/newton
      stencil: half/bin/3d
      bin: standard
  (2) fix bond/react, occasional, copy from (1)
      attributes: half, newton on
      pair build: copy
      stencil: none
      bin: none
Per MPI rank memory allocation (min/avg/max) = 13.04 | 13.04 | 13.04 Mbytes
   Step          Temp          Press          Volume          Pxx            Pyy            Pzz           TotEng         E_pair         E_bond    
         0   1.0193522      0.0025133837   1000000        0.0013548906   0.0036264405   0.0025588201   18.251694     -0.21598973     16.938728    
      1000   1.1626145      0.0013401845   1000000        0.0012054342   0.00166677     0.0011483493   18.528766     -0.21460793     16.999536    
      2000   1.2848231      0.0016785354   1000000        0.0011676793   0.0033092534   0.00055867358  18.775396     -0.21202534     17.060279    
      3000   1.3798228      0.0012884037   1000000        0.0012459843   0.0016906432   0.0009285835   18.973396     -0.20648994     17.110251    
      4000   1.4608305      0.0018202256   1000000        0.00314126     0.0011794445   0.0011399723   19.146025     -0.20391928     17.158803    
      5000   1.528614       0.0019577382   1000000        0.0014898436   0.0041891554   0.00019421549  19.293689     -0.20352249     17.2044      
      6000   1.5812294      0.0025393993   1000000        0.0025189181   0.0045741553   0.00052512453  19.419721     -0.19770256     17.245693    
      7000   1.6277177      0.0027880697   1000000        0.0024352003   0.0046010875   0.0013279213   19.542725     -0.19404656     17.295311    
      8000   1.6720938      0.0011836841   1000000        0.00029510328  0.00087790088  0.0023780482   19.640493     -0.19451245     17.326984    
      9000   1.7056286      0.0010139783   1000000        0.001727606    0.0036576888  -0.0023433599   19.72101      -0.19929082     17.361979    
     10000   1.7370769      0.0027940883   1000000        0.0039686056   0.0023749827   0.0020386768   19.785527     -0.1949249      17.374961    
     11000   1.7798462      0.0031364933   1000000        0.0038241753   0.0036281209   0.0019571836   19.848311     -0.1975206      17.376189    
     12000   1.7975562      0.0023787986   1000000        0.0010579551   0.0050273614   0.0010510792   19.897438     -0.19801982     17.399252    
     13000   1.8263136      0.00080535567  1000000        0.0033971714  -0.00095091976 -3.018467e-05   19.954894     -0.20458047     17.420134    
     14000   1.8250024      0.0021496032   1000000        0.0016495928   0.0029401665   0.0018590505   19.981886     -0.19754186     17.442055    
     15000   1.8354518     -0.0004641333   1000000       -0.00019562556  0.0016832825  -0.0028800569   20.018337     -0.19781988     17.46311     
     16000   1.8670838      0.001435015    1000000        0.0020345284   0.0013647853   0.00090573121  20.068312     -0.20653416     17.474354    
     17000   1.8783972      0.0034886424   1000000        0.0045954506   0.0028698434   0.0030006333   20.095449     -0.20429277     17.48228     
     18000   1.8883186      0.0019038259   1000000        0.0031959129   0.0023699086   0.00014565636  20.127737     -0.20636449     17.501758    
     19000   1.9001261      0.0013412545   1000000        0.00075818884 -0.00012971452  0.0033952893   20.156322     -0.21336        17.519629    
     20000   1.8959904     -0.001248434    1000000       -0.0015119976  -0.0017640928  -0.00046921172  20.14861      -0.21301186     17.517771    
     21000   1.8958826      0.00098049538  1000000        0.00037365153 -0.00092655993  0.0034943945   20.173166     -0.21395381     17.543432    
     22000   1.9094497      0.0040081744   1000000        0.0024110948   0.0042258063   0.005387622    20.182083     -0.21367371     17.531719    
     23000   1.9172917     -6.8007128e-05  1000000        0.00032698704  0.0010172003  -0.0015482088   20.185774     -0.21790041     17.527874    
     24000   1.9032553     -0.0018086624   1000000       -0.0027748104  -0.0034606205   0.00080944357  20.18604      -0.21615356     17.547447    
     25000   1.9126515     -0.0012994327   1000000       -0.0016308347  -0.0053654873   0.0030980238   20.195256     -0.22413149     17.550547    
     26000   1.9224235      0.00040060506  1000000        0.0011048971   5.7529543e-05  3.9388489e-05  20.214273     -0.21947821     17.550253    
     27000   1.935712       0.003514926    1000000        0.0022662675   0.0029663808   0.0053121298   20.241168     -0.21982293     17.557562    
     28000   1.931489       0.0024686467   1000000        0.0032672683   0.00079909525  0.0033395765   20.232968     -0.22425059     17.560123    
     29000   1.9348897      0.00083403509  1000000        0.0011150754   0.0018620168  -0.00047498688  20.231475     -0.22996437     17.559243    
     30000   1.9405897      0.00059568929  1000000        0.0018228409   0.00012731952 -0.00016309259  20.2256       -0.23483631     17.54969     
     31000   1.9341894      0.0016869972   1000000        0.00018573505  0.0024277386   0.0024475181   20.204455     -0.23268956     17.535999    
     32000   1.9351245      0.0022092119   1000000        0.0029268614  -0.00014361105  0.0038443854   20.209548     -0.23269877     17.539699    
     33000   1.9255248      0.0012926477   1000000        0.0013504308   0.00093287163  0.0015946406   20.207128     -0.23650401     17.555482    
     34000   1.9266397      0.004715883    1000000        0.0024487063   0.0083053206   0.0033936222   20.213353     -0.23761648     17.561148    
     35000   1.9424364      0.00073951283  1000000        0.00039807848  0.001693284    0.00012717601  20.222209     -0.24696796     17.555661    
     36000   1.9368307      0.00098907534  1000000       -0.00059779937  0.0023784977   0.0011865277   20.227295     -0.24628604     17.568473    
     37000   1.9412771      0.0024724626   1000000        0.0014061289   0.00068965357  0.0053216053   20.218044     -0.25529982     17.561567    
     38000   1.9317822      0.00039934135  1000000       -0.0031216051   0.0017206647   0.0025989644   20.210132     -0.26200243     17.574599    
     39000   1.9369827     -0.00141093     1000000       -0.0050754412  -0.00065226708  0.0014949184   20.20073      -0.26387159     17.559266    
     40000   1.9191958      0.0024745285   1000000        0.0017035508   0.0028787054   0.0028413293   20.19197      -0.26272876     17.576042    
     41000   1.9241002     -0.0042723538   1000000       -0.0043280834  -0.0083169692  -0.00017200861  20.197399     -0.27109361     17.582479    
     42000   1.9306917     -0.001461336    1000000        0.0015972493  -0.0047841825  -0.001197075    20.195018     -0.27618388     17.575302    
     43000   1.9449859      7.3914545e-05  1000000       -0.0018347407  -0.0010808605   0.0031373448   20.196729     -0.28268564     17.562075    
     44000   1.9364267     -0.0019820245   1000000       -0.00026086405 -0.0039018873  -0.0017833222   20.192965     -0.28620877     17.574672    
     45000   1.9436473     -0.00070132194  1000000       -0.0024078309   0.00058079416 -0.00027692907  20.189196     -0.289448       17.563312    
     46000   1.9482187      0.0015129696   1000000        0.0022917272   0.0017310621   0.00051611945  20.187859     -0.29563763     17.561308    
     47000   1.9420563      0.0026084332   1000000        0.0027489578   0.0031014645   0.0019748772   20.188205     -0.29356224     17.568822    
     48000   1.9476914      0.00079295161  1000000       -0.00038033447  0.0014273485   0.0013318408   20.188368     -0.29876857     17.565739    
     49000   1.9422472      0.0014117622   1000000        0.0021615832  -0.0022427968   0.0043165002   20.196606     -0.29884367     17.582217    
     50000   1.9358188      0.0014552778   1000000        0.0034904331  -0.00058633491  0.0014617353   20.181938     -0.30181556     17.580164    
     51000   1.9325603      0.0049017014   1000000        0.0034385453   0.0080238818   0.003242677    20.174449     -0.29585529     17.571602    
     52000   1.9324387      0.00081142024  1000000        0.0015382493   0.00023313145  0.00066287996  20.168609     -0.30474149     17.574831    
     53000   1.9367751      0.0010443739   1000000       -9.9862989e-05  0.0020409272   0.0011920576   20.158022     -0.30049904     17.553496    
     54000   1.931271       0.0030887231   1000000        0.0046117471   0.0032048085   0.0014496137   20.136445     -0.31216537     17.551842    
     55000   1.9266756      0.003187286    1000000        0.0036547366   0.0027917479   0.0031153734   20.114589     -0.31844442     17.543157    
     56000   1.9064068     -0.0019904741   1000000       -0.0016902979  -0.0020145797  -0.0022665448   20.096346     -0.31798639     17.554858    
     57000   1.9082567      0.00023941591  1000000       -0.0018027112   0.001828921    0.00069203786  20.090909     -0.32157213     17.550232    
     58000   1.9217746      0.0029459463   1000000        0.0026029977   0.0020762872   0.0041585541   20.096028     -0.32766441     17.541168    
     59000   1.9311018      0.0012432181   1000000        0.0037885862  -0.00187937     0.0018204381   20.119939     -0.3362912      17.559715    
     60000   1.9231031      0.0010351684   1000000        0.0018508655  -0.00022594331  0.0014805831   20.109379     -0.33753502     17.562396    
     61000   1.9139992      0.0031193055   1000000        0.0017767713   0.0037176247   0.0038635205   20.106513     -0.33944778     17.575099    
     62000   1.9121524      0.00094923799  1000000        0.00090810974 -2.10013e-05    0.0019606055   20.096216     -0.34163969     17.569764    
     63000   1.9159324      0.0015146661   1000000        0.002500124    0.00039870123  0.0016451731   20.095707     -0.34416355     17.566109    
     64000   1.9174058     -0.00023650372  1000000       -0.00067564057  0.0011595787  -0.0011934493   20.086027     -0.34614898     17.556205    
     65000   1.9271351      0.002871051    1000000        0.0015352176   0.0049735536   0.0021043818   20.077659     -0.35165283     17.538747    
     66000   1.9276507      0.0037650322   1000000        0.0031016507   0.0050196068   0.0031738391   20.065909     -0.35761472     17.532185    
     67000   1.9220861     -0.0012336666   1000000       -0.0031571611   0.0017638703  -0.0023077089   20.07711      -0.35546336     17.549582    
     68000   1.928863       0.0019632877   1000000        0.0026647593   0.0031781885   4.6915143e-05  20.081045     -0.36040147     17.548289    
     69000   1.9227829     -0.001379823    1000000       -0.0033373214  -8.8123506e-05 -0.0007140241   20.087475     -0.3637894      17.567227    
     70000   1.9419523      0.0005070208   1000000        0.0033857017  -0.0022110042   0.00034636489  20.090483     -0.36523754     17.542931    
     71000   1.9296529      0.001670805    1000000        0.0049435069   0.00029555564 -0.00022664746  20.078858     -0.366314       17.550831    
     72000   1.9317558      0.0016783757   1000000        0.0015386083   0.0032363472   0.00026017154  20.085291     -0.36958957     17.557385    
     73000   1.9348582     -0.0010419717   1000000       -0.0029951412  -0.00052205593  0.00039128199  20.082679     -0.37801505     17.558545    
     74000   1.9210263      0.0001072412   1000000        0.0016412645  -0.0019149564   0.00059541557  20.053277     -0.38084652     17.552722    
     75000   1.9285281      0.00085271229  1000000       -0.00039761742 -0.00043814618  0.0033939005   20.051638     -0.38818824     17.547172    
     76000   1.9196212      0.00035017473  1000000        0.00070908364 -0.0017255198   0.0020669603   20.049519     -0.39007577     17.5603      
     77000   1.9082066      0.0017533461   1000000        0.0001462817   0.001844862    0.0032688946   20.017972     -0.39047104     17.546269    
     78000   1.911781      -0.00046963679  1000000        0.00031619535  0.00029560041 -0.0020207061   20.023003     -0.39084953     17.546317    
     79000   1.8979198      0.0018532147   1000000        0.0024982008   0.0031873789  -0.00012593575  20.010667     -0.39586545     17.559789    
     80000   1.9136503     -0.00016230263  1000000       -0.0016622153  -0.0011408642   0.0023161716   20.003429     -0.40301769     17.536108    
     81000   1.9113371      0.00034286801  1000000       -0.0019992948   0.0026198848   0.00040801411  20.015661     -0.40522497     17.554017    
     82000   1.9059648      0.00027027191  1000000        0.0020001865  -0.0019168933   0.00072752252  20.013132     -0.40460001     17.558921    
     83000   1.9176991      0.00035443805  1000000        0.0021067478  -0.0014700987   0.00042666509  20.017924     -0.41068247     17.552194    
     84000   1.9066103      0.00076787527  1000000        0.0025881971  -0.0014291361   0.0011445648   20.003379     -0.41762219     17.561222    
     85000   1.9223133      0.00038339664  1000000       -0.0001512988   0.00067864814  0.00062284058  20.004882     -0.42701432     17.548563    
     86000   1.9085757      0.0021213631   1000000        0.0039298052   0.00055268022  0.0018816038   19.990901     -0.42454376     17.552717    
     87000   1.9114056      0.0010454882   1000000        0.0010449156   0.0018233751   0.00026817401  19.971465     -0.43362611     17.538119    
     88000   1.9122163      0.0017380605   1000000        0.0022124418   9.931215e-05   0.0029024276   19.979851     -0.42781597     17.539479    
     89000   1.9141216      2.6195813e-05  1000000        0.0011239659  -0.0011663675   0.00012098901  19.974803     -0.43758137     17.541339    
     90000   1.9120433     -0.0023024317   1000000        0.00041836936 -0.0049426905  -0.0023829741   19.976001     -0.4383605      17.546433    
     91000   1.9192818      0.0023358848   1000000        0.00053742764  0.0039829858   0.0024872408   19.974908     -0.44162821     17.537751    
     92000   1.9079188      0.0029076376   1000000        0.0053090424   0.0024117491   0.0010021211   19.967107     -0.44807913     17.553444    
     93000   1.8918442      0.0013694459   1000000        0.00036474325 -0.0012410681   0.0049846625   19.951174     -0.447518       17.561061    
     94000   1.8970873      0.00086391453  1000000       -0.00070432524  0.0045122578  -0.0012161889   19.944822     -0.4510968      17.550423    
     95000   1.9072876      0.0019196553   1000000        0.0033085774   0.003305915   -0.00085552669  19.932737     -0.45638215     17.528324    
     96000   1.9098388      0.0008912391   1000000        0.0017724751   0.0020987266  -0.0011974844   19.937663     -0.45386382     17.526905    
     97000   1.8979414     -0.00014709018  1000000        0.0015965113  -0.0013187907  -0.00071899111  19.92136      -0.45394574     17.528529    
     98000   1.886305      -0.00070091924  1000000       -0.0006286834   0.00057993953 -0.0020540138   19.906287     -0.46803519     17.544999    
     99000   1.9025291      0.0016481268   1000000        0.00058116167  0.0035629736   0.00080024511  19.923359     -0.46177191     17.531473    
    100000   1.9032586     -0.001901188    1000000       -0.0010707972  -0.0021746735  -0.0024580934   19.917121     -0.47293758     17.535306    
    101000   1.9048893     -0.00034630743  1000000       -0.0015289987  -0.00090866659  0.001398743    19.926067     -0.47430755     17.543177    
    102000   1.8991958      0.0014755995   1000000        0.0026073043   0.0018360834  -1.6589067e-05  19.919401     -0.47391468     17.544657    
    103000   1.9069692     -0.00051564737  1000000        0.00061923959 -0.00033616906 -0.0018300126   19.9106       -0.47963635     17.529919    
    104000   1.8966077      0.0030881511   1000000        0.0033393574   0.0021717      0.0037533959   19.90025      -0.4790597      17.534534    
    105000   1.8908967      0.00033310024  1000000        0.001105057   -0.0019895122   0.0018837559   19.892029     -0.48119547     17.537014    
    106000   1.8846507     -0.00057177546  1000000       -0.0010455614   0.00025056642 -0.00092033137  19.902588     -0.47372087     17.549467    
    107000   1.9035667      0.0021564488   1000000        0.0012986506   0.0024596307   0.002711065    19.897623     -0.48480152     17.527211    
    108000   1.8965395     -0.0014121986   1000000       -0.0041507097  -0.00056897954  0.00048309336  19.900644     -0.49285203     17.548822    
    109000   1.8928647     -0.00027794754  1000000        0.0003113496  -0.0021439748   0.0009987826   19.891848     -0.48748109     17.540168    
    110000   1.8776777     -0.0044318421   1000000       -0.006211375   -0.003597693   -0.0034864583   19.874973     -0.48963403     17.548225    
    111000   1.9106025      0.0028422015   1000000        0.0046821344   0.0022842194   0.0015602506   19.883885     -0.49629632     17.514414    
    112000   1.8954797     -0.00083339995  1000000       -0.00040682526  0.0017179639  -0.0038113385   19.878026     -0.49741732     17.532359    
    113000   1.8828801      0.0028788023   1000000        0.0033317487   0.0028592001   0.0024454581   19.86857      -0.50106644     17.545451    
    114000   1.8945822      0.0018544167   1000000        0.0032871471   0.00051792428  0.0017581787   19.869384     -0.50330539     17.530952    
    115000   1.8917803      0.0014119113   1000000        0.0045456512  -0.00086733379  0.00055741655  19.867743     -0.51117248     17.54138     
    116000   1.8899107      0.00045255968  1000000        0.0018584784  -0.0009049072   0.00040410782  19.868171     -0.51384211     17.547282    
    117000   1.8953773     -0.00056140597  1000000       -0.00076728567 -0.00071113579 -0.00020579644  19.877959     -0.50931339     17.544342    
    118000   1.8903817     -0.0015158423   1000000       -0.0008523752  -0.0023810741  -0.0013140776   19.869404     -0.51166655     17.545633    
    119000   1.9122778     -0.00066198284  1000000       -0.00028770514  0.0017379307  -0.0034361741   19.8845       -0.5099936      17.526213    
    120000   1.9105224      0.0021868582   1000000        0.0016811273   0.0018352873   0.00304416     19.88112      -0.5187415      17.534214    
    121000   1.907094      -0.0012181563   1000000       -0.0033878802  -0.00074830137  0.00048171285  19.887264     -0.51418014     17.540939    
    122000   1.9129783      0.00027540368  1000000        0.0021614252  -0.00053429751 -0.00080091663  19.879039     -0.52460219     17.53431     
    123000   1.9085936     -0.0020542944   1000000       -0.0026687594  -0.0014925103  -0.0020016135   19.87997      -0.52457667     17.541793    
    124000   1.9052289     -0.0031817488   1000000       -0.00038066965 -0.0044279666  -0.0047366102   19.875491     -0.52745306     17.545237    
    125000   1.89991       -0.00053300399  1000000        0.0012461863  -0.0014596301  -0.0013855682   19.867433     -0.53098943     17.548693    
    126000   1.9061236     -0.00022727528  1000000       -0.001428898    0.004276834   -0.0035297618   19.865912     -0.53626502     17.543127    
    127000   1.9177225      0.0047498711   1000000        0.0041371401   0.0040713405   0.0060411326   19.871645     -0.5371814      17.532379    
    128000   1.9100573      0.002726496    1000000        0.0041063162   0.0020226422   0.0020505295   19.852415     -0.54262039     17.530086    
    129000   1.9110775      0.00042607661  1000000       -0.00065748821  0.0020589044  -0.00012318636  19.85394      -0.55643542     17.543895    
    130000   1.89863        0.0024887241   1000000        0.00078727295  0.0016201444   0.0050587549   19.838157     -0.55792453     17.548272    
    131000   1.9024732      0.003707927    1000000        0.0035515549  -0.00071022246  0.0082824486   19.82253      -0.55504949     17.524006    
    132000   1.9014277     -0.0012363297   1000000       -0.0017316821  -0.0013519193  -0.00062538759  19.826273     -0.56139891     17.535666    
    133000   1.8993642      6.817231e-05   1000000       -0.001163878    0.00019734133  0.0011710536   19.826305     -0.56447547     17.54187     
    134000   1.9018214      0.0022992105   1000000        0.00026032013  0.0046265261   0.0020107853   19.826556     -0.56341557     17.537375    
    135000   1.895243       0.0015095988   1000000        0.00035141699  0.0025017723   0.001675607    19.820174     -0.5619863      17.539431    
    136000   1.8972931      0.0025896702   1000000       -0.0012725189   0.0052524184   0.003789111    19.821855     -0.56306456     17.539115    
    137000   1.904657       0.0021684463   1000000        0.0028298535   0.0016897746   0.0019857109   19.824245     -0.56582258     17.533218    
    138000   1.8911017      0.0016291653   1000000        5.1994586e-05  0.0023898097   0.0024456917   19.827157     -0.56187687     17.552517    
    139000   1.8916973      0.0025690928   1000000        0.0059027166   0.0009676715   0.0008368903   19.801521     -0.56470728     17.528817    
    140000   1.8806862      7.8228457e-05  1000000        0.0040486948  -0.0031141021  -0.0006999073   19.784903     -0.56426248     17.528271    
    141000   1.8961101     -0.00047269638  1000000        0.0020580048  -0.0016492545  -0.0018268395   19.793471     -0.5685338      17.517975    
    142000   1.8855558      0.0016567486   1000000        0.00034455018  0.0025612234   0.0020644721   19.792654     -0.56933099     17.533786    
    143000   1.8917917      0.0018977321   1000000        0.0031513077   0.00030076557  0.002241123    19.796512     -0.5701921      17.529152    
    144000   1.8971659     -0.00012673978  1000000        3.8375998e-05 -0.00044075234  2.2157004e-05  19.799798     -0.57015449     17.524339    
    145000   1.899903      -0.00042100603  1000000       -0.00064500117  0.0016736535  -0.0022916704   19.79926      -0.56768008     17.517222    
    146000   1.8879824      0.0008892615   1000000       -0.0022866455   0.001860844    0.003093586    19.798279     -0.57036961     17.53681     
    147000   1.8916015      0.00039085225  1000000       -0.00061235243  0.0010311244   0.00075378482  19.80746      -0.57593915     17.546132    
    148000   1.896286       0.0025690003   1000000        0.0017452126   0.0037883074   0.002173481    19.810089     -0.57251252     17.538308    
    149000   1.8880575      0.0014351559   1000000        0.00090598315  0.0025115111   0.0008879733   19.811829     -0.57022499     17.550103    
    150000   1.9163097      0.00086337811  1000000        0.0019061739   0.0018943993  -0.0012104389   19.827597     -0.58058054     17.53385     
    151000   1.906578       0.00056787973  1000000        0.0025320322  -0.00024454064 -0.00058385236  19.832498     -0.57159153     17.544359    
    152000   1.9030673     -0.0030110532   1000000       -0.0025580697  -0.0060869306  -0.00038815942  19.821101     -0.573787       17.540423    
    153000   1.8962095     -0.0014555837   1000000       -0.00056254066 -0.0010792419  -0.0027249685   19.810664     -0.58172775     17.548213    
    154000   1.9004406      0.00093248464  1000000        0.0027445853  -0.00046534448  0.00051821314  19.799639     -0.58633982     17.535454    
    155000   1.8793399      0.00040830564  1000000        0.00092106608  9.5553122e-05  0.00020829773  19.782991     -0.57908394     17.543199    
    156000   1.8925823     -2.673792e-06   1000000        0.00090751868 -0.00045184757 -0.00046369249  19.791738     -0.57563067     17.52863     
    157000   1.8864703     -0.0006787666   1000000       -0.0012610942   0.00098218107 -0.0017573867   19.772468     -0.57128698     17.514184    
    158000   1.8756377     -0.0010500485   1000000        0.00089129222 -0.0010809171  -0.0029605207   19.762577     -0.57792546     17.52718     
    159000   1.8928086      0.00026226044  1000000        0.0011402368   6.8499447e-05 -0.00042195493  19.766202     -0.58530966     17.512434    
    160000   1.8864609     -0.00085881963  1000000       -0.0031180296   0.00044667342  9.4897304e-05  19.75806      -0.59029732     17.518801    
    161000   1.881797      -0.0055861566   1000000       -0.0069937325  -0.0032449035  -0.0065198338   19.746697     -0.60550312     17.529639    
    162000   1.8907087      0.0010416083   1000000       -0.00039498379  0.00043616215  0.0030836466   19.75597      -0.59819103     17.518233    
    163000   1.8927189     -0.0011224527   1000000       -0.0012609816  -0.00084082351 -0.001265553    19.742269     -0.60315841     17.506484    
    164000   1.8833491      0.00025773964  1000000       -0.0022808373   0.0030116583   4.2397911e-05  19.740262     -0.60891545     17.524288    
    165000   1.8862541      0.0022626324   1000000        0.0010617766   0.0022553654   0.0034707553   19.742712     -0.61306361     17.526529    
    166000   1.8772106     -0.000817075    1000000        0.0016118818  -0.0014156889  -0.0026474179   19.733881     -0.60727081     17.52547     
    167000   1.8689823     -0.0031941575   1000000       -0.0037660579  -0.0049516095  -0.00086480514  19.741322     -0.6075261      17.545508    
    168000   1.8801298     -0.00076365832  1000000       -0.00056395893 -0.0015540857  -0.0001729303   19.736253     -0.61183191     17.528024    
    169000   1.8773838      0.0031448557   1000000       -0.00065410602  0.0052772171   0.0048114562   19.733788     -0.61232572     17.530172    
    170000   1.8835818      0.0038855623   1000000        0.0054702859   0.0020320644   0.0041543367   19.72851      -0.61651099     17.519783    
    171000   1.8780135      0.0031695276   1000000        0.0050821755   0.0024320047   0.0019944026   19.709523     -0.62247873     17.515115    
    172000   1.8787933     -0.00088069792  1000000        0.00066253419 -0.00026834131 -0.0030362867   19.732394     -0.61920096     17.533539    
    173000   1.8727578      0.00053253947  1000000       -0.00029261676  0.00036307527  0.0015271599   19.733505     -0.61373044     17.538233    
    174000   1.8956917     -0.00044263295  1000000       -0.000128218    0.0029155273  -0.0041152081   19.749366     -0.62514507     17.531109    
    175000   1.8903386      0.0012446793   1000000        0.00097887261  0.00046385508  0.0022913102   19.75271      -0.6224601      17.539797    
    176000   1.8926221      0.0026818285   1000000        0.00043631683  0.0039007121   0.0037084566   19.748185     -0.62608878     17.535476    
    177000   1.8985229      0.001290964    1000000        0.0012872415   0.0015898731   0.00099577761  19.756751     -0.63148792     17.54059     
    178000   1.9025275     -0.00072832997  1000000       -0.00077367982 -0.0025993198   0.0011880097   19.748189     -0.63451437     17.529048    
    179000   1.8925121      0.00057479092  1000000        0.002800057   -0.00093327706 -0.00014240716  19.748809     -0.63177305     17.541949    
    180000   1.8869258     -0.00032930357  1000000       -0.0013020065   0.0010803946  -0.00076629878  19.75177      -0.63091749     17.552434    
    181000   1.889743       0.0017773808   1000000        0.0019879168  -6.604627e-05   0.0034102718   19.738082     -0.63448603     17.538088    
    182000   1.8963604      0.0011428874   1000000        0.0031434052   0.00044909703 -0.00016384004  19.74618      -0.63571182     17.537486    
    183000   1.8781672      0.00054380018  1000000       -0.002485948    0.00064067292  0.0034766757   19.725334     -0.63225913     17.540477    
    184000   1.8735593      0.00016324573  1000000       -0.0002848701  -0.0015558336   0.0023304409   19.727864     -0.63467274     17.552332    
    185000   1.8783133      0.0012587922   1000000        0.0018476012   0.0012634222   0.00066535334  19.721903     -0.63798025     17.542547    
    186000   1.8893802     -0.00032405588  1000000        0.0030740451   0.00082814488 -0.0048743576   19.72227      -0.64597602     17.53431     
    187000   1.8897418      0.0013286445   1000000        0.00283678     0.0012977494  -0.00014859583  19.721119     -0.64703676     17.533678    
    188000   1.8895174      0.0012081314   1000000        0.0014520174   0.00066537158  0.0015070053   19.720388     -0.64396553     17.530213    
    189000   1.891622       0.00079310664  1000000       -0.0031388929   0.0038567811   0.0016614317   19.706705     -0.64406117     17.513468    
    190000   1.8811595      0.0025106744   1000000        0.0022197856   0.0025819162   0.0027303215   19.699812     -0.64853235     17.52674     
    191000   1.879724       0.0014646056   1000000        0.0023293076   0.00044033371  0.0016241754   19.704718     -0.650494       17.535761    
    192000   1.8829031      0.00066277164  1000000        0.0022703373   0.00029159317 -0.00057361556  19.708116     -0.6496345      17.53353     
    193000   1.892679      -0.0018253876   1000000       -0.0027093458  -0.0020442502  -0.00072256672  19.717819     -0.64767292     17.526609    
    194000   1.8967914      0.00073561136  1000000       -0.00048610204 -0.0010980014   0.0037909375   19.71868      -0.65044396     17.524072    
    195000   1.8967843     -0.0018616736   1000000       -0.0025916556  -0.0027573945  -0.00023597079  19.715671     -0.65301179     17.523642    
    196000   1.8981284      0.0018113595   1000000        0.00099463132  0.0012750438   0.0031644035   19.719038     -0.65154214     17.523523    
    197000   1.8947836      0.0022103352   1000000        0.00049121049  0.0016715772   0.0044682178   19.72483      -0.63896122     17.521751    
    198000   1.8947804     -0.0012131028   1000000       -0.0025709176  -0.00098474847 -8.3642341e-05  19.723725     -0.65644986     17.538139    
    199000   1.894978      -0.0008844827   1000000       -0.0020936231   0.001510896   -0.002070721    19.702754     -0.65696618     17.517389    
    200000   1.8888792     -0.0011645261   1000000       -0.00067208475 -0.0019722496  -0.000849244    19.69999      -0.66874181     17.535548    
    201000   1.8897109      0.00020023875  1000000       -4.7069696e-05 -0.00053978302  0.001187569    19.704157     -0.66750098     17.537227    
    202000   1.8898012      5.3657413e-05  1000000       -0.0028523964   0.0035680287  -0.00055466007  19.694599     -0.67372759     17.53376     
    203000   1.8797761     -0.001020986    1000000       -0.0020446456  -0.00032073023 -0.00069758207  19.678429     -0.68302363     17.541923    
    204000   1.8811963      0.00019933427  1000000       -0.0040481681   0.0015427687   0.0031034023   19.675643     -0.68378436     17.537767    
    205000   1.8725079     -0.0013694069   1000000       -0.0040837368  -9.1642133e-05  6.7158277e-05  19.672631     -0.6759432      17.539946    
    206000   1.8665704     -0.00077465453  1000000       -0.00073678083 -0.0033213728   0.00173419     19.651229     -0.68431026     17.535817    
    207000   1.8821538      0.0014954345   1000000        0.0060264985  -0.00080689339 -0.00073330148  19.662172     -0.69354549     17.532621    
    208000   1.8849711     -0.0021407994   1000000       -0.0009109633  -0.0037267268  -0.0017847082   19.667916     -0.69569677     17.536291    
    209000   1.8785135      0.0033594312   1000000        0.0039846451   0.0051081502   0.00098549848  19.669706     -0.68694055     17.539011    
    210000   1.8853031     -0.0016538987   1000000       -0.00088663163 -0.0045910864   0.00051602188  19.663313     -0.69168356     17.527177    
    211000   1.8924064     -0.0020919596   1000000       -0.0014939393   0.00047523872 -0.0052571782   19.675351     -0.6923819      17.529258    
    212000   1.8844859     -0.00074502221  1000000       -0.00052706695 -0.0024169846   0.00070898494  19.672134     -0.69419506     17.539735    
    213000   1.8949017      0.00026776033  1000000       -0.0015517587   0.00017698415  0.0021780555   19.66452      -0.69861554     17.520919    
    214000   1.8853156      0.0016906455   1000000        0.0007026394   0.0020140095   0.0023552877   19.664462     -0.68697881     17.523602    
    215000   1.8963311      0.0010584733   1000000        0.0011849384   0.00053888992  0.0014515916   19.672694     -0.69248061     17.520813    
    216000   1.8898817      0.0001903076   1000000        0.0012775317  -0.00090633594  0.00019972704  19.670871     -0.70198264     17.538166    
    217000   1.9028792     -0.0011026106   1000000        0.00075338327 -0.0025620762  -0.0014991387   19.674336     -0.70346184     17.523615    
    218000   1.895609      -0.00099703318  1000000       -0.0022880134  -0.0027388819   0.0020357958   19.665608     -0.70222827     17.524558    
    219000   1.8963608      0.00038710116  1000000       -0.00012103264 -0.00094128739  0.0022236235   19.667108     -0.70326828     17.525971    
    220000   1.8964878      0.00023634416  1000000       -0.00059699685 -0.00025248633  0.0015585157   19.65571      -0.70880255     17.519916    
    221000   1.8950998      0.0016539668   1000000        0.003277252   -0.00046409776  0.002148746    19.659489     -0.71645489     17.53343     
    222000   1.8861302      0.0019170793   1000000        0.0001138454   0.0017396935   0.0038976992   19.657011     -0.71208414     17.540035    
    223000   1.9006386     -0.0024315389   1000000       -0.0021361114  -0.0020364347  -0.0031220706   19.657725     -0.71877656     17.525679    
    224000   1.8862235     -0.00073326946  1000000       -0.0024958206   0.0018067438  -0.0015107316   19.644169     -0.71544323     17.530411    
    225000   1.8921268      0.0014926741   1000000        0.00082961222 -0.00018522499  0.0038336351   19.646958     -0.72386392     17.532767    
    226000   1.8800054     -0.0013547932   1000000       -0.0032848455  -0.0020008744   0.0012213404   19.627762     -0.71718666     17.525075    
    227000   1.8689753     -0.00093561157  1000000       -0.0046690998   0.00016722234  0.0016950428   19.612872     -0.71545163     17.524994    
    228000   1.8599019      0.0011844749   1000000        0.00060798054 -0.00045615122  0.0034015955   19.598138     -0.71668954     17.525108    
    229000   1.8731932     -0.0018824345   1000000       -0.0039879741  -0.00047065472 -0.0011886747   19.599133     -0.72222131     17.511698    
    230000   1.8640754     -0.00082127445  1000000       -0.0022299368   0.00053780484 -0.00077169136  19.593746     -0.72292281     17.520689    
    231000   1.8660147      0.0017892458   1000000        0.00064112254  0.003521631    0.0012049838   19.580127     -0.72759983     17.508838    
    232000   1.8761124     -0.0035443196   1000000       -0.0054526003  -0.0057417955   0.0005614369   19.602725     -0.73972066     17.528411    
    233000   1.8802487      0.0010972959   1000000        0.00046398575  0.0012485448   0.0015793571   19.605935     -0.7339087      17.519604    
    234000   1.8879894      0.0011224747   1000000        0.00023452431 -0.00025112462  0.0033840244   19.607449     -0.73661325     17.512213    
    235000   1.8833421      0.0012447736   1000000       -0.00099527161  0.0024909152   0.0022386771   19.614319     -0.74009038     17.52953     
    236000   1.8967422     -0.00029625235  1000000       -0.0004427324   0.00071516846 -0.0011611931   19.623389     -0.73536996     17.513781    
    237000   1.8909456     -0.0010449414   1000000       -0.00078199123 -0.0018688849  -0.00048394815  19.626924     -0.74276482     17.533405    
    238000   1.892313       0.0010100107   1000000        0.0021965226  -0.001116795    0.0019503046   19.605603     -0.74993025     17.517199    
    239000   1.8813289      0.0017692825   1000000        0.0014333633   0.0026451924   0.001229292    19.596471     -0.74194859     17.51656     
    240000   1.8889557      0.0006855822   1000000        0.0010301184  -0.00027687214  0.0013035003   19.589095     -0.7391343      17.494931    
    241000   1.880155       0.0024247382   1000000        0.00069358038  0.0057477391   0.00083289511  19.605132     -0.72891626     17.51395     
    242000   1.8898425     -0.0015758352   1000000       -0.00062435462 -0.0023270466  -0.0017761043   19.615013     -0.72943417     17.509819    
    243000   1.8837424     -0.00029022177  1000000        0.00077492801 -0.0010703584  -0.00057523496  19.621839     -0.72843331     17.524793    
    244000   1.8945906      0.0013955002   1000000        0.001778572    0.0025001428  -9.2214145e-05  19.620733     -0.73740322     17.516385    
    245000   1.8886658     -0.0019058057   1000000       -0.0043184191  -0.0013355703  -6.3427871e-05  19.622317     -0.73557623     17.52503     
    246000   1.8934985     -0.0020091108   1000000       -0.0010183226  -0.0034944827  -0.0015145271   19.617175     -0.7364826      17.513546    
    247000   1.8919687      0.0036945045   1000000        0.005268209    0.00053496233  0.0052803423   19.613896     -0.72857412     17.504652    
    248000   1.8858467      0.0033603539   1000000        0.0037851088   0.0039419968   0.0023539561   19.620099     -0.73095221     17.522415    
    249000   1.894005       0.0018108349   1000000        0.0013964864   0.00072971573  0.0033063025   19.621233     -0.73789098     17.518252    
    250000   1.8981185      0.00099099057  1000000       -0.00055633964  0.0024266823   0.0011026291   19.619453     -0.74384761     17.516258    
    251000   1.899103      -0.0023320567   1000000        0.00061755396 -0.0051484692  -0.002465255    19.605302     -0.74925918     17.506042    
    252000   1.8932456      0.001108137    1000000        0.00067472677 -0.00062810932  0.0032777937   19.602045     -0.75366283     17.515974    
    253000   1.8860422     -0.00098506742  1000000       -0.00092963736 -0.003558105    0.0015325401   19.584828     -0.76406653     17.519966    
    254000   1.8848609     -0.00044625973  1000000       -0.0028835179   0.0013882023   0.00015653646  19.57758      -0.76464875     17.515072    
    255000   1.8816755      0.0023661122   1000000       -0.0016319986   0.0026433419   0.0060869932   19.585422     -0.76504153     17.528085    
    256000   1.8737543      0.0037554649   1000000        0.0028293514   0.002451616    0.0059854273   19.562988     -0.76479227     17.517283    
    257000   1.87904        0.0038790068   1000000        0.0028274193   0.0041108876   0.0046987135   19.569506     -0.76559536     17.516675    
    258000   1.8852307      0.0023653347   1000000        0.0016839202   0.0037985486   0.0016135352   19.569326     -0.77050135     17.512116    
    259000   1.8917651      0.0013801901   1000000        0.00034470029  0.001781478    0.0020143921   19.568558     -0.77967374     17.51072     
    260000   1.8956775      0.00051810741  1000000        0.00018489526 -0.00021832388  0.0015877508   19.571557     -0.7723874      17.500564    
    261000   1.8716449     -0.0011976017   1000000       -0.0011269916   2.8298475e-05 -0.0024941119   19.558463     -0.76324456     17.514374    
    262000   1.875551       0.00025490293  1000000       -0.0004875972  -0.00040859331  0.0016608993   19.54156      -0.76721021     17.495578    
    263000   1.8637034     -0.0012897536   1000000       -0.0031938022   0.00076002229 -0.001435481    19.528302     -0.77465867     17.507539    
    264000   1.8763175     -0.00091643235  1000000       -0.0031970849   0.0016415302  -0.0011937424   19.526089     -0.78763746     17.499384    
    265000   1.8671438     -0.0041721478   1000000       -0.0054495808  -0.0026248738  -0.0044419887   19.532513     -0.79143951     17.52337     
    266000   1.8638504      0.001543371    1000000        0.0025266631   0.0017318859   0.00037156407  19.525191     -0.78993946     17.519488    
    267000   1.8790068      0.0014299975   1000000        0.0030206289  -0.00030545054  0.001574814    19.545431     -0.78490981     17.511965    
    268000   1.8751345      0.0015601124   1000000        0.00079600917 -0.00096861513  0.0048529432   19.544892     -0.79096018     17.523284    
    269000   1.8733362      4.0950765e-05  1000000       -0.00052613623  0.00072658311 -7.7594587e-05  19.549794     -0.79097908     17.530903    
    270000   1.8725653     -0.0030525828   1000000       -0.00090228797 -0.004390592   -0.0038648685   19.545625     -0.7913382      17.528249    
    271000   1.8770976     -0.0013070826   1000000       -0.00095888614 -0.0005293246  -0.002433037    19.544088     -0.79178114     17.520357    
    272000   1.8868922      0.00039088814  1000000       -0.002072201    0.0042338254  -0.00098895998  19.551512     -0.8011271      17.522436    
    273000   1.8774176      0.0012837008   1000000       -0.0016542221   0.0054568224   4.8502081e-05  19.524092     -0.80500931     17.513109    
    274000   1.8778176      0.00042973238  1000000       -0.0017179459   0.0028091893   0.00019795379  19.512549     -0.80667732     17.502634    
    275000   1.8763485     -0.00027806498  1000000        0.00025389531 -0.0038239262   0.0027358359   19.513699     -0.80191672     17.501228    
    276000   1.8723464      0.0010652273   1000000       -0.00041113787  0.00053663228  0.0030701875   19.528716     -0.79779778     17.518128    
    277000   1.8934473      0.0013007131   1000000       -0.0011921654   0.0018283432   0.0032659614   19.538325     -0.79603243     17.494322    
    278000   1.874963      -0.00016079574  1000000       -0.00074142107  0.0015778934  -0.0013188595   19.525236     -0.79882765     17.511753    
    279000   1.8728977     -5.8862128e-05  1000000        0.00073601183  0.00033427881 -0.001246877    19.522856     -0.80416774     17.517811    
    280000   1.8803619      0.00088792656  1000000       -0.0012221114   0.0019988274   0.0018870637   19.515015     -0.8166104      17.511217    
    281000   1.8732        -0.00030747333  1000000        0.00090220829  0.0013634255  -0.0031880538   19.514427     -0.81390463     17.518665    
    282000   1.8816086      0.0015429706   1000000        0.0023856183   0.0012518445   0.00099144905  19.532648     -0.81168639     17.522056    
    283000   1.8901586      0.0027878846   1000000        0.0036365423   0.0043069516   0.00042015974  19.532156     -0.81672906     17.513782    
    284000   1.8936059      0.0036235599   1000000        0.005910778    0.0033559554   0.0016039462   19.540642     -0.81915753     17.519526    
    285000   1.8884956      0.0035146219   1000000        0.0058422485   0.0037189516   0.00098266577  19.53008      -0.81814016     17.515612    
    286000   1.8794049     -0.00084385203  1000000       -0.00034968362 -0.00062970317 -0.0015521693   19.522677     -0.81759177     17.521296    
    287000   1.8810128     -5.702125e-05   1000000        0.0024635504  -0.0036777287   0.0010431146   19.513914     -0.81333165     17.505861    
    288000   1.8644068      0.0010178595   1000000        0.0034798228  -0.00040155967 -2.4684681e-05  19.490939     -0.81104018     17.505502    
    289000   1.8664403      0.0012427262   1000000        0.00029908983  0.0028774851   0.00055160372  19.495095     -0.80914792     17.504715    
    290000   1.8589406     -0.0018964152   1000000       -0.0059839203  -0.00069210938  0.00098678425  19.482615     -0.81447183     17.508809    
    291000   1.8585663     -0.00020930891  1000000        0.00058771132 -0.001050017   -0.00016562108  19.484095     -0.82361792     17.519996    
    292000   1.8605879     -0.0014552581   1000000        0.0010967269  -0.0049281143  -0.00053438698  19.470341     -0.82959038     17.509182    
    293000   1.858942       0.00031670665  1000000        0.00015689122  0.00056396856  0.00022926017  19.454761     -0.83160163     17.498083    
    294000   1.8501567      0.0011253984   1000000       -0.00052221663  0.0018903918   0.00200802     19.442035     -0.83178681     17.498719    
    295000   1.8599113     -0.0018698162   1000000       -0.0038452274  -0.00013990037 -0.0016243207   19.458885     -0.84319718     17.512348    
    296000   1.8676922     -0.0023420223   1000000       -0.004262804   -0.0015570916  -0.0012061714   19.467559     -0.84493542     17.51109     
    297000   1.8703215      0.0011355981   1000000        0.0012639449   0.00083740286  0.0013054465   19.471579     -0.83889479     17.505125    
    298000   1.8782317      0.0038468184   1000000        0.0047367292   0.0061377826   0.0006659434   19.4757       -0.8446838      17.50317     
    299000   1.8863122      0.001000887    1000000       -0.0026188778   0.00086392233  0.0047576163   19.484032     -0.85191491     17.506613    
    300000   1.8845503      0.0015903154   1000000        0.0032041797  -0.0001074455   0.001674212    19.477171     -0.85154543     17.502026    
    301000   1.8690785      0.0032183991   1000000        0.0023306677   0.0065679714   0.00075655824  19.480835     -0.8478478      17.525199    
    302000   1.875843      -0.00093508888  1000000       -0.0013695788   3.0587652e-05 -0.0014662755   19.48241      -0.85185381     17.520634    
    303000   1.8787368      0.0012334734   1000000       -0.00096584937  0.0045561306   0.00011013908  19.471961     -0.85775676     17.511747    
    304000   1.8708099     -0.0010689883   1000000        0.0030003133  -0.0021930892  -0.004014189    19.477041     -0.85966006     17.53062     
    305000   1.8678688     -0.0012353677   1000000        8.4827415e-05 -0.00046995974 -0.0033209708   19.481856     -0.84475983     17.524946    
    306000   1.8804909      0.00085325295  1000000       -0.00040689685  0.00071208382  0.0022545719   19.47159      -0.85311257     17.5041      
    307000   1.8696393      6.2429591e-05  1000000       -0.002911206    0.001287459    0.0018110357   19.462693     -0.85479804     17.513166    
    308000   1.8651605      0.00040178286  1000000       -0.0027590001   0.0037430159   0.00022133279  19.440144     -0.85816981     17.500706    
    309000   1.8665546      0.0029023664   1000000        0.0037732884   0.0022382791   0.0026955315   19.443733     -0.85910092     17.503135    
    310000   1.8529988      0.0012238522   1000000        9.4157818e-05  0.0024574649   0.0011199339   19.432129     -0.85883314     17.511597    
    311000   1.8556689      0.00017450537  1000000        0.00014943343  0.0015232582  -0.0011491756   19.43708      -0.85113897     17.504848    
    312000   1.8534694     -0.0010136545   1000000        0.0016602567  -0.0016791661  -0.0030220542   19.451074     -0.84647809     17.517481    
    313000   1.863801       0.0015257661   1000000        0.0019317012  -0.00025282242  0.0028984194   19.454752     -0.84983863     17.509022    
    314000   1.8739874      0.0010501627   1000000        0.00086580019  0.00031031241  0.0019743756   19.457692     -0.85657076     17.503416    
    315000   1.8695969      0.00073325662  1000000       -0.00040428382  0.0015090421   0.0010950116   19.457835     -0.85624463     17.509818    
    316000   1.8742594      0.00039616265  1000000        0.0011015801  -0.0013403121   0.0014272199   19.461762     -0.85419331     17.5047      
    317000   1.8684125      0.004498976    1000000        0.0039681066   0.0052360174   0.0042928041   19.463713     -0.8488786      17.510106    
    318000   1.8716197      0.0031389735   1000000        0.0033368091   0.0011301945   0.0049499168   19.469543     -0.85365509     17.515903    
    319000   1.8623032     -0.00075130402  1000000        0.00060606822 -0.00061313981 -0.0022468405   19.450699     -0.85720474     17.514582    
    320000   1.8579923     -0.00023936363  1000000        0.0037176389  -0.00039161056 -0.0040441192   19.43538      -0.8593954      17.507919    
    321000   1.8525312     -0.00043993921  1000000       -0.0003066736  -0.00096338302 -4.9761011e-05  19.435837     -0.85266208     17.509834    
    322000   1.8579057      0.00068194655  1000000        0.0017607208  -0.00074568217  0.001030801    19.442268     -0.85566254     17.511205    
    323000   1.8507958     -0.0027078813   1000000       -0.0033038208  -0.0023357737  -0.0024840494   19.43261      -0.85597123     17.51252     
    324000   1.8682592      0.0020922589   1000000        0.0001796358   0.00028323321  0.0058139077   19.442095     -0.85739672     17.497236    
    325000   1.8625166      0.00053373728  1000000       -0.0016505589  -5.3201472e-05  0.0033049722   19.44766      -0.86176986     17.515788    
    326000   1.8548016     -0.0020270537   1000000       -0.0027458994  -0.0028459847  -0.00048927698  19.438262     -0.86640246     17.522594    
    327000   1.8530207      0.0025470954   1000000        0.0024123837   0.0022638742   0.0029650282   19.429708     -0.86291468     17.513224    
    328000   1.8636019      0.0018517453   1000000       -0.0011895096   0.0047108893   0.0020338561   19.422728     -0.86633933     17.493798    
    329000   1.8596847      0.0013389921   1000000        0.00071915754  0.0015242055   0.0017736133   19.425344     -0.87173835     17.507688    
    330000   1.8718836      0.0061538242   1000000        0.0082169175   0.0058830218   0.0043615333   19.441794     -0.86669515     17.500798    
    331000   1.8663521      0.0012754955   1000000        0.0035450679   0.00043928796 -0.00015786942  19.42062      -0.87496044     17.496186    
    332000   1.8677233     -0.00035380343  1000000       -0.0010671305  -0.00084599423  0.0008517144   19.415347     -0.88354888     17.497444    
    333000   1.8793689     -0.0005162391   1000000       -0.00090391125 -0.00080127561  0.00015646955  19.419358     -0.88421398     17.484653    
    334000   1.869216      -3.0709465e-05  1000000        0.00059300754 -0.0023464404   0.0016613044   19.423427     -0.88669326     17.50643     
    335000   1.8781902      0.00099333645  1000000        0.0021998268  -0.001937381    0.0027175635   19.427643     -0.8862267      17.496719    
    336000   1.8647309     -0.00088323592  1000000        0.0013167973  -0.0030584803  -0.00090802469  19.417447     -0.8733925      17.493876    
    337000   1.8652949      0.0033523622   1000000        0.0026032224   0.0035263374   0.0039275267   19.432912     -0.87872549     17.513828    
    338000   1.8722628     -0.00077260535  1000000        0.00032500625 -0.0016753174  -0.0009675049   19.431795     -0.89426666     17.517802    
    339000   1.8766047     -0.002588695    1000000       -0.0042598234  -0.0042955825   0.00078932095  19.43517      -0.88785338     17.50825     
    340000   1.865956      -0.00079985052  1000000       -0.0017323856  -0.00074278523  7.5619252e-05  19.413733     -0.8951334      17.510066    
    341000   1.8653172      0.0026474099   1000000        0.0033493464  -0.00075047038  0.0053433537   19.4186       -0.89750722     17.518264    
    342000   1.862145       0.00065156791  1000000        0.0016558943   0.00082123289 -0.00052242344  19.417635     -0.89749798     17.522048    
    343000   1.8624844     -0.00023690042  1000000        0.0020191537  -0.00093541321 -0.0017944417   19.404828     -0.89544815     17.506682    
    344000   1.8595237      0.0047991042   1000000        0.0052988366   0.0056764056   0.0034220703   19.388269     -0.89578901     17.494905    
    345000   1.8447987      0.0040504369   1000000        0.0049826123   0.0026149782   0.0045537201   19.376431     -0.8949542      17.504319    
    346000   1.8541482     -0.0007757125   1000000        0.0017719607  -0.0020665291  -0.0020325691   19.388634     -0.90023607     17.50778     
    347000   1.8666136      0.00073372661  1000000        0.00099465872  0.0021008224  -0.00089430128  19.396896     -0.90123915     17.498348    
    348000   1.863273      -0.0014706479   1000000       -0.0030088905  -0.0017481669   0.00034511356  19.392032     -0.90317044     17.500426    
    349000   1.8609739      0.00013311458  1000000       -0.0017963995   0.0002484693   0.0019472739   19.391023     -0.90806389     17.507759    
    350000   1.8552993      0.0021713122   1000000        0.00088143784  0.0013644037   0.0042680951   19.390527     -0.90242532     17.510136    
    351000   1.8615171      0.00069004056  1000000        0.0026889549  -0.0024199379   0.0018011046   19.385121     -0.90597037     17.498948    
    352000   1.8568788      0.00040894146  1000000       -0.0002403339   0.00041898238  0.0010481759   19.39963      -0.90449775     17.518942    
    353000   1.857616       0.0019236901   1000000        0.0012396779   0.0019320558   0.0025993365   19.374777     -0.90889409     17.49738     
    354000   1.8505708     -0.00048578568  1000000       -0.0011381119  -0.00029621869 -2.3026491e-05  19.359488     -0.91228517     17.49605     
    355000   1.8578101      0.0012888325   1000000        0.0018740981   0.0017556881   0.00023671129  19.373677     -0.91563135     17.502726    
    356000   1.8564226      0.0019706689   1000000        0.002031488    0.00069952931  0.0031809893   19.360298     -0.9203813      17.496178    
    357000   1.8598157      0.0028463976   1000000        0.0038855185   1.7960299e-05  0.004635714    19.370666     -0.91162246     17.492698    
    358000   1.8534032      0.0023913271   1000000        0.0019305603   0.0019953353   0.0032480857   19.374492     -0.916815       17.511334    
    359000   1.8672415      0.003575109    1000000        0.0068984357   0.0046418161  -0.00081492465  19.372936     -0.91887486     17.491082    
    360000   1.8717293     -0.0005164844   1000000        0.0017396802   0.0013618372  -0.0046509706   19.371966     -0.92460622     17.489112    
    361000   1.8578701     -0.0016523821   1000000       -0.00041085778  6.4766057e-05 -0.0046110545   19.356345     -0.92335915     17.493031    
    362000   1.870923       0.00064437602  1000000        0.00011957583 -0.0014828049   0.0032963571   19.355911     -0.92585367     17.475514    
    363000   1.8723147     -0.0024287523   1000000       -0.0022106523  -0.0029080602  -0.0021675446   19.371506     -0.91798877     17.481156    
    364000   1.869316       0.00061962946  1000000       -0.0023508098   0.0007333234   0.0034763748   19.370498     -0.91598013     17.482638    
    365000   1.8535087     -0.0015118674   1000000       -0.0022097133  -0.0011449846  -0.0011809044   19.370475     -0.9141093      17.504454    
    366000   1.8579438     -0.00044574087  1000000       -0.0004845939   0.00021737979 -0.0010700085   19.373411     -0.9182337      17.504862    
    367000   1.8663209     -0.003205996    1000000       -0.0016915486  -0.0037515597  -0.0041748798   19.35657      -0.92139645     17.478618    
    368000   1.8649717     -0.0003730964   1000000       -0.0019873282  -0.00077453203  0.001642571    19.359174     -0.92331071     17.48516     
    369000   1.8530387      0.0032265358   1000000       -0.00016442392  0.002732454    0.0071115774   19.33952      -0.93089801     17.490993    
    370000   1.8566028      0.0038992019   1000000        0.0051827515   0.0013513514   0.0051635027   19.335279     -0.92582511     17.476333    
    371000   1.8368472      0.0016328046   1000000        0.0040481288  -0.00065991674  0.0015102017   19.322125     -0.92385358     17.490839    
    372000   1.8520719     -0.00091934993  1000000       -0.0021394336   0.00061968578 -0.001238302    19.333583     -0.92394502     17.479552    
    373000   1.8396984      0.0020426578   1000000        0.0064709511   0.00043415386 -0.00077713143  19.321848     -0.92162156     17.484053    
    374000   1.8564857      0.00019772229  1000000        0.0021076414  -0.00084984934 -0.00066462523  19.338262     -0.92688727     17.480554    
    375000   1.8619688      0.0019984393   1000000       -0.0013333559   0.0027936093   0.0045350647   19.349413     -0.92501699     17.48161     
    376000   1.8647607      0.00214044     1000000        0.0010663398   0.001926827    0.003428153    19.352109     -0.93731602     17.492417    
    377000   1.870542       0.0012826327   1000000        0.0027696361  -0.0019198283   0.0029980902   19.338721     -0.93758413     17.470625    
    378000   1.873438       0.00070264284  1000000       -0.0018853054   0.0030847047   0.00090852924  19.351194     -0.94753822     17.488709    
    379000   1.85128       -0.0021658345   1000000       -0.0044983124  -0.00087613104 -0.00112306     19.327231     -0.94323905     17.493683    
    380000   1.8709313      7.3841102e-05  1000000        0.0012457828  -0.00018929613 -0.00083496341  19.337821     -0.9389324      17.47049     
    381000   1.86577       -0.0016665777   1000000        0.00011470359 -0.0030819788  -0.0020324579   19.350163     -0.93278825     17.48443     
    382000   1.8625306      0.00085517883  1000000       -0.001499327    0.0035882891   0.00047657438  19.337104     -0.93483965     17.478281    
    383000   1.8506511     -0.0020139059   1000000       -0.001722304   -0.0016274463  -0.0026919672   19.325499     -0.9381011      17.487756    
    384000   1.8499991     -0.0018035995   1000000       -0.00071910814 -0.0010289065  -0.0036627839   19.330524     -0.93360901     17.489266    
    385000   1.86915       -0.00029380009  1000000        0.00069386085 -0.0020310376   0.00045577647  19.354612     -0.92798272     17.479003    
    386000   1.8555569      0.0002014158   1000000       -0.00043188698  0.00091180244  0.00012433195  19.352548     -0.9316899      17.501035    
    387000   1.8603835     -0.0015297032   1000000       -0.0031590495   0.000741998   -0.0021720582   19.358866     -0.9304728      17.498897    
    388000   1.8590292     -0.0014006453   1000000       -0.0012540052  -0.0024508537  -0.00049707688  19.359731     -0.9441149      17.515435    
    389000   1.8648287     -0.00116438     1000000       -0.0024561257  -0.00027304842 -0.00076396586  19.345168     -0.939315       17.487373    
    390000   1.8703447      0.0020476451   1000000        0.0039955532   0.0015845747   0.00056280745  19.34422      -0.94818435     17.487021    
    391000   1.8540239      0.00041060549  1000000       -0.0002252533   0.0016021197  -0.00014504994  19.336492     -0.94092273     17.496512    
    392000   1.8525165     -0.0016570469   1000000       -0.00079319403 -0.002155188   -0.0020227586   19.324301     -0.93528066     17.480939    
    393000   1.8625431      0.002651663    1000000        0.0025170982   0.0009915052   0.0044463856   19.329258     -0.94428589     17.479863    
    394000   1.8569155     -0.0024648163   1000000       -0.0019706617  -0.0041603487  -0.0012634384   19.341109     -0.94586507     17.501733    
    395000   1.8640005      0.00047060008  1000000       -0.0013060534   0.0010495931   0.0016682606   19.348905     -0.9416452      17.494682    
    396000   1.8601448      0.0029941973   1000000        0.0001256954   0.003538687    0.0053182095   19.335785     -0.95017866     17.495879    
    397000   1.8498391      0.003771405    1000000        0.001490653    0.0061287379   0.0036948241   19.326523     -0.94933188     17.501228    
    398000   1.8556275      0.001460882    1000000        0.00084272489  0.0030354686   0.00050445237  19.314971     -0.95387449     17.485537    
    399000   1.8519358      0.00087212466  1000000       -5.6055508e-05 -0.00078830591  0.0034607354   19.320987     -0.95407392     17.497289    
    400000   1.8482669      0.0020516755   1000000        0.0013535375   0.0033270429   0.0014744462   19.317566     -0.95796611     17.503264    
    401000   1.8456446      0.0015156186   1000000        0.0023941596   0.0022900382  -0.00013734189  19.303985     -0.96176589     17.497415    
    402000   1.8456375      0.0033757766   1000000        0.0047161741   0.0040464517   0.0013647041   19.312456     -0.95616712     17.500299    
    403000   1.8633058      0.0019725841   1000000        0.0040037342   0.00059740036  0.0013166177   19.319093     -0.95368037     17.477948    
    404000   1.8597571      0.0017411055   1000000        0.00018317042  0.0040935404   0.00094660577  19.323184     -0.95558821     17.489269    
    405000   1.8582227     -9.7437329e-05  1000000       -0.00028083863 -0.0028126992   0.0028012259   19.329491     -0.96010397     17.502394    
    406000   1.8582061      0.00018008023  1000000        0.001701349   -0.00017407068 -0.0009870376   19.329228     -0.95824953     17.500301    
    407000   1.8617807      0.00071365457  1000000       -0.00029723385  0.0012629838   0.0011752138   19.345895     -0.95897883     17.512336    
    408000   1.866089      -0.0019123838   1000000       -0.0041603893  -0.00079388451 -0.00078287748  19.351412     -0.95639774     17.50881     
    409000   1.8743421      0.00072900471  1000000       -0.0006678605   0.0018863867   0.0009684879   19.37138      -0.9559342      17.515935    
    410000   1.8867734      0.00091939721  1000000        0.00078371999  0.0021665937  -0.00019212202  19.369323     -0.9637737      17.503072    
    411000   1.8772284      0.0016294947   1000000        0.00015654775  0.0018709093   0.0028610271   19.349164     -0.95992847     17.493384    
    412000   1.8740774      0.00084170982  1000000        0.00098575448  0.001719934   -0.00018055906  19.346304     -0.96691929     17.502241    
    413000   1.8631404     -0.0015459752   1000000       -0.0026909619  -0.00083257057 -0.0011143932   19.35228      -0.96016972     17.517872    
    414000   1.8671591      0.0011457689   1000000        0.0045449859   0.00058152967 -0.001689209    19.348134     -0.96433788     17.511867    
    415000   1.8685971      0.0028272634   1000000        0.0041892402   0.0017258184   0.0025667315   19.349716     -0.96363739     17.510591    
    416000   1.8728509      0.0023619648   1000000        0.0032703499   0.0036946572   0.00012088743  19.343829     -0.96567237     17.500359    
    417000   1.8700376     -0.0033486821   1000000       -0.0035794536  -0.00016656479 -0.0063000279   19.345471     -0.96856545     17.509114    
    418000   1.8527631      0.0018301793   1000000        0.0021744562   0.0035283409  -0.00021225916  19.332837     -0.9604317      17.514256    
    419000   1.865525       0.002405229    1000000        0.0044373144   0.00063545155  0.0021429209   19.342759     -0.96231158     17.506917    
    420000   1.8691335     -0.0025139151   1000000       -0.0021988103  -0.0072073002   0.0018643654   19.349853     -0.96205204     17.508338    
    421000   1.8758054      2.4155964e-06  1000000       -0.00082494982 -0.00070386393  0.0015360605   19.337562     -0.96498692     17.488975    
    422000   1.8691843      0.0019925317   1000000        0.0037430536   0.00057267401  0.0016618674   19.340517     -0.97295808     17.509832    
    423000   1.8721194      0.0016581404   1000000        0.003904127    0.0024928652  -0.0014225709   19.327843     -0.96683309     17.486631    
    424000   1.8547831      0.00073396823  1000000        0.0026473375   0.0004300209  -0.00087545366  19.313469     -0.97254156     17.503968    
    425000   1.8655298     -0.00026569309  1000000        0.00082435239 -0.0016889489   6.7517228e-05  19.305237     -0.9810959      17.488171    
    426000   1.8617856     -0.00092486472  1000000       -0.00039515197  0.00030940964 -0.0026888518   19.302558     -0.97627361     17.486287    
    427000   1.8595138      0.0028958505   1000000        0.00068104167  0.0020215289   0.0059849809   19.304408     -0.98929275     17.504563    
    428000   1.8567283     -0.00042826979  1000000        0.0018477111  -0.0018204029  -0.0013121176   19.297614     -0.98759793     17.500252    
    429000   1.8529368     -0.0010564977   1000000       -0.0010900011  -0.0014182176  -0.00066127441  19.299233     -0.98074894     17.500709    
    430000   1.8592016      0.001268702    1000000        0.0030359726   0.0010014651  -0.00023133182  19.29367      -0.98236783     17.487369    
    431000   1.8640275      0.00030452738  1000000       -0.0045330574   0.0037362605   0.001710379    19.305373     -0.98108815     17.490553    
    432000   1.8493528     -0.00021652821  1000000       -0.00042711159 -0.001398213    0.0011757399   19.306688     -0.9695348      17.502326    
    433000   1.8599555     -0.0017577221   1000000       -0.0011563807  -0.0037499343  -0.00036685119  19.307366     -0.97626573     17.493831    
    434000   1.8723514     -0.00049381353  1000000       -0.001152247   -0.0016673605   0.0013381669   19.322423     -0.97469302     17.488723    
    435000   1.8609619     -0.0013889061   1000000        0.00071127473 -0.0034195125  -0.0014584806   19.312039     -0.9781392      17.498868    
    436000   1.8721332     -0.00034649556  1000000        0.001076166   -0.00029768798 -0.0018179647   19.326489     -0.98223528     17.500658    
    437000   1.8662444      0.00082368342  1000000       -0.00045613905  0.0022328785   0.00069431077  19.319058     -0.97941499     17.49924     
    438000   1.85569       -0.00073257055  1000000        0.00059979308 -0.001890279   -0.00090722575  19.301852     -0.97699298     17.495442    
    439000   1.8655325      0.00041680224  1000000        0.0025857595   0.00062383647 -0.0019591893   19.317009     -0.98919972     17.508043    
    440000   1.8617445      0.0017731708   1000000        0.0013693417   0.0005637618   0.0033864089   19.297981     -0.98301992     17.488517    
    441000   1.8614758     -0.0011076803   1000000       -0.0047842892   0.0023744974  -0.00091324897  19.3132       -0.97782238     17.498941    
    442000   1.8596811     -0.00056429365  1000000       -0.0018216843   0.0034501911  -0.0033213878   19.31316      -0.98103417     17.504805    
    443000   1.8721697     -0.00021198964  1000000        0.00072021796  0.0009820112  -0.0023381981   19.317902     -0.98394017     17.493722    
    444000   1.8611038      0.00069434171  1000000        0.0011043755  -0.0016934267   0.0026720764   19.313697     -0.97832019     17.500495    
    445000   1.8496818      0.0018617097   1000000        0.0035382218   0.0012763319   0.00077057539  19.301041     -0.97690992     17.50356     
    446000   1.8593898      0.0027265326   1000000        0.00040991524  0.0045471081   0.0032225744   19.301012     -0.98963678     17.501697    
    447000   1.8636124      0.0020565309   1000000        0.0032470459   0.0012784792   0.0016440678   19.301279     -0.9987245      17.504719    
    448000   1.8526458      0.0015222968   1000000        0.0027791893   0.00024745594  0.0015402453   19.281243     -0.99870297     17.50111     
    449000   1.8445408      0.00066588694  1000000        0.00022855879  0.0025470465  -0.00077794444  19.28794      -0.98960253     17.510863    
    450000   1.8545048      0.0025973963   1000000        0.0014300648   0.0035489194   0.0028132047   19.286068     -0.99674542     17.501188    
    451000   1.8688934      0.0030084101   1000000        0.00087571138  0.0057167913   0.0024327277   19.294944     -1.0097015      17.501439    
    452000   1.8537512      0.0015077456   1000000       -8.3931111e-05  0.0017950197   0.0028121482   19.297497     -0.99319175     17.510194    
    453000   1.8470162     -0.00085078424  1000000        0.001607907   -0.0046446588   0.00048439911  19.295949     -0.98863899     17.514196    
    454000   1.8475004     -0.00025094701  1000000        0.0037570529  -0.0017333261  -0.0027765678   19.294018     -0.9839663      17.506866    
    455000   1.8686632      0.00096959614  1000000       -0.00075962488  0.0019355271   0.0017328862   19.30716      -0.98894755     17.493246    
    456000   1.8550715      0.0014891481   1000000        0.0020775473  -0.00041898184  0.0028088789   19.297161     -0.99386662     17.508552    
    457000   1.8530443     -0.00029455467  1000000        0.0019186635  -0.0019235662  -0.00087876127  19.304636     -0.99324226     17.518444    
    458000   1.8655695     -0.0011154336   1000000       -0.00017084222 -0.0011661358  -0.0020093227   19.311723     -0.99615029     17.509653    
    459000   1.8606037     -0.0036670436   1000000       -0.0040022221  -0.0044225053  -0.0025764034   19.310764     -1.000824       17.520816    
    460000   1.8626654     -2.5871194e-05  1000000        0.0015147318  -0.0040725918   0.0024802464   19.293989     -1.0025162      17.50264     
    461000   1.8511937      0.0010816928   1000000        0.0014860819   0.00083386856  0.0009251281   19.2797       -1.0002883      17.50333     
    462000   1.8460773     -0.00044590776  1000000        5.5609677e-05 -0.00015137065 -0.0012419623   19.272577     -1.0082272      17.51182     
    463000   1.8534484      0.0016723611   1000000       -0.00045271848  0.0018906284   0.0035791734   19.264299     -1.005817       17.490076    
    464000   1.8618185      0.0022200105   1000000        0.0023852554   0.0011279425   0.0031468335   19.255739     -1.0056814      17.468825    
    465000   1.8581904     -0.00044399965  1000000       -0.00034631384 -0.00066998949 -0.00031569562  19.263384     -1.004221       17.480452    
    466000   1.842021       0.00094434893  1000000        0.0014187829  -0.0011581261   0.00257239     19.248434     -1.0097726      17.495307    
    467000   1.8508051      0.00096887934  1000000        0.0015411676  -0.00045766413  0.0018231346   19.245454     -1.0062398      17.475618    
    468000   1.8507203     -0.00175427     1000000        1.192638e-05  -0.0026672666  -0.0026074698   19.25437      -1.0166793      17.495101    
    469000   1.8507001     -0.0006300982   1000000       -0.00061240431  2.9126638e-05 -0.0013070169   19.257186     -1.0138692      17.495137    
    470000   1.8524279     -8.4185674e-05  1000000       -0.0028883522   0.0023836877   0.00025210743  19.252498     -1.0165988      17.490587    
    471000   1.8496013      0.003152019    1000000        0.0043533537   0.0039074755   0.0011952279   19.253693     -1.0113052      17.490729    
    472000   1.8514788      0.0018967507   1000000        0.00063387657 -0.0001857115   0.005242087    19.265406     -1.0148724      17.503193    
    473000   1.8548486      0.0030309805   1000000        0.0020612495   0.0033865274   0.0036451646   19.262886     -1.0184242      17.49917     
    474000   1.8663603      0.001204298    1000000       -0.00067127249  0.00048277973  0.0038013869   19.281962     -1.0141242      17.496679    
    475000   1.8698344      0.00045416705  1000000        0.0028803638  -0.0022774638   0.00075960116  19.293825     -1.0208689      17.510075    
    476000   1.8704495     -0.00056309683  1000000       -0.0022917851  -0.000101029    0.00070352362  19.294345     -1.0131663      17.501971    
    477000   1.8683743     -0.0010521569   1000000       -0.0010012063  -0.0015321489  -0.00062311538  19.283072     -1.0148731      17.495517    
    478000   1.873627       0.0013068563   1000000        0.00058034175  0.00051187278  0.0028283543   19.297611     -1.0166022      17.503907    
    479000   1.8742407      0.0031423691   1000000        0.0030099868   0.003816127    0.0026009934   19.293212     -1.0177309      17.499716    
    480000   1.8750611      0.0013856005   1000000        0.0021203785   0.0028680449  -0.00083162184  19.284228     -1.0231562      17.494927    
    481000   1.8605494      0.00029999997  1000000        0.00024833244 -0.0013489324   0.0020005998   19.264828     -1.0244891      17.498626    
    482000   1.8565246      0.0024753726   1000000        0.0020714803   0.0019728004   0.0033818371   19.253006     -1.0262789      17.49463     
    483000   1.859783       0.0019423554   1000000        0.001246049    0.0015622628   0.0030187545   19.247997     -1.0343387      17.492794    
    484000   1.8440988     -0.0023287908   1000000       -0.0023206037  -0.0029767651  -0.0016890036   19.240879     -1.031782       17.506645    
    485000   1.8427644      0.0022440415   1000000        0.00097784733  0.0030284773   0.0027257998   19.234786     -1.0215052      17.492276    
    486000   1.838062       0.0032103448   1000000        0.0045859737   0.0025057254   0.0025393352   19.240944     -1.0278498      17.511832    
    487000   1.8493253      0.0021458891   1000000        0.0045739243  -0.0010104755   0.0028742186   19.249593     -1.0316384      17.507375    
    488000   1.8621786      0.0037974665   1000000        0.0034966937   0.0044343651   0.0034613409   19.26302      -1.0317155      17.501601    
    489000   1.8439675     -0.00084518947  1000000       -0.0018350807   0.00015993432 -0.00086042199  19.25138      -1.0265733      17.512134    
    490000   1.8504801      0.00024511653  1000000        0.0013057952  -0.00040661572 -0.00016382992  19.242893     -1.0275816      17.494887    
    491000   1.8521194     -0.0020563074   1000000       -0.002755314   -0.00186979    -0.0015438181   19.235549     -1.0263512      17.483853    
    492000   1.8553585      0.00020262172  1000000        0.0030936797  -0.001465716   -0.0010200985   19.235538     -1.0252857      17.477919    
    493000   1.8512773      0.004777445    1000000        0.0053923811   0.004991215    0.0039487389   19.235501     -1.0263882      17.485106    
    494000   1.8546815     -0.0010679417   1000000       -0.0018265602   0.00067373289 -0.0020509979   19.245017     -1.026426       17.489553    
    495000   1.8509842     -0.001530045    1000000       -0.0036126075   0.00026410399 -0.0012416315   19.240363     -1.0266031      17.490622    
    496000   1.8466196      0.0021735374   1000000        0.0016151006   0.0017874889   0.0031180225   19.23151      -1.0302915      17.492004    
    497000   1.8349615      0.0030414273   1000000        0.0023938481   0.0054408742   0.0012895596   19.217339     -1.0255965      17.490624    
    498000   1.8416441     -0.0008366908   1000000       -0.00083037592  0.00047582754 -0.002155524    19.211374     -1.0317973      17.480837    
    499000   1.8457977     -0.0019703642   1000000       -0.0042949543  -0.00091537519 -0.00070076315  19.226963     -1.0313207      17.489719    
    500000   1.8435221     -0.0014776967   1000000       -0.00017942685 -0.0034090684  -0.00084459478  19.219337     -1.0325826      17.486768    
    501000   1.8553422      0.0024939213   1000000        0.0049300787  -0.00092471047  0.0034763956   19.23146      -1.0386912      17.48727     
    502000   1.8592411      0.0022347896   1000000        0.0047981538   0.0028827964  -0.00097658144  19.233403     -1.032046       17.47672     
    503000   1.8549173      0.0039515589   1000000        0.0035766943   0.0053180892   0.0029598932   19.250212     -1.0304027      17.498372    
    504000   1.8555622      0.0020376789   1000000        0.00072745154  0.002762484    0.002623101    19.246691     -1.0250786      17.488559    
    505000   1.8604653      0.00061420224  1000000       -0.0010535763   0.0030161618  -0.00011997884  19.252602     -1.0213966      17.483434    
    506000   1.8504374     -0.0024459039   1000000       -0.004415632   -0.00026653216 -0.0026555476   19.255829     -1.0172575      17.497563    
    507000   1.8550227     -0.0022723345   1000000       -0.0047715057   0.0018640431  -0.0039095411   19.259201     -1.0194523      17.496252    
    508000   1.8446877     -0.0010377916   1000000       -0.00065965877 -0.0022683587  -0.00018535714  19.24365      -1.0251588      17.501908    
    509000   1.8470943     -0.00092661144  1000000        0.0018859638  -0.0017253147  -0.0029404834   19.240453     -1.0250453      17.494989    
    510000   1.8576652      0.0013138804   1000000        0.0043832482  -3.814671e-06  -0.00043779218  19.239428     -1.0264182      17.479481    
    511000   1.8518667      0.0019451648   1000000        0.0017176122   0.0032099808   0.00090790144  19.235653     -1.0294453      17.48743     
    512000   1.8530794     -0.0011958396   1000000        0.0015087578  -0.00047614988 -0.0046201266   19.24047      -1.0289782      17.489961    
    513000   1.8596631     -0.00051770891  1000000       -0.0016692019  -0.00035523532  0.00047131047  19.231931     -1.035751       17.47832     
    514000   1.8403935     -0.0021371946   1000000        0.00019032868 -0.0053050607  -0.0012968517   19.218779     -1.0272786      17.485599    
    515000   1.8473928     -0.0012070295   1000000       -0.002043992   -0.00088292667 -0.00069416984  19.222991     -1.0331517      17.485185    
    516000   1.8520673      0.00049024589  1000000        0.0018102818  -0.0025046071   0.0021650629   19.211781     -1.0438023      17.477614    
    517000   1.8410816      0.0017080103   1000000        0.0040922508   0.0017613155  -0.00072953534  19.186554     -1.0453676      17.470431    
    518000   1.8316505      0.0015314926   1000000        0.0020614831   0.0022705429   0.00026245196  19.187239     -1.041828       17.481722    
    519000   1.8536449      0.0019956536   1000000        0.0014540785   0.0035506422   0.00098224009  19.196794     -1.0495425      17.466002    
    520000   1.8349725     -0.00032253094  1000000        2.2203283e-05 -0.00054947749 -0.0004403186   19.200845     -1.0385952      17.487113    
    521000   1.8368509     -0.00095425815  1000000        0.00018925165 -0.0020217836  -0.0010302425   19.203345     -1.0354715      17.483672    
    522000   1.8568649      0.0035263003   1000000        0.0035950672   0.0048073386   0.0021764952   19.212675     -1.0409535      17.468464    
    523000   1.854555       0.0020846043   1000000        0.0039601567   0.0043459125  -0.0020522564   19.212894     -1.043447       17.474641    
    524000   1.8510903      0.0026305545   1000000        0.0025018617   0.0018486719   0.00354113     19.21039      -1.031856       17.465743    
    525000   1.8497656      0.0018488906   1000000        0.0004922649   0.0038047321   0.0012496746   19.208462     -1.0453805      17.479326    
    526000   1.8451117      0.00075612042  1000000        0.0019370338  -0.00054828532  0.00087961273  19.209108     -1.0404212      17.481993    
    527000   1.8416914     -0.0012786271   1000000       -0.0007128785   0.0011624736  -0.0042854764   19.204903     -1.0435266      17.486024    
    528000   1.8354008     -0.0029181083   1000000       -0.00082195072 -0.0034092385  -0.0045231357   19.199279     -1.0428769      17.489186    
    529000   1.8494701     -9.4837011e-05  1000000       -0.000610161   -0.00010578069  0.00043143066  19.207849     -1.042911       17.476686    
    530000   1.8305526      0.00081280907  1000000        0.00059153129  0.0015898718   0.0002570241   19.19685      -1.0397698      17.490922    
    531000   1.8318184      0.0015892302   1000000        0.0025267928   0.00061646603  0.0016244316   19.190681     -1.0436709      17.486755    
    532000   1.8418379     -0.00034365649  1000000       -0.0027230239   0.001159626    0.00053242841  19.199682     -1.0522834      17.48934     
    533000   1.8446304      0.0008013002   1000000        0.00098869957  0.0014041126   1.1088446e-05  19.18782      -1.0528018      17.473808    
    534000   1.8460395      0.0013822813   1000000        0.0033390051   0.0048393809  -0.0040315422   19.192728     -1.0573932      17.481194    
    535000   1.8492279     -0.0015861446   1000000       -0.00072962056  0.0004997575  -0.0045285707   19.208636     -1.0620856      17.497012    
    536000   1.8554933      0.00044652709  1000000        0.001470501   -0.001287177    0.0011562573   19.202645     -1.073999       17.493537    
    537000   1.8442718     -0.0012149621   1000000       -0.0016614056  -0.00471362     0.0027301393   19.220498     -1.0744134      17.528635    
    538000   1.8589636     -9.1629727e-05  1000000        0.00037294398  0.00055643207 -0.0012042652   19.225309     -1.074762       17.511758    
    539000   1.8681787      0.0016885033   1000000        0.0011955533   0.0021238998   0.0017460568   19.223957     -1.0802464      17.502069    
    540000   1.8599723      0.0037686999   1000000        0.0047799165   0.004751167    0.0017750161   19.217028     -1.0724114      17.499614    
    541000   1.8657969      0.0033144102   1000000        0.0065236683   0.0013415521   0.0020780102   19.224524     -1.0782079      17.50417     
    542000   1.8439032     -0.001161479    1000000        5.9565369e-05 -0.00081266525 -0.0027313372   19.206557     -1.073085       17.513919    
    543000   1.8530348     -0.0031630724   1000000       -0.0026336102  -0.0039981695  -0.0028574373   19.196394     -1.0729779      17.489952    
    544000   1.8331909     -0.0023226612   1000000       -0.0035789029  -0.0040370244   0.0006479438   19.189392     -1.0730523      17.512789    
    545000   1.8462708     -0.0041181956   1000000       -0.002740609   -0.0056339676  -0.0039800103   19.199493     -1.0759456      17.506165    
    546000   1.856721      -0.00015429971  1000000        0.00062954685  0.00022621879 -0.0013186648   19.200371     -1.076705       17.492127    
    547000   1.8563413      0.00085937409  1000000       -0.00034894025  0.00092847551  0.001998587    19.208334     -1.0814306      17.505385    
    548000   1.8542189     -0.0029503095   1000000       -0.0034835838  -0.002832962   -0.0025343828   19.205799     -1.0797253      17.504328    
    549000   1.8412162     -0.0029952131   1000000       -0.006185061   -0.00098365151 -0.0018169268   19.183848     -1.0736205      17.495775    
    550000   1.8541113     -0.0014743796   1000000       -0.00058520004 -0.00332314    -0.00051479874  19.199015     -1.0735996      17.49158     
    551000   1.8620678      0.00097263419  1000000        0.0012458972  -0.0011895705   0.0028615759   19.210384     -1.0695225      17.486938    
    552000   1.8662407      0.0011605975   1000000        0.0010782209   0.0020360311   0.00036754046  19.206059     -1.0717212      17.478552    
    553000   1.8447671     -0.0014018088   1000000       -0.00088574097  0.00073689016 -0.0040565755   19.194247     -1.0669084      17.494136    
    554000   1.850013      -0.0013172142   1000000       -0.0041286067  -0.00074944652  0.00092641056  19.199272     -1.0792985      17.503683    
    555000   1.8506823      0.0010546179   1000000        0.0041096082  -1.1119087e-05 -0.0009346353   19.205866     -1.0726056      17.50258     
    556000   1.8564487     -0.0020114502   1000000        4.5588676e-05  0.00057951525 -0.0066594545   19.204398     -1.0811093      17.500966    
    557000   1.8571299     -0.0023888906   1000000       -0.0045846033   0.00061377615 -0.0031958445   19.210591     -1.072491       17.49752     
    558000   1.8433738     -0.0030083546   1000000       -0.0027838861  -0.0028648883  -0.0033762892   19.199892     -1.0679027      17.502866    
    559000   1.853301       0.0014063433   1000000       -0.00079515587  9.7361638e-05  0.0049168241   19.191681     -1.0775205      17.489382    
    560000   1.8531102      0.0015830816   1000000        0.00051209854 -0.00055971755  0.004796864    19.190335     -1.0826241      17.493426    
    561000   1.850991      -0.0012488213   1000000       -1.7605502e-05 -0.0034551031  -0.00027375533  19.201093     -1.0748361      17.499574    
    562000   1.8482448     -0.00029790813  1000000       -0.00093726537 -0.0023685995   0.0024121405   19.188961     -1.0844246      17.501151    
    563000   1.8670032      0.00095887706  1000000        0.00074275509  0.0026880097  -0.0005541336   19.207128     -1.0927486      17.499505    
    564000   1.8609199      0.00060902139  1000000        0.00057511718  0.0033962301  -0.0021442831   19.196264     -1.0857975      17.490815    
    565000   1.8430167      0.00067267384  1000000        0.0023849698   0.001389721   -0.0017566693   19.190579     -1.0759388      17.502124    
    566000   1.8536041     -0.0026413688   1000000       -0.0035020199  -0.0033193646  -0.0011027217   19.185113     -1.0829803      17.48782     
    567000   1.8535064      0.0029202655   1000000        0.0024342329   0.0011776203   0.0051489432   19.178706     -1.0778489      17.476428    
    568000   1.8567681     -5.3721131e-05  1000000       -0.00044633866  0.00035157389 -6.6398618e-05  19.184006     -1.0821769      17.481163    
    569000   1.8619026      0.00081108579  1000000       -0.0033354808   0.002515923    0.0032528151   19.197607     -1.0806419      17.485528    
    570000   1.8539663     -0.00021550952  1000000        0.0016924865  -0.0024244353   8.5420243e-05  19.192608     -1.0927966      17.504588    
    571000   1.8493161     -0.0037398355   1000000       -0.003004924   -0.0048625992  -0.0033519833   19.183518     -1.0938507      17.503526    
    572000   1.8461075     -0.0027086846   1000000       -0.0011372988  -0.0038961223  -0.0030926326   19.182518     -1.0936391      17.507128    
    573000   1.8523208      0.004373765    1000000        0.0054437942   0.0037221078   0.0039553929   19.183631     -1.0924765      17.497759    
    574000   1.8488109     -0.00062184117  1000000        0.0005234392  -0.0017647041  -0.0006242586   19.187345     -1.095495       17.509756    
    575000   1.8531295     -0.00078087697  1000000       -0.00087828388 -0.0024215077   0.00095716071  19.174631     -1.0974325      17.492502    
    576000   1.8609042      0.0032629952   1000000        0.0068488153  -0.0003388115   0.0032789819   19.175086     -1.0972869      17.48115     
    577000   1.8557664     -0.0023422889   1000000       -0.0022983064  -0.0038659707  -0.00086258946  19.16555      -1.0881077      17.47014     
    578000   1.8349509     -0.0010221666   1000000       -0.002334238   -0.0025098465   0.0017775847   19.146582     -1.090288       17.484574    
    579000   1.845959       0.00064471337  1000000       -0.00067123771 -0.00059268519  0.003198063    19.155269     -1.0978032      17.484265    
    580000   1.8499903      0.0004713915   1000000        0.00031915842  0.0009778409   0.00011717517  19.154323     -1.1022991      17.481769    
    581000   1.8378095     -0.0022970977   1000000       -0.00069995144 -0.0018815875  -0.0043097541   19.142664     -1.098775       17.484856    
    582000   1.8481723     -0.0025326774   1000000       -0.0010056348  -0.0034432514  -0.003149146    19.130777     -1.1097276      17.468378    
    583000   1.8363208     -0.00058854864  1000000       -0.0023875636   0.00076277783 -0.00014086018  19.117119     -1.1094343      17.472203    
    584000   1.8222194     -0.00078828381  1000000       -0.00022041402 -0.003344446    0.0012000086   19.100308     -1.1078561      17.474965    
    585000   1.8341319     -0.00039063927  1000000        0.0026438838  -0.0023535596  -0.001462242    19.121279     -1.1087787      17.478991    
    586000   1.8278218     -0.0021521409   1000000       -0.0026551715  -0.0027587055  -0.0010425458   19.11898      -1.1090942      17.486473    
    587000   1.832977      -0.0026432693   1000000       -0.0010524974  -0.0030843811  -0.0037929294   19.127661     -1.1103408      17.488667    
    588000   1.8315954     -0.0019505382   1000000       -0.00061283568 -0.0028416788  -0.0023971002   19.122102     -1.1163389      17.491179    
    589000   1.8482962      0.0010578682   1000000        0.0022115005  -0.00076545692  0.001727561    19.127114     -1.1188987      17.473701    
    590000   1.844629       0.00051833959  1000000       -0.0002409408  -0.00047734821  0.0022733078   19.136328     -1.1144526      17.483969    
    591000   1.8474345      0.00065325007  1000000       -0.00090899552  0.0013323056   0.0015364401   19.137397     -1.1187018      17.485079    
    592000   1.8438524     -6.7905642e-05  1000000       -0.0023240319   0.00043116191  0.001689153    19.136096     -1.1262217      17.496671    
    593000   1.8432138      0.0020404824   1000000        0.0025495018  -0.0011967891   0.0047687344   19.133358     -1.1166043      17.485273    
    594000   1.8305444      0.0008258161   1000000        0.00054688837  0.0011378398   0.00079272018  19.131784     -1.1030738      17.489172    
    595000   1.8414503      0.0038659112   1000000        0.00098083177  0.0045146382   0.0061022637   19.120629     -1.1036471      17.462232    
    596000   1.8395797      0.000262064    1000000       -0.00019843779  8.1803276e-05  0.00090282652  19.127708     -1.10236        17.47083     
    597000   1.8342554     -0.00030150039  1000000        0.0015548289  -0.0032285126   0.00076918256  19.122147     -1.106431       17.477326    
    598000   1.8413329      0.0030783131   1000000        0.00099549361  0.0037203323   0.0045191132   19.130025     -1.119467       17.487625    
    599000   1.8422025      0.005371647    1000000        0.0036681436   0.0038060336   0.0086407638   19.117862     -1.1096743      17.464364    
    600000   1.8493316      0.0010109567   1000000        0.0011895167   0.0022326604  -0.00038930704  19.126966     -1.1209998      17.474101    
    601000   1.8343617     -0.0020299307   1000000       -0.0022497167  -0.00039184563 -0.0034482298   19.126055     -1.1188778      17.493521    
    602000   1.8407917     -0.0011510379   1000000       -2.5457345e-05 -0.0016496667  -0.0017779896   19.128817     -1.115839       17.4836      
    603000   1.8416714      0.0030572694   1000000        0.0019658224   0.0035752045   0.0036307813   19.123114     -1.1133902      17.474129    
    604000   1.8461996      0.0018714797   1000000        0.0024583458   0.001375096    0.0017809973   19.122978     -1.1259074      17.479718    
    605000   1.8312565      0.0016410058   1000000        0.0021215271  -0.0017746239   0.0045761142   19.113342     -1.1208781      17.487466    
    606000   1.8491576     -0.001144427    1000000        0.00083613956 -0.0043931008   0.00012368039  19.101839     -1.1398583      17.468093    
    607000   1.8466683      0.0035990545   1000000        0.0029134265   0.0033283575   0.0045553795   19.104152     -1.1392576      17.473539    
    608000   1.839787       0.002864498    1000000        0.0020210529   0.0025079875   0.0040644536   19.104549     -1.1357507      17.480751    
    609000   1.8406867      0.0023547067   1000000        0.0021866793   0.0015897222   0.0032877186   19.093012     -1.1425468      17.47466     
    610000   1.8453919     -0.00090269965  1000000        0.00070067705 -0.0016249376  -0.0017838384   19.097661     -1.1508956      17.480601    
    611000   1.8437148     -0.00076825243  1000000       -0.0021475581   0.0018467124  -0.0020039116   19.093648     -1.1393743      17.467582    
    612000   1.8277707     -0.0021088248   1000000       -0.0019695722  -0.0042406554  -0.00011624683  19.081438     -1.139128       17.479041    
    613000   1.8328133     -6.4537411e-05  1000000       -0.0025759686   1.4053566e-06  0.002380951    19.087158     -1.1390823      17.477151    
    614000   1.8253329     -0.0020933676   1000000       -0.00034423112 -0.0051455922  -0.0007902795   19.076609     -1.1439667      17.482706    
    615000   1.8260612     -4.8051887e-05  1000000        0.0020206979  -0.0013763528  -0.00078850074  19.064555     -1.1444601      17.470054    
    616000   1.8268718      0.0022312807   1000000        0.0018105401   0.001496172    0.0033871299   19.072405     -1.1463333      17.478561    
    617000   1.8309807     -0.001497709    1000000       -0.00078839327 -0.0036555971  -4.9136785e-05  19.069876     -1.1436799      17.467216    
    618000   1.8238962     -0.001303351    1000000       -0.0022380252  -0.002045521    0.00037349306  19.071522     -1.141733       17.477541    
    619000   1.8169622      3.0239894e-05  1000000        0.0016829346  -0.00071338932 -0.00087882563  19.081694     -1.1329376      17.489318    
    620000   1.8176337      0.00025028213  1000000       -0.000690364    0.0032159174  -0.001774707    19.081876     -1.1275854      17.483141    
    621000   1.8284756     -0.0040067849   1000000       -0.0038619173  -0.0039284212  -0.0042300163   19.093294     -1.1357977      17.486509    
    622000   1.8461967      0.0046248784   1000000        0.0015253528   0.0053804247   0.0069688577   19.100353     -1.1420814      17.473271    
    623000   1.8470297      0.0052151598   1000000        0.0035931476   0.0070788494   0.0049734825   19.100052     -1.147594       17.477233    
    624000   1.8365054     -0.0016029579   1000000       -0.0027889263  -0.00028394678 -0.0017360005   19.08753      -1.1527607      17.485664    
    625000   1.8400396     -0.00015538706  1000000        0.0041690834  -0.0013406127  -0.0032946318   19.084014     -1.1521575      17.476243    
    626000   1.8315093      0.00056621492  1000000        0.00041116331  0.0019689694  -0.000681488    19.088954     -1.1563782      17.498199    
    627000   1.837767       0.0023519936   1000000        0.00081501969  0.0035530835   0.0026878775   19.087004     -1.1574222      17.487907    
    628000   1.8431548      0.0014615141   1000000        0.0015135702  -0.00095343525  0.0038244074   19.101863     -1.1498701      17.487132    
    629000   1.8467856     -0.0021295077   1000000        0.00037739862 -0.0019544861  -0.0048114355   19.107516     -1.1538076      17.491277    
    630000   1.84894       -0.0039105778   1000000       -0.0055339045  -0.0029838323  -0.0032139965   19.113564     -1.1488522      17.489139    
    631000   1.8452433      0.0010793073   1000000        0.0029225841  -0.00041805171  0.00073338958  19.10866      -1.1419478      17.482875    
    632000   1.8351772     -0.0025828444   1000000       -0.0012855372  -0.0033551962  -0.0031077997   19.090037     -1.1339959      17.471399    
    633000   1.8450505     -0.003833042    1000000       -0.0019051958  -0.0045537391  -0.0050401912   19.096596     -1.1391491      17.468301    
    634000   1.8344405     -0.003863274    1000000       -0.0029041333  -0.0036112469  -0.0050744417   19.093825     -1.1442163      17.486511    
    635000   1.8317277     -0.0015180577   1000000       -0.00093555103 -0.0011555932  -0.0024630288   19.090186     -1.1418297      17.484555    
    636000   1.8366866      0.00066741028  1000000       -0.0015528626   0.0026454232   0.00090967032  19.092517     -1.1396036      17.477222    
    637000   1.846932       0.0022484307   1000000        0.0032024203  -6.746255e-05   0.0036103342   19.097417     -1.1476364      17.474788    
    638000   1.8370356      0.0014739469   1000000        0.00074360608  0.002743541    0.00093469363  19.084159     -1.1582631      17.487       
    639000   1.8278275      0.0022106827   1000000        0.0028347917   0.0028133927   0.00098386384  19.075443     -1.1522211      17.486053    
    640000   1.8320616      0.00045333043  1000000        0.001257168    0.0013379726  -0.0012351493   19.073276     -1.1546741      17.479988    
    641000   1.8354316     -0.0024820671   1000000       -0.0019289412  -0.0019194877  -0.0035977722   19.082922     -1.1554194      17.485325    
    642000   1.8232657     -0.0044983968   1000000       -0.0039567016  -0.0049782541  -0.0045602346   19.074634     -1.1521959      17.492061    
    643000   1.8324426     -0.0010181695   1000000       -0.00055887032 -0.00075651864 -0.0017391195   19.080937     -1.1553022      17.487706    
    644000   1.8391835      3.4377981e-05  1000000       -0.0015668738   0.0010097923   0.00066021544  19.078029     -1.1603813      17.479767    
    645000   1.8417524      0.0010932074   1000000        0.00068216389  0.0012188902   0.0013785679   19.085181     -1.1505456      17.47323     
    646000   1.83654        0.0012590781   1000000       -0.0011171602   0.0034817997   0.0014125947   19.087852     -1.1549492      17.488123    
    647000   1.8456573     -0.001541       1000000       -0.0026335937   0.0013033861  -0.0032927924   19.091712     -1.1531958      17.476554    
    648000   1.8507229      0.0014199666   1000000        0.00083357545  0.0024570186   0.00096930557  19.107147     -1.153989       17.485184    
    649000   1.8422902     -0.0014420269   1000000       -0.00012098342 -0.00044764688 -0.0037574504   19.107737     -1.1502786      17.494712    
    650000   1.8386025     -0.0011372641   1000000       -0.0016516181  -8.6696974e-05 -0.0016734772   19.103474     -1.1441449      17.489846    
    651000   1.8361601     -0.002139044    1000000       -0.0034762585   0.00078439674 -0.0037252701   19.086081     -1.145114       17.477087    
    652000   1.8371018     -0.0033212645   1000000       -0.0054941189  -0.0036254093  -0.00084426535  19.082667     -1.1428403      17.469986    
    653000   1.842283      -0.0019639008   1000000        0.0019655306  -0.0054403082  -0.0024169249   19.086041     -1.1527332      17.475482    
    654000   1.8387901      0.00099443462  1000000        0.00049013287  0.0038719949  -0.0013788239   19.084346     -1.1464108      17.472703    
    655000   1.8402218     -6.1268342e-05  1000000        0.0015851199  -0.00059554305 -0.0011733819   19.085945     -1.1495843      17.475328    
    656000   1.8521722     -0.0024218466   1000000       -0.00084056727 -0.0023442262  -0.0040807465   19.097457     -1.1542827      17.473614    
    657000   1.8543871      0.00016022551  1000000        0.0007162351  -0.00064820436  0.00041264579  19.0975       -1.1624505      17.478503    
    658000   1.8568418      0.00088952652  1000000       -0.00084978248 -8.0280492e-05  0.0035986425   19.097007     -1.1625885      17.474465    
    659000   1.86426        0.0010022428   1000000        0.0015835678   0.0017552292  -0.00033206858  19.108496     -1.1582265      17.470465    
    660000   1.8466468     -0.00057549735  1000000        0.00052312381 -0.00013026468 -0.0021193512   19.087475     -1.1542564      17.471893    
    661000   1.850825       0.00087862687  1000000        0.0015070667  -0.00058647373  0.0017152876   19.095367     -1.1567432      17.476005    
    662000   1.8499496      0.00063314502  1000000       -0.00060087357  0.0020255307   0.00047477789  19.091278     -1.150931       17.467416    
    663000   1.840869      -0.0038997443   1000000       -0.0040494823  -0.0051550316  -0.002494719    19.085269     -1.1525654      17.476662    
    664000   1.8392757      0.00084714954  1000000        0.0015556101  -8.3766078e-06  0.00099421515  19.078422     -1.1534225      17.473062    
    665000   1.8449589     -2.1449285e-05  1000000       -0.0013874386   0.0005330676   0.00079002318  19.08831      -1.1575701      17.478574    
    666000   1.8425269      0.0018237223   1000000        0.0010915923   0.0039453531   0.00043422146  19.086243     -1.1534935      17.476078    
    667000   1.8356485      0.00086520383  1000000        0.0003114098   0.0034941724  -0.0012099708   19.078187     -1.1589203      17.483766    
    668000   1.8398624     -0.0024508328   1000000       -0.0033018212  -0.0022310388  -0.0018196386   19.070979     -1.1633808      17.474698    
    669000   1.8448869     -0.0027918652   1000000       -0.0035792183  -0.0017029981  -0.0030933792   19.076936     -1.1644724      17.47421     
    670000   1.8396445      0.0034964424   1000000        0.0025994835   0.0031745791   0.0047152646   19.06948      -1.1573069      17.467452    
    671000   1.8411853      0.00023200093  1000000        0.0026538539  -0.00077573866 -0.0011821125   19.070548     -1.1693169      17.478218    
    672000   1.8467971     -0.00010601717  1000000        0.0019959098  -0.00026073408 -0.0020532272   19.071318     -1.16513        17.466384    
    673000   1.8519263      0.0010074048   1000000        0.0013124357   0.0015278471   0.00018193163  19.08392      -1.167846       17.474009    
    674000   1.842687       0.001001156    1000000        0.0031182172   0.00088349707 -0.00099824618  19.080471     -1.1702512      17.486824    
    675000   1.842152      -0.00077167067  1000000       -0.0017930291   0.00030711599 -0.00082909893  19.081567     -1.1696771      17.488148    
    676000   1.8417703      0.00085978755  1000000       -0.00044779352  0.0010895831   0.0019375731   19.065166     -1.170333       17.472975    
    677000   1.8275345      0.0015664684   1000000        0.0027452193   0.0024635956  -0.00050940973  19.062177     -1.1603036      17.481309    
    678000   1.8202117      0.00037708706  1000000        0.0014327334   0.00094273831 -0.0012442106   19.049428     -1.1584035      17.477644    
    679000   1.8309269      0.0042302596   1000000        0.0017857174   0.0044522842   0.0064527772   19.045892     -1.1706328      17.470265    
    680000   1.8304544      4.2749139e-05  1000000       -0.00028278158 -0.0022740519   0.0026850809   19.042581     -1.1679054      17.464935    
    681000   1.8257614     -0.0026964442   1000000       -0.0016994666  -0.0038466632  -0.0025432028   19.050071     -1.1700347      17.481594    
    682000   1.8232913     -0.0034841745   1000000       -0.0055861357  -0.0026672183  -0.0021991694   19.036435     -1.1719759      17.473604    
    683000   1.8251626      0.0011731918   1000000        0.0013008416   0.00099570197  0.0012230319   19.041841     -1.163622       17.46785     
    684000   1.8321194     -0.0014629231   1000000       -0.0031036409  -0.00092360277 -0.00036152561  19.046394     -1.1722128      17.470559    
    685000   1.8427582      0.0014423311   1000000        0.00081167903  0.0018795404   0.001635774    19.05289      -1.1752565      17.464141    
    686000   1.8471988      0.0021431576   1000000        0.0010932367   0.0026184137   0.0027178223   19.069944     -1.1753021      17.47458     
    687000   1.8443887      0.0022103702   1000000        0.0059754605  -2.0416919e-05  0.00067606704  19.061032     -1.1762064      17.470787    
    688000   1.8422327     -0.0018581587   1000000       -0.0029050824  -0.00099789233 -0.0016715012   19.041325     -1.1814506      17.459558    
    689000   1.8311905      0.003441933    1000000        0.0040627986   0.0058407994   0.00042220109  19.041764     -1.1776003      17.472709    
    690000   1.8227215     -0.0012063536   1000000       -0.0018441463  -0.0019414048   0.00016649034  19.042525     -1.171989       17.480562    
    691000   1.8413518     -0.0031189603   1000000       -0.0039215303  -0.0037168491  -0.0017185014   19.05005      -1.1771393      17.465293    
    692000   1.8367387     -0.0021918361   1000000       -0.0020199861  -0.0038678716  -0.00068765046  19.066276     -1.1684279      17.479727    
    693000   1.8310059      0.00038491767  1000000       -9.2973437e-05  0.0018531025  -0.00060537606  19.060047     -1.170897       17.484565    
    694000   1.8341446     -0.0012285015   1000000        0.0007768614  -0.0017341097  -0.0027282561   19.063918     -1.1709659      17.483798    
    695000   1.8327111     -0.00010750115  1000000       -0.0012454035  -0.00013554569  0.0010584457   19.074636     -1.1747458      17.500446    
    696000   1.8386651      8.0981523e-05  1000000       -0.0017926213  -0.00046067839  0.0024962442   19.070024     -1.1810312      17.493189    
    697000   1.8308136      0.00099621561  1000000       -0.00018273534  0.0010453696   0.0021260126   19.060224     -1.1714706      17.485605    
    698000   1.829399       0.00024687694  1000000        0.00064851048  0.00013950566 -4.7385313e-05  19.045264     -1.1802948      17.48159     
    699000   1.8262351     -0.00038703523  1000000       -0.00099992944 -0.0017224883   0.0015613121   19.057911     -1.184494       17.503183    
    700000   1.830613      -0.00095631376  1000000       -0.0020515475  -0.00097266425  0.00015527047  19.056867     -1.1769576      17.488036    
    701000   1.849764       0.0027717564   1000000        0.0048617921   0.00031314944  0.0031403277   19.064729     -1.183935       17.47415     
    702000   1.8339718      0.00052066723  1000000       -0.0012808892   0.0017807582   0.0010621327   19.06093      -1.178695       17.488798    
    703000   1.8470253      0.00066558259  1000000        0.0010523533   0.00074090818  0.00020348631  19.075878     -1.1794542      17.484926    
    704000   1.8494094     -0.00035864606  1000000       -0.00035846085  0.0014474524  -0.0021649297   19.061735     -1.1859161      17.47367     
    705000   1.8466878      0.00051567254  1000000       -0.0013135719   0.0011523015   0.0017082881   19.055876     -1.1847238      17.4707      
    706000   1.8391211      0.0041638599   1000000        0.0059204204   0.0039928672   0.0025782921   19.034616     -1.1773346      17.4534      
    707000   1.8370088      0.0014104483   1000000        0.001588128    0.0015325612   0.0011106557   19.043623     -1.179252       17.467493    
    708000   1.8377155      0.0018420089   1000000        0.0022122298   0.00097543685  0.00233836     19.048736     -1.181821       17.474115    
    709000   1.8449367      0.0027553361   1000000        0.0045554241   0.00067175519  0.0030388291   19.044596     -1.1900714      17.467394    
    710000   1.832729      -0.00068268734  1000000        0.00083958182 -0.0024823266  -0.0004053172   19.046246     -1.1870273      17.484311    
    711000   1.8414205      0.00051391811  1000000        2.9797808e-05 -0.0010642348   0.0025761913   19.060162     -1.1865977      17.484761    
    712000   1.8468181     -0.00075391158  1000000       -0.0024085418   2.3424713e-05  0.00012338237  19.057095     -1.1905125      17.477512    
    713000   1.8463568      0.00072370224  1000000        0.0021702812  -0.00061786797  0.00061869346  19.06062      -1.1927341      17.48395     
    714000   1.8546168     -0.00087738785  1000000        0.00069997103 -0.0015354656  -0.001796669    19.071746     -1.1996933      17.489646    
    715000   1.8436244      0.0011449454   1000000        0.00037383488  0.0010454847   0.0020155166   19.064709     -1.1885812      17.487985    
    716000   1.8501267     -0.00068244985  1000000       -0.0011257797  -0.0017341026   0.00081253281  19.064608     -1.1855107      17.475061    
    717000   1.8401819     -0.0013188569   1000000       -0.00097104699 -0.00098608605 -0.0019994376   19.044787     -1.1807602      17.465406    
    718000   1.847546       0.0012997903   1000000        6.6092626e-05  0.0015245939   0.0023086842   19.054289     -1.1850763      17.468178    
    719000   1.8552126     -0.0019026883   1000000       -0.0030689193   0.0012409341  -0.0038800796   19.072073     -1.1888989      17.478286    
    720000   1.8498626      0.0011214487   1000000       -0.00047464571  0.001909466    0.0019295258   19.06509      -1.1876797      17.478108    
    721000   1.8475666      0.0035644885   1000000        0.0032673533   0.0037068969   0.0037192155   19.054159     -1.1930399      17.475981    
    722000   1.8307254      0.0002004998   1000000       -0.0022799981  -0.0008869572   0.0037684547   19.053523     -1.1856528      17.493219    
    723000   1.8404239     -0.0019348774   1000000       -0.0030693377  -0.0025982982  -0.00013699645  19.070521     -1.1857293      17.495746    
    724000   1.8487016      0.00071214529  1000000       -0.00038182159 -0.00011364771  0.0026319052   19.067225     -1.1898592      17.484164    
    725000   1.8465957      0.00046767142  1000000       -0.0013961206   0.0024828377   0.00031629719  19.060904     -1.1956915      17.486834    
    726000   1.8508751      0.0014096622   1000000        9.5741861e-05 -0.0025129736   0.0066462184   19.08269      -1.1949762      17.501485    
    727000   1.8504691     -0.0010204232   1000000       -0.00096204026 -0.0019409703  -0.00015825896  19.067429     -1.1957568      17.487614    
    728000   1.8417023     -0.0020155929   1000000       -0.0039479413  -3.1206917e-05 -0.0020676304   19.069891     -1.1938199      17.501289    
    729000   1.8433897      0.0012658397   1000000        0.0028217245   0.00072353118  0.00025226357  19.068861     -1.1968311      17.500739    
    730000   1.8555367      0.0010514515   1000000        0.0029399689  -0.0021943568   0.0024087423   19.079445     -1.1972935      17.493566    
    731000   1.8562487      0.0016505419   1000000        0.00075190099  0.0010877978   0.0031119269   19.07886      -1.2016021      17.496222    
    732000   1.8397528      0.0026699628   1000000        0.0043994431   0.0035021859   0.00010825938  19.058305     -1.1962671      17.495075    
    733000   1.8493274      0.0022794017   1000000        0.0032793762   0.0026555565   0.00090327243  19.061798     -1.1970939      17.485033    
    734000   1.8527044     -0.00013350643  1000000       -0.00075120498  0.00022138347  0.00012930221  19.053483     -1.2061006      17.480659    
    735000   1.847441      -0.00036168369  1000000        0.00074773099 -0.00071258632 -0.0011201957   19.061572     -1.1984264      17.488969    
    736000   1.85599        0.00059576208  1000000        0.0012207299  -0.0013122931   0.0018788494   19.065352     -1.2006837      17.482184    
    737000   1.8399621     -0.0013782037   1000000        0.0011414929  -0.002920203   -0.002355901    19.053189     -1.1967803      17.490157    
    738000   1.8479653     -0.00038631134  1000000       -6.2865916e-05 -0.00036754923 -0.00072851887  19.062763     -1.1895227      17.48047     
    739000   1.8507647     -0.00051264082  1000000       -0.0039524382  -0.00048577124  0.002900287    19.056907     -1.1953466      17.476239    
    740000   1.8376707      0.0045137129   1000000        0.002981153    0.005016321    0.0055436646   19.045827     -1.1923353      17.481787    
    741000   1.8428319      0.0035089317   1000000        0.0031880644   0.0034940475   0.0038446833   19.03133      -1.2063779      17.473592    
    742000   1.8300382     -0.00016903111  1000000        0.00273061    -0.0013421898  -0.0018955135   19.028182     -1.2077166      17.490972    
    743000   1.8235641     -0.0011780503   1000000       -0.00033783811 -0.00074694745 -0.0024493653   19.016569     -1.2008549      17.482208    
    744000   1.8310336     -0.0017210308   1000000       -0.0018367701   0.00063365664 -0.0039599789   19.007817     -1.1930145      17.454412    
    745000   1.8386748     -0.0016872376   1000000       -0.0059234791  -0.00055847074  0.0014202369   19.02091      -1.2122871      17.475317    
    746000   1.8350674      3.4157533e-06  1000000       -0.00057015489 -0.0010834556   0.0016638578   19.012186     -1.2094183      17.469135    
    747000   1.833085       0.0056992267   1000000        0.0065968506   0.0026890299   0.0078117996   19.000624     -1.2125094      17.463637    
    748000   1.8223111      0.0021831121   1000000        0.001402583    0.0011712943   0.0039754591   18.998919     -1.2088445      17.474428    
    749000   1.8312474      0.00068492129  1000000       -0.00041277852  0.0017487773   0.00071876509  18.999773     -1.2123785      17.465411    
    750000   1.8305941      0.0026644953   1000000        8.0910341e-05  0.0059813964   0.0019311792   19.003909     -1.2138856      17.472034    
    751000   1.8418285     -0.00028814844  1000000       -0.00059415964 -0.00083686641  0.00056658073  19.008547     -1.2162437      17.46218     
    752000   1.8312575      7.59399e-05    1000000        0.00012153668 -3.9371298e-05  0.00014565432  18.997422     -1.2128797      17.463546    
    753000   1.8305601     -0.0022297874   1000000       -0.0030087345  -0.0037077571   2.712933e-05   18.994928     -1.2205262      17.469745    
    754000   1.8294422     -0.00080373202  1000000       -0.00091678252 -0.00038794806 -0.0011064655   19.010441     -1.212826       17.479235    
    755000   1.828261      -0.0018886958   1000000       -0.0016677627  -0.00022372257 -0.0037746022   18.987829     -1.2143498      17.459917    
    756000   1.8286204     -0.0015491981   1000000       -0.005078156    0.0015711705  -0.0011406087   18.987012     -1.2174732      17.461685    
    757000   1.814751      -0.0016508118   1000000       -0.0021221013   5.2389587e-05 -0.0028827238   18.974762     -1.2184239      17.471189    
    758000   1.83238        0.0012668001   1000000        0.00022618872  0.0023785709   0.0011956407   18.978212     -1.2249636      17.454736    
    759000   1.8182123      0.00025206582  1000000        0.00047468049 -0.00080890496  0.0010904219   18.970801     -1.2167574      17.46037     
    760000   1.8244924      0.0011728586   1000000        0.0010524267   0.0030316598  -0.00056551077  18.99355      -1.2161218      17.473064    
    761000   1.8239216     -0.0021721327   1000000       -0.0024981918  -0.00098553755 -0.0030326688   18.998174     -1.2135102      17.475932    
    762000   1.8224805     -0.0013592956   1000000       -0.0011328011  -0.001501597   -0.0014434889   18.999829     -1.2184107      17.484649    
    763000   1.8228835     -0.0031152623   1000000       -0.0025110497  -0.0043742391  -0.0024604982   19.01322      -1.2185262      17.497551    
    764000   1.8259057      0.0010232135   1000000        0.0031025888  -0.0024666555   0.0024337072   19.010679     -1.2068436      17.478794    
    765000   1.83323        0.0020910894   1000000        0.0035527725   0.001458493    0.0012620028   19.015215     -1.2149566      17.480457    
    766000   1.8389367      0.0002716423   1000000        4.9531474e-06 -0.0016848957   0.0024948694   19.023583     -1.2148533      17.480163    
    767000   1.8321647      0.0011134868   1000000       -0.0003476867   0.00038786291  0.0033002842   19.012355     -1.214483       17.478722    
    768000   1.8378784     -0.0013319916   1000000        0.0012855501  -0.0027798886  -0.0025016364   19.020421     -1.2186125      17.482347    
    769000   1.8473338     -0.0023351825   1000000       -0.0065708777  -0.00087954409  0.00044487426  19.027788     -1.230521       17.48744     
    770000   1.8471429      0.00087631442  1000000        0.00019806067  0.003860853   -0.0014299704   19.027284     -1.2240592      17.480761    
    771000   1.8518956      0.002619798    1000000        0.0040120973   0.0022917935   0.0015555031   19.025269     -1.2211954      17.468754    
    772000   1.8434879      0.00012474788  1000000        0.00015797156  0.00071225862 -0.00049598655  19.014114     -1.2262988      17.475313    
    773000   1.8428244      0.0015956454   1000000        0.00051181329  0.0040544653   0.00022065769  19.013892     -1.2276531      17.47744     
    774000   1.8258959     -0.0019524134   1000000        0.0011252185  -0.0036640034  -0.0033184553   19.005867     -1.2212538      17.488407    
    775000   1.8417394      0.0014422363   1000000        0.00053340505  0.0016908369   0.002102467    19.011043     -1.2204764      17.469042    
    776000   1.8336553      0.00045531305  1000000       -0.0024419999   0.0025142105   0.0012937285   19.002768     -1.2234207      17.475837    
    777000   1.8324043      0.00047548525  1000000        0.0013237095  -0.00062446822  0.00072721449  18.996053     -1.2251571      17.472735    
    778000   1.8366222     -0.0017422275   1000000       -0.0018205483  -0.0027365259  -0.00066960829  18.999005     -1.2270615      17.471264    
    779000   1.8255074      0.0033656624   1000000       -0.00018856018  0.0072156803   0.0030698669   18.998421     -1.2307713      17.491061    
    780000   1.8288035      0.002542137    1000000        0.0028854365   0.0014864375   0.003254537    19.002896     -1.2290128      17.488834    
    781000   1.8418182      0.0021919685   1000000        0.002214482    0.0014105567   0.0029508667   19.002288     -1.2327         17.472393    
    782000   1.8357003      0.0021800884   1000000        0.00071109135  0.0033459583   0.0024832154   19.003153     -1.2230235      17.472757    
    783000   1.8285411     -0.004520269    1000000       -0.0057507844  -0.0027668015  -0.0050432212   18.995724     -1.231284       17.484327    
    784000   1.818166      -0.0032102658   1000000       -0.002245954   -0.0023186076  -0.0050662358   18.997339     -1.2220439      17.492264    
    785000   1.8308366      0.00018246015  1000000        0.00056908136 -0.00015198899  0.00013028808  18.996344     -1.2298998      17.48012     
    786000   1.8202873      0.0017718932   1000000        0.0015600177   0.0012438807   0.0025117812   18.9881       -1.2268239      17.484623    
    787000   1.82275        0.00092955668  1000000       -0.000862732   -0.0012683649   0.004919767    18.974888     -1.2298571      17.47075     
    788000   1.8434313     -0.0012878638   1000000       -0.00059962495 -0.0025131404  -0.00075082613  18.988345     -1.2378597      17.46119     
    789000   1.8200541     -0.00087156964  1000000       -0.00067230202 -0.0029290577   0.00098665079  18.988745     -1.229171       17.487965    
    790000   1.8225665     -0.0012622663   1000000        0.00020769544 -0.0035531275  -0.00044136677  18.984764     -1.2261657      17.47721     
    791000   1.8275149     -0.001026569    1000000        7.9145547e-05 -0.00040838372 -0.0027504688   18.984539     -1.2280974      17.471494    
    792000   1.8425399      0.0026302798   1000000        0.0030983734   0.0023092539   0.0024832122   18.99954      -1.2275884      17.46345     
    793000   1.8346243     -0.001090427    1000000        0.0013402679  -0.0057565236   0.0011449748   19.002398     -1.2234378      17.474031    
    794000   1.8395938      0.0024921665   1000000        0.0034177861   0.00022619922  0.0038325141   19.021212     -1.2115459      17.473499    
    795000   1.8463396     -0.00016055593  1000000        0.00086412786 -0.0010354571  -0.00031033852  19.014747     -1.2226057      17.467975    
    796000   1.8452356     -0.0046859642   1000000       -0.0043181592  -0.0011312576  -0.0086084759   19.020893     -1.2203462      17.473518    
    797000   1.8454743     -0.0012771618   1000000       -0.0015103681   0.0002747402  -0.0025958575   19.028843     -1.2211624      17.481926    
    798000   1.8372752      0.0019673755   1000000        0.00065510012  0.0055615392  -0.00031451279  19.03326      -1.2086071      17.486085    
    799000   1.8304884      0.00177916     1000000        0.004989177    9.7728631e-05  0.00025057421  19.02047      -1.2062625      17.481131    
    800000   1.8369271     -0.00010905349  1000000        0.00075525558 -0.0018268548   0.00074443878  19.020725     -1.204967       17.470433    
    801000   1.840794      -0.00072436955  1000000       -0.0014416797  -0.0011211365   0.00038970755  19.017553     -1.2100928      17.466587    
    802000   1.8408001     -0.00073958202  1000000       -0.002009673   -0.0038494353   0.0036403622   19.007415     -1.212747       17.459094    
    803000   1.8217595     -0.0011284501   1000000       -0.0030716855   0.00056098189 -0.0008746468   19.012206     -1.2065493      17.486246    
    804000   1.8258889     -0.0031671311   1000000       -0.0027609655  -0.0057917099  -0.00094871792  19.016096     -1.2079316      17.485325    
    805000   1.8359042     -0.0031787508   1000000       -0.0027835879  -0.0043491304  -0.0024035343   19.01913      -1.2156707      17.481076    
    806000   1.8345234     -0.0015500741   1000000       -0.00013532352 -0.0012292198  -0.0032856789   19.007503     -1.2131584      17.469008    
    807000   1.8320798     -0.00066969956  1000000       -0.0015908212  -0.001649389    0.0012311115   19.020387     -1.2130407      17.485439    
    808000   1.8357748     -0.00024199112  1000000       -0.0011795091   0.00024070751  0.00021282821  19.022761     -1.2098257      17.479056    
    809000   1.8274771      3.2938413e-05  1000000        0.00013096929 -0.0012941678   0.0012620138   19.027539     -1.2095554      17.496009    
    810000   1.8252965     -0.0003426772   1000000       -0.0020189593   0.0015253023  -0.00053437463  19.034677     -1.1983505      17.495213    
    811000   1.8339946     -0.001650213    1000000       -0.00076596853 -0.002095982   -0.0020886885   19.024575     -1.2052773      17.478991    
    812000   1.8156205     -0.0027476156   1000000       -0.0028711133  -0.0018615901  -0.0035101436   19.005906     -1.2169667      17.499572    
    813000   1.8321359     -0.0054155158   1000000       -0.0050978094  -0.0070549829  -0.004093755    19.020924     -1.2178594      17.49071     
    814000   1.8294236     -0.0014882735   1000000        0.0012739056  -0.0023832338  -0.0033554923   19.021028     -1.209959       17.486982    
    815000   1.8230642     -0.0020955843   1000000       -0.0044296221  -0.0025980887   0.00074095772  19.017185     -1.2217662      17.504485    
    816000   1.8433749     -0.00079079336  1000000        0.0022031381  -0.0033797863  -0.0011957318   19.020387     -1.2232746      17.478731    
    817000   1.8358278      0.00062954869  1000000        0.0030438471  -0.0020098938   0.0008546928   19.014653     -1.2289238      17.489967    
    818000   1.8385387      0.0015266451   1000000        0.001215811    0.0039272188  -0.00056309455  19.010271     -1.225724       17.478318    
    819000   1.8480075      0.0013497707   1000000        0.0035201432  -0.0021822176   0.0027113866   19.006075     -1.2276649      17.461861    
    820000   1.8187459     -0.0021734587   1000000       -0.001077943   -0.003582255   -0.0018601782   18.986592     -1.2244402      17.483044    
    821000   1.8351425     -0.0023174298   1000000       -0.0004755068  -0.0029551801  -0.0035216025   18.995466     -1.2322045      17.475088    
    822000   1.8307729      0.0014127747   1000000        0.0027488509   0.00021996667  0.0012695067   18.994845     -1.2322645      17.481081    
    823000   1.8473295      0.00065727651  1000000       -0.0012876626   0.0034743632  -0.00021487108  19.004281     -1.2314375      17.464856    
    824000   1.844311      -0.00087329358  1000000       -0.00010597267 -0.0012428564  -0.0012710516   19.020013     -1.2328599      17.486539    
    825000   1.8324605     -0.00095284288  1000000        0.0017658014  -0.0046378937   1.3563655e-05  19.005058     -1.2347763      17.491274    
    826000   1.8378945      0.00047256693  1000000        0.0014210865   0.0002916346  -0.00029502032  19.01395      -1.2277081      17.484947    
    827000   1.8405203      9.0049331e-05  1000000        0.002117454   -0.002089677    0.00024237103  19.019579     -1.2285016      17.487431    
    828000   1.8367307     -0.0011077966   1000000       -0.00045959938 -0.0039777176   0.0011139271   19.017589     -1.2323022      17.494927    
    829000   1.8578991      0.0017105155   1000000        0.0042254582  -0.0035675409   0.0044736292   19.031765     -1.2363388      17.481388    
    830000   1.8557328     -0.0019053931   1000000       -0.00042192188 -0.0037112096  -0.001583048    19.024562     -1.2346787      17.475774    
    831000   1.8487225     -0.0018275379   1000000       -0.00035235934 -0.00053806747 -0.004592187    19.016614     -1.2408669      17.484529    
    832000   1.8495487      0.00040464186  1000000       -0.0013447086  -0.00034280316  0.0029014374   19.008006     -1.2365003      17.470315    
    833000   1.8392823      0.0026972606   1000000        0.0065245232  -0.0023085646   0.0038758233   18.996722     -1.2425472      17.480477    
    834000   1.8308085      0.0002022077   1000000        0.0031076077  -0.0015742029  -0.00092678166  18.983696     -1.2435851      17.481199    
    835000   1.8353932      9.9639983e-05  1000000       -0.00067244601  0.0019947126  -0.0010233466   18.985088     -1.2493772      17.481507    
    836000   1.8319972      0.00085122953  1000000        0.0026054134   0.0018514859  -0.0019032108   18.977751     -1.2472514      17.477138    
    837000   1.8239541      0.00043833367  1000000        0.00047478288  0.00061508026  0.00022513786  18.959754     -1.2501552      17.474109    
    838000   1.8328253     -0.00019547656  1000000        0.00014644498 -0.0012056907   0.00047281602  18.971711     -1.2514199      17.474024    
    839000   1.8138203      0.00067822225  1000000       -0.001768248    0.0032428075   0.00056010734  18.974833     -1.2453055      17.499537    
    840000   1.821365      -0.00096245537  1000000       -0.0020354972  -0.0038947107   0.0030428418   18.96386      -1.25161        17.483553    
    841000   1.8404051     -0.0004627978   1000000       -0.00056116136 -0.0023010278   0.0014737957   18.986213     -1.2525414      17.478279    
    842000   1.8302419     -0.0025783026   1000000       -0.00046461621 -0.0033595616  -0.0039107299   18.982874     -1.2531558      17.490797    
    843000   1.8329031     -0.0013989103   1000000       -0.0014414321  -0.0008237589  -0.00193154     19.000266     -1.2370002      17.488042    
    844000   1.8478081     -0.00043190479  1000000        0.002015032   -0.0030377254  -0.0002730209   18.991387     -1.2463483      17.466155    
    845000   1.8302355      0.0014727594   1000000        0.0025376701   0.0014290274   0.00045158062  18.979529     -1.242553       17.476859    
    846000   1.8348305     -0.00018497721  1000000       -0.00079962153  0.00044357022 -0.00019888033  18.983375     -1.2479775      17.479238    
    847000   1.8299809      0.00050920464  1000000       -0.00047612521  0.0031334497  -0.0011297105   18.96652      -1.2593974      17.481077    
    848000   1.8321541     -0.0014496605   1000000        0.0011300146  -0.002147293   -0.003331703    18.962543     -1.2589292      17.473372    
    849000   1.8230036      0.00097642245  1000000        0.0033949317  -0.0029089851   0.0024433207   18.970443     -1.2524235      17.488492    
    850000   1.8432345      0.0024052931   1000000        0.0018416485   0.0043601525   0.0010140781   18.97675      -1.2553957      17.467426    
    851000   1.8287114      0.0015885431   1000000        0.0024136106   0.0017027193   0.00064929936  18.973787     -1.2552622      17.486112    
    852000   1.8315755      0.00076213487  1000000        0.0033560707  -0.00027231796 -0.00079734817  18.981694     -1.2520326      17.486494    
    853000   1.8332797      0.0015881196   1000000        0.0045502812   0.0010982882  -0.00088421054  18.968768     -1.2603138      17.479293    
    854000   1.8547919      0.00092637051  1000000        0.00065033309 -0.00061500483  0.0027437833   18.9813       -1.2652488      17.464494    
    855000   1.8425164     -0.00034504627  1000000       -0.00086620515 -0.0020934076   0.0019244739   18.974852     -1.2541985      17.465407    
    856000   1.8214681     -0.001928691    1000000       -0.0035654699  -0.0014674534  -0.00075314984  18.965818     -1.241325       17.475071    
    857000   1.8448879     -0.0017450251   1000000       -0.0027881484   0.00026629673 -0.0027132236   18.98226      -1.2542813      17.469341    
    858000   1.8513812      0.0051408765   1000000        0.0047753078   0.0048011918   0.0058461297   18.985024     -1.2540445      17.462129    
    859000   1.848162      -0.0019936198   1000000       -0.002054785   -0.00055671774 -0.0033693567   18.990869     -1.2513279      17.470086    
    860000   1.8423591     -0.0011025197   1000000       -0.002499232    0.001786092   -0.0025944191   19.000054     -1.2550427      17.49169     
    861000   1.8363583      0.0014323017   1000000        0.0028213331   0.00066556529  0.00081000676  18.97647      -1.254041       17.476105    
    862000   1.8258924      0.00075571578  1000000       -0.00083159639  0.0029833423   0.00011540145  18.96898      -1.2433258      17.473597    
    863000   1.8169524     -0.0029296907   1000000       -0.0040687411  -0.0040598116  -0.00066051947  18.962352     -1.2488159      17.485869    
    864000   1.827458       0.0016408647   1000000        0.0013650073   0.00062092382  0.002936663    18.959561     -1.2464936      17.464998    
    865000   1.8270633      0.00047950041  1000000       -0.00025418278  0.00039939832  0.0012932857   18.96275      -1.2472048      17.46949     
    866000   1.8171353     -0.0013933624   1000000       -0.00013523928 -0.00098495796 -0.0030598901   18.967967     -1.2469529      17.489347    
    867000   1.8271952      0.00063961144  1000000        0.00037720238 -0.00028595187  0.0018275838   18.978574     -1.2478318      17.485744    
    868000   1.8223281      0.00049821147  1000000        0.0004012232   0.00063893093  0.00045448028  18.977722     -1.2380826      17.482443    
    869000   1.8424613      0.0024230184   1000000        0.0026728186   0.0038381753   0.00075806134  19.005582     -1.2353778      17.4774      
    870000   1.8348759     -0.00015878886  1000000        0.002707616   -0.00069261675 -0.0024913658   19.006655     -1.2370579      17.49153     
    871000   1.8499104      0.0029092853   1000000        0.0055968805   0.001817185    0.0013137904   19.016571     -1.2454354      17.487272    
    872000   1.8619792     -0.0012253293   1000000        4.3397932e-05 -0.0028434722  -0.00087591362  19.030367     -1.2442983      17.48183     
    873000   1.8499001      0.0026550741   1000000        0.0023332652   0.0024211917   0.0032107652   19.029206     -1.2401985      17.494686    
    874000   1.8630764      0.001021749    1000000       -2.6983796e-05  0.0014402195   0.0016520112   19.019138     -1.2480655      17.472722    
    875000   1.8508411      0.0021609151   1000000       -0.00054045891  0.0017442473   0.0052789568   19.016403     -1.2408322      17.481106    
    876000   1.84957        0.00024444777  1000000        0.0022147472  -0.0015209362   3.9532275e-05  19.009384     -1.249849       17.48501     
    877000   1.840207      -0.00066018508  1000000       -0.00077132397 -0.002089357    0.0008801257   19.010538     -1.2444279      17.494787    
    878000   1.8444669     -0.0018121307   1000000       -0.0055255861   0.00042643186 -0.0003372379   19.006603     -1.2532914      17.493326    
    879000   1.8470226      0.0024641903   1000000        0.0026957803   0.0056082132  -0.00091142267  18.999432     -1.2476926      17.476723    
    880000   1.8353097     -0.0007345295   1000000        0.0023100694  -0.0014396539  -0.003074004    18.988989     -1.2483076      17.484463    
    881000   1.8425475     -0.0024935198   1000000       -0.0034919917  -0.0013549222  -0.0026336456   18.989888     -1.2493078      17.475506    
    882000   1.8374723      0.0013103607   1000000        0.00097660992  0.00148046     0.0014740122   18.976629     -1.2650533      17.485606    
    883000   1.8416392      0.00062099164  1000000        0.0006276831  -0.00040722182  0.0016425136   18.981801     -1.2700485      17.489522    
    884000   1.8370122      0.00091333505  1000000        0.0038296392  -0.0012796083   0.0001899743   18.975559     -1.2739021      17.494074    
    885000   1.8369036      0.0027303558   1000000        0.0037991672   0.00010698167  0.0042849185   18.969076     -1.270994       17.484846    
    886000   1.8472774      0.00076486609  1000000        0.0024249346   0.0015693116  -0.0016996479   18.972179     -1.270475       17.471869    
    887000   1.8460354     -0.00039150398  1000000        0.0015423684  -0.0016199695  -0.0010969109   18.970941     -1.2751174      17.477137    
    888000   1.8510574     -0.0017183855   1000000        0.0026225678  -0.0026768756  -0.0051008488   18.972639     -1.2729958      17.469181    
    889000   1.84638       -0.00059089994  1000000        0.00014747483  0.0022455514  -0.0041657261   18.971349     -1.2648924      17.466803    
    890000   1.8284945     -0.0015550452   1000000       -0.0019485383  -0.0011597134  -0.001556884    18.961304     -1.2668089      17.485502    
    891000   1.8286697     -0.0027818018   1000000       -0.0039692499  -0.00052524316 -0.0038509122   18.938485     -1.2719113      17.467522    
    892000   1.8298136      0.0025248208   1000000        0.0027952305   0.0024233315   0.0023559006   18.939861     -1.2758007      17.471072    
    893000   1.8172348      0.0012768317   1000000        0.0017721014   0.0018593764   0.00019901721  18.928107     -1.275718       17.478102    
    894000   1.8282447      0.0014095811   1000000        0.0016486612   0.0037287925  -0.0011487105   18.936397     -1.2688825      17.463043    
    895000   1.8256313      0.00034368883  1000000       -0.0020186873   0.0015233376   0.0015264161   18.941199     -1.2653193      17.468202    
    896000   1.8135686     -0.0010497969   1000000        0.00047228889 -0.0022365895  -0.0013850902   18.925302     -1.2662654      17.471344    
    897000   1.8146304     -0.0044321966   1000000       -0.0028103279  -0.0032121715  -0.0072740905   18.929014     -1.2642995      17.471497    
    898000   1.8320307     -0.0016412831   1000000       -0.00088094469 -0.0015361419  -0.0025067626   18.956334     -1.2726435      17.481062    
    899000   1.8299988     -0.0013645354   1000000       -0.00052096508  0.0017770892  -0.0053497302   18.952126     -1.2735563      17.480815    
    900000   1.8329377     -0.00023110928  1000000       -0.0027014083   0.0010464833   0.00096159712  18.963708     -1.2751718      17.489604    
    901000   1.8486103      0.0018275209   1000000        0.0027753258   0.0023155511   0.00039168584  18.980119     -1.2696475      17.476984    
    902000   1.8336623      0.00037431146  1000000        0.0015633924   0.0034431856  -0.0038836436   18.969007     -1.2682987      17.486943    
    903000   1.8323202     -0.0012924668   1000000       -0.005344848    0.00016485878  0.0013025887   18.950977     -1.2718679      17.474495    
    904000   1.8281673      0.0041911292   1000000        0.0046533089   0.0043843861   0.0035356926   18.94355      -1.2710876      17.472517    
    905000   1.8348598      0.0027230858   1000000        0.0082965903  -0.0022207869   0.002093454    18.951791     -1.2759474      17.47558     
    906000   1.8315219     -0.00075735288  1000000        0.00044553512 -0.00041902966 -0.0022985641   18.961637     -1.2722142      17.486699    
    907000   1.8345855      0.002152372    1000000        0.0010268032   0.003420254    0.0020100586   18.966753     -1.2618727      17.476879    
    908000   1.8331584      0.002143664    1000000       -0.00035365605  0.0011095025   0.0056751455   18.956636     -1.2669517      17.47398     
    909000   1.8387757      0.0023692245   1000000        0.0040683578   0.0029010198   0.00013829589  18.965325     -1.2664881      17.473781    
    910000   1.8362339      0.00079059947  1000000        0.0017361358  -0.00061583202  0.0012514946   18.955787     -1.2738857      17.475453    
    911000   1.823122       0.0012153918   1000000        0.0014134094  -0.00018955058  0.0024223167   18.943302     -1.2707061      17.479455    
    912000   1.8320243      0.00051946441  1000000        0.00037887868  0.00015615638  0.0010233582   18.936474     -1.2699566      17.458525    
    913000   1.8264479      0.0013216528   1000000        0.0024240168   0.0016323515  -9.140968e-05   18.947042     -1.2759926      17.483494    
    914000   1.8311602     -0.00073065589  1000000        0.00025755109 -0.0012287883  -0.0012207305   18.944918     -1.2679896      17.466298    
    915000   1.8392309     -0.0023860273   1000000       -0.0032053167  -0.0043063925   0.00035362734  18.954801     -1.2786324      17.474718    
    916000   1.8364038     -0.0010381844   1000000       -0.0024974892  -0.0013828345   0.00076577043  18.943861     -1.2800172      17.469404    
    917000   1.8359849     -7.3721633e-06  1000000       -0.0015585919   0.0013823834   0.00015409196  18.954795     -1.2676828      17.468632    
    918000   1.8417875     -0.00018611896  1000000        0.0012885113  -0.0009618332  -0.00088503493  18.951113     -1.274703       17.463266    
    919000   1.8443602      0.0041459219   1000000        0.0038324324   0.0043966836   0.0042086498   18.943232     -1.2722069      17.44903     
    920000   1.8353256      0.001019507    1000000       -0.0011214379   0.001441783    0.002738176    18.939976     -1.2788394      17.465958    
    921000   1.8287564      0.00083987641  1000000        0.00044381886 -0.00026883349  0.0023446439   18.953465     -1.2761027      17.486564    
    922000   1.834638       0.0015341622   1000000        5.2864134e-05  0.0011436155   0.0034060071   18.942861     -1.2774356      17.46847     
    923000   1.8271437      0.0008170593   1000000       -0.001483924    0.0033805265   0.00055457536  18.936958     -1.2749027      17.471276    
    924000   1.8256751     -0.00092561825  1000000        0.0012038237  -0.0013145977  -0.0026660807   18.943099     -1.263001       17.467718    
    925000   1.8243166      0.0023700221   1000000        0.0047378006   0.0004532078   0.001919058    18.9322       -1.2697723      17.465627    
    926000   1.8368003      0.0014365178   1000000        0.0014632403   0.0012424828   0.0016038303   18.925189     -1.2880643      17.458184    
    927000   1.8216608     -0.00039431997  1000000        0.0012988683  -0.0004001192  -0.002081709    18.916402     -1.2845093      17.46855     
    928000   1.8216676     -0.0011033816   1000000       -0.00175639    -0.0019509142   0.00039715945  18.91485      -1.2922757      17.474754    
    929000   1.8400754     -0.00098515771  1000000       -0.00089600167 -0.00065756443 -0.001401907    18.917443     -1.2960453      17.453507    
    930000   1.8244611     -0.0013210506   1000000       -0.0027781859  -0.0012422325   5.7266633e-05  18.908114     -1.2982721      17.469825    
    931000   1.8093202     -0.0008016701   1000000        0.00014216877  0.0014764559  -0.004023635    18.888224     -1.2909182      17.465291    
    932000   1.8063597     -0.00011481973  1000000       -0.0022938324   0.00056964317  0.0013797301   18.879389     -1.2891279      17.459107    
    933000   1.8100718      0.00047380844  1000000       -0.00065706744  0.00075025097  0.0013282418   18.888887     -1.2888184      17.462727    
    934000   1.8103116      0.00066317742  1000000       -0.00090428666  0.0016902871   0.0012035318   18.89502      -1.2830316      17.462714    
    935000   1.8239939     -0.0013032465   1000000       -0.0034722528   0.00073491987 -0.0011724067   18.897841     -1.2922078      17.454188    
    936000   1.8142549      0.0041820861   1000000        0.0035782285   0.0033076688   0.005660361    18.903945     -1.288264       17.470956    
    937000   1.8361166      0.0034212928   1000000        0.0048624228   0.00038404051  0.0050174149   18.923461     -1.2867122      17.456129    
    938000   1.8350742      0.0035226111   1000000        0.0041036474   0.0060552587   0.00040892738  18.923257     -1.2822818      17.453059    
    939000   1.8325223      0.00016737554  1000000        0.0024694046   0.0007425559  -0.0027098339   18.913991     -1.2845923      17.449931    
    940000   1.8263129      0.0033217525   1000000        0.0058799782   0.00052644678  0.0035588326   18.919534     -1.2812613      17.461456    
    941000   1.8257971     -0.00023049346  1000000        0.00088916532 -0.0026191646   0.0010385189   18.916883     -1.2860465      17.464364    
    942000   1.8126638      0.0025431589   1000000        0.002185426    0.0035500662   0.0018939844   18.91786      -1.2755255      17.47452     
    943000   1.829464       0.0016455086   1000000        0.0035202079  -0.00080443666  0.0022207544   18.93063      -1.2781431      17.464708    
    944000   1.832282      -0.0028810648   1000000       -0.0014486635  -0.0038711695  -0.0033233615   18.926324     -1.298229       17.476261    
    945000   1.8267007      0.00016260652  1000000       -0.0011857972   0.002358744   -0.0006851272   18.914971     -1.3006499      17.4757      
    946000   1.8199999     -0.00094896775  1000000        0.00045547981 -0.00050683576 -0.0027955473   18.901804     -1.2896325      17.461567    
    947000   1.8291899      0.0023965464   1000000        0.0014195775   0.0026853764   0.0030846853   18.913303     -1.2868242      17.456473    
    948000   1.8253674      0.0023940831   1000000        0.003110113    0.004294196   -0.00022205971  18.923292     -1.2885895      17.473961    
    949000   1.8281987      0.00047591166  1000000       -0.00041576873  0.00090855727  0.00093494645  18.926363     -1.2973282      17.481524    
    950000   1.8134259      0.0015783608   1000000       -0.0019902113   0.001874974    0.0048503198   18.905942     -1.2945396      17.480472    
    951000   1.8171034     -0.00084171544  1000000       -0.0028606849  -0.00096568817  0.0013012268   18.911528     -1.2923535      17.478356    
    952000   1.8209856      0.003978646    1000000        0.0030847154   0.0051782324   0.0036729903   18.91957      -1.2931669      17.481388    
    953000   1.8377669      0.0012673448   1000000       -0.00063232831  0.0039478382   0.00048652442  18.918872     -1.2957829      17.458136    
    954000   1.8297809     -0.00034833956  1000000        0.001897413   -0.0011158623  -0.0018265693   18.916802     -1.2969128      17.469174    
    955000   1.825294      -0.0003028882   1000000       -0.00084778446  0.0021525346  -0.0022134147   18.911113     -1.3040375      17.47734     
    956000   1.8240899     -0.0016787151   1000000       -0.0021176539  -0.0016604674  -0.001258024    18.932541     -1.2978173      17.494354    
    957000   1.8202903     -0.001712327    1000000       -0.00036513274 -0.0042214568  -0.00055039149  18.922311     -1.2960675      17.488073    
    958000   1.8215355      0.0012261799   1000000        0.0014258897  -7.2373996e-05  0.002325024    18.926396     -1.2965857      17.490808    
    959000   1.8294237     -0.0012840817   1000000       -0.0023810515   0.0025560744  -0.004027268    18.928006     -1.3007328      17.484734    
    960000   1.8378187     -0.0001433757   1000000       -0.0031421565   0.0001592234   0.002552806    18.939837     -1.3038519      17.487092    
    961000   1.8275679      0.0018869643   1000000        0.0008234969   0.0026674927   0.0021699032   18.930644     -1.2906717      17.480094    
    962000   1.8316414      0.0002279798   1000000       -0.0012010943   0.0017481252   0.00013690842  18.926764     -1.2992081      17.478641    
    963000   1.8385545      1.6922501e-05  1000000       -0.0030080278   0.0036654972  -0.00060670191  18.938188     -1.2898086      17.470297    
    964000   1.8423231      0.004356172    1000000        0.0053960652   0.0041885555   0.0034838954   18.940135     -1.2951793      17.471961    
    965000   1.8402196      0.00029197314  1000000       -0.0019243834   0.0014698966   0.0013304062   18.957588     -1.2883186      17.485709    
    966000   1.8402393      0.0021750688   1000000        0.0029293947   0.0011980532   0.0023977586   18.966747     -1.2813085      17.487828    
    967000   1.834463       0.0029547295   1000000        0.0023022291   0.0039245287   0.0026374307   18.954011     -1.2735267      17.475974    
    968000   1.8336666     -0.00098344758  1000000       -7.7328763e-05 -0.0027706528  -0.0001023612   18.94224      -1.2839376      17.475809    
    969000   1.8401417     -0.0045896896   1000000       -0.0060796034  -0.0024973427  -0.0051921227   18.954222     -1.2886236      17.482765    
    970000   1.8509439      0.00062328616  1000000        0.0012601645   0.00071596497 -0.00010627096  18.961956     -1.2882087      17.473882    
    971000   1.8482089      0.00035354538  1000000        0.0011735951   0.00046898607 -0.00058194504  18.95602      -1.2906069      17.474445    
    972000   1.8316272      0.0015420276   1000000        0.0018182465   0.00010894243  0.0026988939   18.948352     -1.2843448      17.485387    
    973000   1.8262598     -0.00096155588  1000000        0.00022500875 -0.00026433532 -0.0028453411   18.953174     -1.2736043      17.487519    
    974000   1.8253792     -0.00018153332  1000000        0.00014017823  0.0052692154  -0.0059539937   18.955081     -1.2703457      17.487489    
    975000   1.819642      -0.0015150506   1000000       -0.00176089     0.001341839   -0.0041261008   18.947526     -1.2791335      17.497326    
    976000   1.8219471     -0.0034201732   1000000       -0.0045116627  -0.00014628395 -0.005602573    18.937211     -1.2758486      17.480269    
    977000   1.8332992     -0.0031681543   1000000       -0.0064947023  -0.0013504874  -0.001659273    18.939713     -1.2746495      17.464545    
    978000   1.8267189      0.00189989     1000000        0.0027161145   0.0017688857   0.0012146698   18.956913     -1.2655809      17.482546    
    979000   1.8304441     -0.0017187343   1000000       -0.00050268334 -0.0032560209  -0.0013974986   18.943772     -1.2766042      17.474841    
    980000   1.8304752     -0.00040412075  1000000        0.00076834406 -0.0036648139   0.0016841075   18.937798     -1.27849        17.470706    
    981000   1.8387531     -0.00055026316  1000000       -0.0014074053   0.0018381414  -0.0020815257   18.935479     -1.2809667      17.458447    
    982000   1.829618       0.00030386872  1000000        0.00039128545  9.9203503e-05  0.0004211172   18.935551     -1.2750111      17.466266    
    983000   1.8173387      0.003227561    1000000        0.0017814307   0.0031204604   0.004780792    18.946039     -1.2661383      17.486299    
    984000   1.8305858      0.0013651552   1000000        0.00059690249  0.0017187722   0.001779791    18.938161     -1.2726319      17.465045    
    985000   1.8227984      0.0033160674   1000000        0.00067380079  0.0053055431   0.0039688582   18.933294     -1.2786721      17.477899    
    986000   1.8422316      0.0029501822   1000000        0.0037854849   0.0021562474   0.0029088144   18.936803     -1.2905938      17.464181    
    987000   1.8344321      0.00079845453  1000000       -0.0017612934   0.0008776929   0.003278964    18.931027     -1.2896976      17.469208    
    988000   1.820869       0.00044388003  1000000       -0.0016250218   0.0012961124   0.0016605495   18.935734     -1.2802552      17.484816    
    989000   1.8342701     -0.0020688      1000000        0.00061961829 -0.0023111974  -0.0045148209   18.938701     -1.292374       17.479801    
    990000   1.8278306     -0.0017686183   1000000        0.0020768982  -0.0044057737  -0.0029769794   18.926197     -1.2918459      17.476428    
    991000   1.8289639     -0.00055791782  1000000       -0.0021713913  -0.0005695066   0.0010671444   18.926113     -1.2949584      17.477756    
    992000   1.8347499      0.0051254225   1000000        0.0055101821   0.0041378241   0.0057282614   18.920546     -1.2929897      17.461542    
    993000   1.8421853     -6.5125351e-05  1000000        0.0015963753  -0.0022026214   0.00041087013  18.930522     -1.2971101      17.464486    
    994000   1.8269813     -0.00096068402  1000000       -0.00054814945 -0.00044974728 -0.0018841553   18.932474     -1.2965968      17.488729    
    995000   1.8225124     -0.00054423437  1000000        0.0031434263  -0.0052076893   0.00043155988  18.917333     -1.2908841      17.474579    
    996000   1.8308948     -3.6387823e-05  1000000       -0.00013427591  0.00063801465 -0.00061290221  18.919047     -1.2965414      17.469377    
    997000   1.8378999      0.0011362795   1000000        0.002565744    0.00035779524  0.00048529917  18.925501     -1.2926274      17.46141     
    998000   1.8302543      0.0019340574   1000000        0.0024201925   0.0020086941   0.0013732855   18.912331     -1.2885483      17.455629    
    999000   1.8202749      0.00036451732  1000000        0.00060353506 -0.00042412852  0.00091414544  18.910309     -1.284964       17.464991    
   1000000   1.8276411      2.2896106e-05  1000000        0.0014993521  -0.0015813762   0.00015071239  18.915875     -1.288015       17.462558    
   1001000   1.8266365     -0.0019964771   1000000        2.7960489e-05 -0.0028980984  -0.0031192935   18.91435      -1.2927703      17.467296    
   1002000   1.8087236     -0.00031117904  1000000       -0.0019101713   2.5717243e-06  0.00097406247  18.906181     -1.2847763      17.478001    
   1003000   1.8290332      0.0048693546   1000000        0.0031475905   0.0044333873   0.0070270859   18.922724     -1.2857485      17.465053    
   1004000   1.836417       0.00079631063  1000000        0.0027591802   0.0011578109  -0.0015280593   18.935255     -1.2853852      17.466146    
   1005000   1.8362523      0.0010573811   1000000        0.0021798706   0.00088722714  0.00010504551  18.926059     -1.2963787      17.468191    
   1006000   1.8347281      0.0023114425   1000000        0.0025093055  -0.00036258905  0.0047876109   18.925636     -1.294611       17.468286    
   1007000   1.8437544      0.0024100275   1000000        0.001318525    0.00066206176  0.0052494957   18.927535     -1.2951956      17.45723     
   1008000   1.8288614      0.0027236384   1000000        0.0036233128   0.0026335758   0.0019140266   18.930229     -1.2914199      17.478487    
   1009000   1.8334202     -3.656802e-05   1000000        0.0010505589  -0.0024063079   0.0012460449   18.925657     -1.2855309      17.461189    
   1010000   1.8331856      0.00083136639  1000000       -0.00037056226 -0.0015368409   0.0044015023   18.918852     -1.2859866      17.455191    
   1011000   1.8382226     -0.00033974982  1000000        0.0021117977  -0.00063544203 -0.0024956051   18.927551     -1.2923171      17.462665    
   1012000   1.8472424     -0.00068735663  1000000        0.00063239863 -3.8207714e-05 -0.0026562608   18.936751     -1.2873405      17.453359    
   1013000   1.8294337      0.00090427802  1000000        0.0004178771   0.00070165551  0.0015933015   18.928951     -1.2778299      17.462761    
   1014000   1.8232958      0.0012578586   1000000        3.757501e-05   0.002143581    0.0015924197   18.91345      -1.2850535      17.46369     
   1015000   1.8267619     -0.00060594789  1000000        0.00052652548 -0.0025985597   0.00025419058  18.911368     -1.2911988      17.462554    
   1016000   1.8198806     -0.00077250644  1000000       -0.0015021972  -0.0035988561   0.002783534    18.921318     -1.2907129      17.48234     
   1017000   1.833335       0.0014097992   1000000        0.0029545798   0.0018339176  -0.00055909984  18.90917      -1.2937369      17.453035    
   1018000   1.8305406      0.0019839589   1000000        0.0008482994   0.0040832474   0.0010203298   18.920754     -1.297618       17.472692    
   1019000   1.8297733     -0.0022787105   1000000       -0.0014968771  -0.0019100008  -0.0034292537   18.907073     -1.3049251      17.467468    
   1020000   1.8325316     -0.0020274195   1000000       -0.00088939201 -0.0039425458  -0.0012503206   18.924112     -1.3054515      17.480897    
   1021000   1.8345579      0.002522619    1000000        0.001952109    0.0041808328   0.0014349153   18.92715      -1.3065356      17.48198     
   1022000   1.8458347     -0.0014222478   1000000       -0.0040936279  -0.00070974361  0.00053662813  18.937001     -1.3002385      17.468619    
   1023000   1.8532734     -0.0014817953   1000000       -0.0021434874  -0.0022963067  -5.5919204e-06  18.947249     -1.3056332      17.473104    
   1024000   1.8455446     -6.909613e-05   1000000       -0.001713847   -0.00075586174  0.0022624204   18.960163     -1.2933404      17.485319    
   1025000   1.8440435     -0.00025061949  1000000       -0.0036914566   0.0051289011  -0.002189303    18.956014     -1.2918747      17.481955    
   1026000   1.8446746     -0.00091888844  1000000       -0.0016821861  -0.0013586596   0.00028418033  18.94904      -1.2947344      17.476894    
   1027000   1.8343073      0.0002015542   1000000        0.0014847794  -0.00091123513  3.1118349e-05  18.933729     -1.298067       17.480466    
   1028000   1.8342987     -0.001998891    1000000       -0.0015185224   0.0010139804  -0.005492131    18.929961     -1.2891319      17.467776    
   1029000   1.8333688      0.0023707716   1000000        0.0030010513   0.0039170377   0.00019422579  18.919392     -1.297219       17.466688    
   1030000   1.8358456     -0.00023188942  1000000        0.0016403106  -0.0028930869   0.00055710805  18.928049     -1.2994709      17.473882    
   1031000   1.8270769     -0.00064061153  1000000       -0.00096260708 -0.0012949644   0.00033573684  18.931682     -1.2849722      17.47617     
   1032000   1.8255775     -0.00024199326  1000000        0.0018805437   0.0017333144  -0.0043398378   18.937593     -1.2831218      17.482479    
   1033000   1.8368855      0.0016111279   1000000       -2.381739e-05   0.0018632134   0.0029939876   18.933705     -1.2955788      17.474086    
   1034000   1.8399905     -0.0024938852   1000000       -0.0035162192  -0.0018693204  -0.0020961159   18.950728     -1.2921295      17.483003    
   1035000   1.838648       0.0017327223   1000000       -0.00068738207  0.0035723212   0.0023132279   18.95102      -1.2842561      17.477435    
   1036000   1.8315834      0.0016185516   1000000        0.0036687092   0.0010959506   9.0995009e-05  18.940441     -1.2854332      17.47863     
   1037000   1.8283337     -0.00046550845  1000000        0.00085874482 -0.0018846348  -0.0003706354   18.947516     -1.2808688      17.486015    
   1038000   1.8268589     -0.0012682864   1000000        7.7987159e-05  7.6318715e-05 -0.003959165    18.949132     -1.2790309      17.488005    
   1039000   1.8301227      0.00056399831  1000000       -0.0011618057   0.0042317715  -0.0013779708   18.934327     -1.2866658      17.475939    
   1040000   1.8393256      0.00086108255  1000000        0.00025104749  0.0032247746  -0.00089257443  18.943498     -1.2913144      17.475955    
   1041000   1.8257168     -0.00017633406  1000000       -0.0035867243   0.0014014093   0.0016563128   18.91763      -1.2917478      17.470933    
   1042000   1.8280027      0.0010141671   1000000        0.0024371105   0.00081031273 -0.00020492178  18.904575     -1.2964624      17.459164    
   1043000   1.819927       0.0021923687   1000000        0.0025614383   0.0031417537   0.00087391413  18.903489     -1.2894429      17.463171    
   1044000   1.8044433     -0.002295571    1000000        0.00071658786 -0.0040155171  -0.0035877838   18.899209     -1.2926749      17.485348    
   1045000   1.8190261      0.0029296119   1000000        0.0015958714   0.0035020439   0.0036909204   18.906927     -1.2879717      17.466489    
   1046000   1.8300601      0.0030878436   1000000        0.00070061644  0.0039215831   0.0046413313   18.90516      -1.2969689      17.45717     
   1047000   1.8215732     -0.002346708    1000000       -0.0026618356  -0.00079557389 -0.0035827145   18.918509     -1.288144       17.474423    
   1048000   1.8198413     -8.1764457e-05  1000000        0.00034648262 -0.00018884074 -0.00040293525  18.908183     -1.2873393      17.465891    
   1049000   1.8352865      0.0064616059   1000000        0.0066179056   0.0061651177   0.0066017945   18.920757     -1.2970316      17.46499     
   1050000   1.8444397     -0.00033553719  1000000       -0.0034838367   0.00089262218  0.0015846029   18.934241     -1.2968648      17.464578    
   1051000   1.8426791      0.0004656769   1000000        0.00028655113  0.00072782455  0.00038265502  18.935434     -1.2918758      17.463422    
   1052000   1.8450455      0.0027764699   1000000        0.0050857663   0.0024749565   0.00076868692  18.936083     -1.2995756      17.468223    
   1053000   1.8313729      0.00045446909  1000000       -0.00017576425 -0.0024173621   0.0039565337   18.941691     -1.286521       17.481284    
   1054000   1.8305648      7.5140377e-05  1000000       -0.002537871   -0.00042791005  0.0031912021   18.937903     -1.2876245      17.479811    
   1055000   1.8198608      0.00059291934  1000000       -0.00044776118  0.00115932     0.0010671992   18.934497     -1.289713       17.494549    
   1056000   1.8254049     -0.0043234829   1000000       -0.0015156748  -0.0043313234  -0.0071234506   18.932908     -1.2957084      17.490639    
   1057000   1.8288347      0.00057097301  1000000        0.0017436681  -0.00049108679  0.00046033771  18.929319     -1.29732        17.483518    
   1058000   1.8362751     -0.00062770875  1000000        0.0012407238   0.00060524396 -0.003729094    18.936305     -1.2956734      17.477697    
   1059000   1.8348248      0.003200399    1000000        0.0017608366   0.0038080312   0.0040323291   18.932475     -1.2925943      17.472963    
   1060000   1.830109       0.00063514827  1000000        0.0016806761  -0.0029223836   0.0031471523   18.939003     -1.2926256      17.486596    
   1061000   1.8245651     -0.00059672214  1000000        0.00090310438  0.00089601684 -0.0035892876   18.927997     -1.2920782      17.483358    
   1062000   1.8464359      0.0040518892   1000000        0.0023534902   0.0046923398   0.0051098378   18.938103     -1.2917348      17.460316    
   1063000   1.8464099      3.2916973e-05  1000000        0.001424618    0.00096007127 -0.0022859383   18.935579     -1.2979248      17.464021    
   1064000   1.8437486      0.0018571777   1000000        0.0030048042   0.0013025036   0.0012642252   18.933425     -1.3013232      17.469257    
   1065000   1.8270464      0.0003355973   1000000       -0.0011417739   0.00063392396  0.0015146418   18.926304     -1.2905023      17.476368    
   1066000   1.8262542      0.0041313164   1000000        0.0066912976   0.0021060722   0.0035965793   18.917073     -1.290668       17.46849     
   1067000   1.8331509      0.00072176825  1000000        0.0033493063  -0.000812213   -0.00037178859  18.913027     -1.2905966      17.454028    
   1068000   1.8264626     -0.00060511933  1000000       -0.0010180171  -0.0016255866   0.0008282457   18.90883      -1.284558       17.453824    
   1069000   1.8278635     -0.00060042865  1000000       -0.0013729905  -0.00015917444 -0.00026912105  18.909836     -1.2875525      17.455724    
   1070000   1.81899       -0.0010436356   1000000        0.0016372343  -0.0037470076  -0.0010211336   18.901499     -1.2950166      17.46816     
   1071000   1.8233083      0.00027242643  1000000        0.0011149282  -0.0034213974   0.0031237485   18.894669     -1.3062592      17.466096    
   1072000   1.8225969      0.0032243847   1000000        0.0027379804   0.0017260388   0.005209135    18.896658     -1.3067132      17.469606    
   1073000   1.8183191      0.0015179242   1000000        0.001447875    0.00073343926  0.0023724584   18.898015     -1.316812       17.487478    
   1074000   1.8283289      0.00078064251  1000000        0.00049865229  0.0034896179  -0.0016463427   18.912965     -1.3065559      17.477159    
   1075000   1.82775       -0.0023348102   1000000       -0.006532692    0.00011644734 -0.00058818598  18.915411     -1.3101214      17.484038    
   1076000   1.8213548     -0.00087002289  1000000       -0.0015605085   0.0018187135  -0.0028682737   18.906954     -1.3042412      17.479293    
   1077000   1.8233337      0.0010576121   1000000        0.0014599665  -0.00077335328  0.0024862232   18.905635     -1.3073035      17.478068    
   1078000   1.8294241      0.00024494152  1000000       -0.00079844939  0.0017517274  -0.0002184535   18.912115     -1.3003963      17.468506    
   1079000   1.8286851      0.00019099057  1000000        0.0023346417  -0.00034572908 -0.0014159409   18.916645     -1.2947043      17.468452    
   1080000   1.8280822     -0.0020359921   1000000       -0.00014311532 -0.0038380967  -0.0021267641   18.904851     -1.3118247      17.474683    
   1081000   1.8259321     -0.0033573234   1000000       -0.00060614789 -0.0044166021  -0.0050492203   18.894928     -1.315914       17.472074    
   1082000   1.8055955     -0.005361421    1000000       -0.0055809874  -0.0064879111  -0.0040153646   18.883961     -1.3076502      17.483347    
   1083000   1.8156837     -6.5668913e-05  1000000       -0.00072936001 -0.0017724902   0.0023048434   18.873742     -1.3093614      17.459707    
   1084000   1.8113543      0.00032977786  1000000        0.00088309266 -0.00049963831  0.00060587925  18.868204     -1.3135299      17.464832    
   1085000   1.8118002     -0.001075383    1000000        0.00025427148 -0.0014020343  -0.0020783861   18.8738       -1.313436       17.469665    
   1086000   1.8191826     -0.00072284042  1000000        0.00036195483  6.5090739e-05 -0.0025955668   18.88778      -1.3194378      17.478574    
   1087000   1.8126353      0.00035352751  1000000        0.0019032684   0.0021648926  -0.0030075785   18.87961      -1.3157584      17.476545    
   1088000   1.8182544      0.00055096479  1000000       -8.2386781e-06  0.0028780565  -0.0012169234   18.881332     -1.3163729      17.470453    
   1089000   1.823923       0.0014984492   1000000       -5.5220096e-06  0.0010238188   0.0034770507   18.886307     -1.318532       17.469084    
   1090000   1.8373489      0.0016398097   1000000        0.0026005088  -0.0015083856   0.0038273061   18.918376     -1.3177887      17.480273    
   1091000   1.8533856      0.00077269258  1000000        0.00093668241  0.0010331677   0.00034822763  18.92187      -1.3290731      17.470997    
   1092000   1.8370954      0.0018190282   1000000        0.00029827623  0.0036210687   0.0015377396   18.909836     -1.3226992      17.477023    
   1093000   1.8309015     -0.0026124921   1000000       -0.003866552   -0.0018713052  -0.0020996189   18.911344     -1.3260933      17.491215    
   1094000   1.8419776      0.00010864622  1000000        0.0013131456  -0.0013158215   0.00032861457  18.922916     -1.3158904      17.475972    
   1095000   1.8326063     -0.00012896946  1000000       -0.0010278474   0.00042589081  0.00021504823  18.925337     -1.3150251      17.491584    
   1096000   1.8458941      0.0034403444   1000000        0.0048277978   0.0033850813   0.0021081541   18.92376      -1.320828       17.475879    
   1097000   1.8532838     -0.001128048    1000000       -0.0028347546  -0.00029307213 -0.00025631719  18.9192       -1.3317424      17.47115     
   1098000   1.8333604      0.00063387006  1000000       -0.00074546302 -0.00073065462  0.0033777278   18.918427     -1.3250225      17.49354     
   1099000   1.8311713     -0.0010826192   1000000       -0.00022554355 -0.0012272604  -0.0017950537   18.919609     -1.3168067      17.48979     
   1100000   1.8315971      0.00090374598  1000000        0.0029447727   0.0010723005  -0.0013058352   18.904262     -1.3269514      17.483949    
   1101000   1.8346668      0.0016258234   1000000       -0.00095939613  0.003331054    0.0025058124   18.909363     -1.314982       17.472476    
   1102000   1.8367197     -0.0023983796   1000000       -0.0036668838  -0.0036444965   0.00011624153  18.898172     -1.3308412      17.474065    
   1103000   1.8212664     -0.0011361317   1000000       -0.0034511514   0.0003884624  -0.0003457061   18.889969     -1.3210086      17.479208    
   1104000   1.8381951     -0.00031692449  1000000        0.0011924409  -0.00016488978 -0.0019783245   18.893636     -1.3366382      17.473113    
   1105000   1.8365056      0.00063199182  1000000        0.001040145    0.0013063871  -0.00045055661  18.89288      -1.3277024      17.465955    
   1106000   1.8313379      0.0012241565   1000000        0.00088998728  0.0044610225  -0.0016785403   18.88759      -1.3320414      17.472756    
   1107000   1.8187859      0.0024100275   1000000        0.0013763673   0.0026185987   0.0032351165   18.877623     -1.3196784      17.469252    
   1108000   1.8307307      0.0016917428   1000000        0.002358788    0.0015316219   0.0011848184   18.883167     -1.327079       17.464281    
   1109000   1.8157127      0.00067398262  1000000        0.00097689108  4.3528066e-05  0.0010015287   18.876534     -1.3154209      17.468516    
   1110000   1.827431       0.0019093771   1000000        0.0005363653   0.0033222992   0.0018694666   18.897922     -1.3169506      17.473857    
   1111000   1.823551      -0.0029709376   1000000       -0.0056504574   0.001299027   -0.0045613825   18.891274     -1.3203229      17.476401    
   1112000   1.8336812      0.00048710343  1000000       -0.00156447     0.00035866556  0.0026671147   18.899152     -1.328752       17.477513    
   1113000   1.8284051     -0.0017502611   1000000       -0.00040786826 -0.0041765589  -0.00066635615  18.887612     -1.3386977      17.483832    
   1114000   1.831457       0.0014584713   1000000        0.0022241584  -0.00085318021  0.0030044357   18.883767     -1.3436771      17.480389    
   1115000   1.8335836      0.003732963    1000000        0.005804417    0.00064735351  0.0047471185   18.887319     -1.3441556      17.481231    
   1116000   1.8337702     -0.00073280354  1000000       -0.0026105338   0.00051048572 -9.8362523e-05  18.874596     -1.3488202      17.472892    
   1117000   1.831638       0.0027420814   1000000        0.00013360802  0.003745842    0.0043467942   18.882346     -1.3405615      17.475582    
   1118000   1.8317349      0.0036661363   1000000        0.0042080753   0.0024976852   0.0042926482   18.885012     -1.3331062      17.470647    
   1119000   1.8395947      0.0019278755   1000000        0.0017440199  -0.00023627109  0.0042758777   18.902954     -1.3338375      17.477531    
   1120000   1.8301063     -0.0011963585   1000000       -0.0018453236  -0.0032706496   0.0015268977   18.908151     -1.3284776      17.4916      
   1121000   1.8349145      0.0022615734   1000000        0.0006902866   0.0018113332   0.0042831004   18.908302     -1.3301708      17.486232    
   1122000   1.8343036      0.00014277251  1000000       -0.00048258304  0.0040276039  -0.0031167034   18.906252     -1.3252791      17.480207    
   1123000   1.8367204     -0.00077006776  1000000       -0.0011839735  -0.00013802533 -0.00098820444  18.9166       -1.3262674      17.487918    
   1124000   1.8411739      0.0011447384   1000000        0.0033195028   0.0010316069  -0.00091689447  18.912525     -1.3251922      17.476088    
   1125000   1.8267142     -0.00040359008  1000000       -0.00072335754  0.00099320604 -0.0014806187   18.898513     -1.3246354      17.483208    
   1126000   1.8450725      0.0010725434   1000000       -0.00145681     0.0024045663   0.0022698738   18.905202     -1.3308952      17.46862     
   1127000   1.8356019     -0.00035296667  1000000        0.00025324198 -0.0022458432   0.00093370115  18.898568     -1.3372634      17.48256     
   1128000   1.8305364     -0.0027051228   1000000       -0.0025367602  -0.0021183117  -0.0034602965   18.896822     -1.3314584      17.482607    
   1129000   1.8295724      0.00038731666  1000000        0.0010516134   0.00038536587 -0.0002750293   18.895554     -1.3271229      17.478449    
   1130000   1.8349738     -0.00099467604  1000000       -0.0017318572  -0.0010862374  -0.00016593357  18.892569     -1.3298857      17.470126    
   1131000   1.8238276      0.00071279005  1000000        0.00021668375 -0.00074703657  0.002668723    18.887714     -1.3251136      17.477217    
   1132000   1.8267581      0.0009015439   1000000        0.0014072145   0.0011312907   0.00016612649  18.874732     -1.3342786      17.469004    
   1133000   1.8413111     -0.0021097804   1000000       -0.0016979911  -0.0019015108  -0.0027298394   18.886578     -1.3466044      17.471347    
   1134000   1.8285448      7.1442144e-05  1000000        0.0005538073  -0.0042713863   0.0039319055   18.884311     -1.3436424      17.485267    
   1135000   1.838438       0.0012444839   1000000       -0.0025253245   0.0027132158   0.0035455605   18.881396     -1.3415706      17.465441    
   1136000   1.8376907      0.0011646122   1000000        0.0029281202   0.0014818146  -0.00091609815  18.886577     -1.3395729      17.469745    
   1137000   1.8365973      0.001628363    1000000        0.0031119271   0.00071056792  0.0010625938   18.897306     -1.3319231      17.474465    
   1138000   1.8391147      0.0011623795   1000000        1.0089456e-05  0.00064001819  0.0028370308   18.896836     -1.3362369      17.474532    
   1139000   1.8446563      0.0028119584   1000000        0.0029727358   0.0019335822   0.003529557    18.894807     -1.3404796      17.468434    
   1140000   1.8306059      0.0025883545   1000000        0.005943759    0.00057275539  0.001248549    18.87997      -1.331336       17.465528    
   1141000   1.8206445      0.0034374227   1000000        0.004320695    0.0023520717   0.0036395013   18.864975     -1.3404229      17.474561    
   1142000   1.8371269      0.0062031115   1000000        0.0076289515   0.0081870626   0.0027933205   18.869861     -1.3481994      17.462502    
   1143000   1.8267958      0.0019477023   1000000        0.0046632717   0.0010359171   0.00014391823  18.857228     -1.3450301      17.462195    
   1144000   1.8113365      0.00086591018  1000000        8.0864856e-05  0.0046367734  -0.0021199077   18.841206     -1.3419195      17.46625     
   1145000   1.8310282      0.0026664446   1000000        0.0030854034   0.0039778915   0.00093603886  18.847988     -1.3552097      17.456786    
   1146000   1.8090128      0.0023389232   1000000       -0.00107994     0.0048939306   0.0032027789   18.848131     -1.3371616      17.471902    
   1147000   1.8218011     -0.00066496747  1000000       -0.0011089139   0.00025073256 -0.0011367211   18.859303     -1.3404463      17.467178    
   1148000   1.833796       0.0020313518   1000000        0.0020815403  -0.00056275155  0.0045752666   18.857029     -1.3417889      17.448255    
   1149000   1.8472118     -0.0017446219   1000000       -0.0021625826  -0.00039892339 -0.0026723596   18.87147      -1.3544524      17.455237    
   1150000   1.8354276     -0.0013753586   1000000       -0.001960653   -0.0028696488   0.00070422593  18.876905     -1.3338755      17.45777     
   1151000   1.8333598      0.0013383941   1000000        0.0028371238   0.00051187513  0.00066618324  18.879836     -1.3269089      17.456836    
   1152000   1.8276778      0.0033263908   1000000        0.0040345145   0.0031323385   0.0028123194   18.891876     -1.3237388      17.474228    
   1153000   1.8326188      0.00077546728  1000000        0.0022013521  -0.0012561342   0.0013811839   18.888722     -1.3204696      17.460394    
   1154000   1.8358563      0.0010621836   1000000        0.0002772573   0.0013018423   0.0016074513   18.894517     -1.321056       17.46192     
   1155000   1.8372229      0.00094581928  1000000        0.0011648668  -0.0004086777   0.0020812688   18.885501     -1.3343523      17.46415     
   1156000   1.831314       0.0010985047   1000000       -0.00017485105  0.00062863756  0.0028417275   18.881664     -1.3298398      17.464663    
   1157000   1.8311194      0.0018610032   1000000        0.0030215148   0.0007609388   0.001800556    18.880067     -1.3314136      17.464932    
   1158000   1.8422091      0.0025583147   1000000        0.0020599138   0.0045551732   0.001059857    18.894697     -1.335286       17.466801    
   1159000   1.8290855      0.0012740874   1000000       -0.0006057469   0.0036239413   0.00080406781  18.888347     -1.3271284      17.471977    
   1160000   1.821521       0.00027839338  1000000       -0.0011087025  -1.2651643e-05  0.0019565343   18.878554     -1.326557       17.47296     
   1161000   1.8232438      0.001159249    1000000       -0.0012394976   0.00059833913  0.0041189054   18.87559      -1.3243206      17.465175    
   1162000   1.8275339     -0.0011932142   1000000       -8.9844275e-05 -0.0043308048   0.00084100657  18.890633     -1.3241656      17.473628    
   1163000   1.8426075      0.00060636482  1000000        0.0024018908  -0.0018032833   0.001220487    18.908425     -1.3288086      17.473454    
   1164000   1.8305691     -0.0005629195   1000000       -0.0012935703  -0.0022735815   0.0018783933   18.910345     -1.3191523      17.483774    
   1165000   1.8352475      0.00097425854  1000000        0.00051595484 -0.00058541385  0.0029922346   18.907729     -1.3180292      17.473018    
   1166000   1.837615      -0.0014739032   1000000       -0.00059499751 -0.0011243323  -0.0027023799   18.899012     -1.3281497      17.47087     
   1167000   1.8347549     -0.0014178226   1000000       -0.0015564885  -0.0019904382  -0.0007065412   18.892219     -1.3284246      17.468643    
   1168000   1.8271459      0.00061685361  1000000        0.0028754965   0.0002413984  -0.001266334    18.891345     -1.3206566      17.471413    
   1169000   1.8245158     -0.0021580361   1000000       -0.0022914072  -0.0013867307  -0.0027959703   18.887082     -1.3297243      17.480163    
   1170000   1.8338341      0.0013613813   1000000        0.0023045902  -0.0010297459   0.0028092995   18.901791     -1.3332386      17.484409    
   1171000   1.8484544      0.00178397     1000000        0.0023291082   0.0014041394   0.0016186622   18.909011     -1.3328709      17.469332    
   1172000   1.8358203      0.0031475605   1000000        0.0039459201   0.0045343214   0.00096243989  18.886399     -1.3424716      17.475271    
   1173000   1.8357643     -0.00063097562  1000000        0.00074214651 -0.00061707595 -0.0020179974   18.886061     -1.3437968      17.476342    
   1174000   1.8360441      0.0011448947   1000000        0.002956524    0.001267116   -0.00078895585  18.887656     -1.3479504      17.481672    
   1175000   1.8466846      0.0013422025   1000000        0.0038680692   0.00077974507 -0.00062120665  18.901857     -1.3487738      17.480736    
   1176000   1.8457915     -0.0014172795   1000000       -0.00062821442  0.00044939763 -0.0040730218   18.909728     -1.3381027      17.479275    
   1177000   1.8474117     -0.0023441937   1000000       -0.0013068291  -0.0022199693  -0.0035057828   18.909569     -1.3324334      17.471017    
   1178000   1.8441385      0.0013241831   1000000        0.0016235364   0.0004752403   0.0018737727   18.908052     -1.3366347      17.47861     
   1179000   1.8447815     -0.0014732459   1000000        0.0019857016  -0.0036277683  -0.002777671    18.905798     -1.3403911      17.479149    
   1180000   1.8383192      0.0015226308   1000000        0.0023017311   0.0032011549  -0.00093499353  18.909365     -1.3253532      17.477371    
   1181000   1.8403237     -0.0017282884   1000000        0.0018235368  -0.0019856656  -0.0050227363   18.904805     -1.3296091      17.47406     
   1182000   1.849204      -0.00090008614  1000000       -2.9009608e-05 -0.0035944711   0.00092322232  18.915619     -1.3298096      17.471755    
   1183000   1.8526105      0.0017442492   1000000       -0.00041556349  0.0037340971   0.0019142139   18.915974     -1.3371205      17.474311    
   1184000   1.848393      -0.00050390535  1000000       -0.0022916168   0.0010788085  -0.00029890774  18.907181     -1.3378182      17.472542    
   1185000   1.8422704      0.0013979993   1000000        0.0009859018   0.0023026146   0.00090548155  18.903634     -1.3277898      17.46815     
   1186000   1.8247113     -0.00054107438  1000000       -0.00045147067  0.00026041115 -0.0014321636   18.902751     -1.322286       17.4881      
   1187000   1.8369101      0.0010926373   1000000       -0.00050845145  0.00044564827  0.003340715    18.892947     -1.3249638      17.462677    
   1188000   1.8376489      0.00030638499  1000000       -0.001751909    0.00055772487  0.0021133391   18.892909     -1.3268403      17.463407    
   1189000   1.8362039     -0.0012865961   1000000       -0.001266685   -0.0021724805  -0.00042062278  18.893845     -1.3367391      17.476409    
   1190000   1.8296934      0.0030417472   1000000        0.001329882    0.003920597    0.0038747624   18.880749     -1.3343696      17.470709    
   1191000   1.8338076     -0.00023654624  1000000       -0.0009028876   0.000777073   -0.00058382413  18.876918     -1.3315096      17.457847    
   1192000   1.8258387     -0.0021719983   1000000       -0.0029674225  -0.0018650606  -0.0016835118   18.853168     -1.3370237      17.451564    
   1193000   1.8034729      0.001045163    1000000       -0.0014130704   0.0013451659   0.0032033935   18.849316     -1.3246136      17.468849    
   1194000   1.8202786      0.0016979373   1000000        0.00084962854  0.0015906912   0.0026534921   18.851276     -1.3386071      17.459595    
   1195000   1.8156714     -0.0017405971   1000000       -0.0049096354   0.00014291369 -0.00045506955  18.851278     -1.3438331      17.471734    
   1196000   1.8146257     -0.00037772783  1000000       -0.00043151433  0.0013965997  -0.0020982689   18.846798     -1.3526119      17.477601    
   1197000   1.8373966     -0.00021925521  1000000       -3.485584e-05   0.00074771959 -0.0013706294   18.868366     -1.3492288      17.461631    
   1198000   1.8292858      0.00072997742  1000000        0.0016635178   0.0007275876  -0.00020117309  18.862746     -1.3480305      17.466978    
   1199000   1.8232951      0.0020240836   1000000        0.0022892321   0.0020012077   0.001781811    18.864814     -1.3569767      17.486978    
   1200000   1.827527       0.0010709004   1000000       -0.0034461371   0.0025500317   0.0041088067   18.874647     -1.3423214      17.475808    
   1201000   1.8300414      0.0024840148   1000000        0.0039028659   0.0021868546   0.0013623237   18.863373     -1.3543669      17.472809    
   1202000   1.8361369      0.0034518986   1000000        0.0030106714   0.0031747304   0.004170294    18.864142     -1.3644444      17.474512    
   1203000   1.8247625     -0.00099251626  1000000       -0.001085921   -0.0010151556  -0.00087647219  18.868111     -1.3473597      17.478458    
   1204000   1.820835      -0.0034283918   1000000       -0.0046173187  -0.0030763698  -0.0025914868   18.865371     -1.3397395      17.473988    
   1205000   1.828187       0.003227156    1000000        0.0001325324   0.0017381716   0.0078107641   18.864718     -1.341868       17.464436    
   1206000   1.8212753      0.0024628112   1000000        0.0046054725   0.00079710115  0.0019858599   18.857391     -1.3426608      17.468268    
   1207000   1.8281683      0.002409365    1000000        0.0031845363  -0.0012468344   0.0052903932   18.861193     -1.347723       17.466794    
   1208000   1.8354695      0.00057570554  1000000       -0.00035105171  0.00014652875  0.0019316396   18.857393     -1.3522856      17.456605    
   1209000   1.8253836      0.0016033829   1000000        0.0011216592  -0.00021959791  0.0039080875   18.845855     -1.3621736      17.470084    
   1210000   1.8202555      0.00012809196  1000000        0.0017397596  -0.00031553625 -0.0010399475   18.858228     -1.346245       17.47422     
   1211000   1.830961      -0.0029545108   1000000       -0.0020131517  -0.0038862021  -0.0029641788   18.861323     -1.3558179      17.47083     
   1212000   1.8308469     -9.9247777e-05  1000000        0.00020570717  0.0018540827  -0.0023575332   18.852887     -1.3632212      17.469969    
   1213000   1.8326326      0.0025610564   1000000        0.0013027421   0.0040479101   0.0023325169   18.86024      -1.3500018      17.461424    
   1214000   1.823595      -0.0023645012   1000000        0.00083609646 -0.0025624247  -0.0053671753   18.851065     -1.3549883      17.470791    
   1215000   1.8342971      0.00026004559  1000000       -0.00058240133  0.0010052437   0.00035729433  18.85947      -1.3575056      17.465661    
   1216000   1.8346093      0.0033174113   1000000        0.0038684013   0.0051051741   0.00097865868  18.848827     -1.3616576      17.458702    
   1217000   1.8414519      0.000283427    1000000       -0.0015632814  -0.00022797639  0.0026415388   18.847861     -1.3582861      17.444101    
   1218000   1.8133596     -2.5846441e-05  1000000       -0.0029738485   0.0022033375   0.00069297171  18.843206     -1.3502934      17.47359     
   1219000   1.816666      -0.0013329651   1000000       -1.0010184e-05 -0.0029745501  -0.0010143349   18.847817     -1.3495475      17.472496    
   1220000   1.8175256     -0.0005531508   1000000        0.00091313645 -0.00047607584 -0.002096513    18.843498     -1.3526858      17.470025    
   1221000   1.817078      -0.00031886036  1000000        0.0003066795  -0.00035010244 -0.00091315813  18.839475     -1.368408       17.482395    
   1222000   1.8215135      0.0016940143   1000000        0.0014650939   0.0014668004   0.0021501485   18.831739     -1.3590405      17.458639    
   1223000   1.8187374      0.0011747565   1000000        0.0018396132  -0.0017925325   0.0034771889   18.831619     -1.3542406      17.457883    
   1224000   1.8049616     -0.0015953277   1000000       -0.0015581881  -0.0026604269  -0.00056736811  18.827283     -1.3523615      17.472331    
   1225000   1.8136856     -0.00087201665  1000000       -0.0018959822  -0.00077238745  5.2319722e-05  18.82391      -1.3494218      17.452933    
   1226000   1.8288026     -0.0011165559   1000000       -0.0012190467  -0.0020636931  -6.6927944e-05  18.846945     -1.3535474      17.457419    
   1227000   1.8230085      0.00033397705  1000000       -0.0023963817  -0.00080872951  0.0042070423   18.844129     -1.3590894      17.468836    
   1228000   1.8157502      0.0004149326   1000000       -0.0012422205   0.00072240843  0.0017646099   18.839264     -1.3632885      17.479057    
   1229000   1.8255923      9.33372e-05    1000000       -0.0013402384   0.0020547532  -0.00043450313  18.846756     -1.3651247      17.473623    
   1230000   1.8430313      0.0010245041   1000000       -0.0010168131   0.00090412135  0.0031862041   18.868999     -1.365522       17.470105    
   1231000   1.8203222     -0.00096725596  1000000       -0.0002015578  -0.0021356393  -0.0005645708   18.843287     -1.3648377      17.477772    
   1232000   1.8430481      0.0012891473   1000000        0.0024155886   0.001180386    0.0002714672   18.857239     -1.3574348      17.450234    
   1233000   1.8346032      0.00031946423  1000000       -0.0018810092   0.00061433211  0.0022250698   18.850272     -1.357832       17.45633     
   1234000   1.8240439      0.0018364024   1000000        0.00064152502  0.0037517044   0.0011159776   18.844537     -1.3655282      17.47413     
   1235000   1.8277837      0.0002107766   1000000       -0.0011677769   0.0028337216  -0.0010336148   18.846525     -1.3541745      17.459155    
   1236000   1.816025       0.001358689    1000000        0.0021260324   0.0016888069   0.00026122768  18.82396      -1.3525127      17.452564    
   1237000   1.8084974      0.0010457179   1000000        0.00011024738  0.0030937746  -6.686817e-05   18.813516     -1.3575753      17.458474    
   1238000   1.8075703      0.00059004484  1000000        0.0037000202  -0.0034106759   0.0014807902   18.81293      -1.3645875      17.466291    
   1239000   1.8204152      0.00018937441  1000000       -0.0029876552   0.0017731175   0.0017826609   18.809887     -1.3632049      17.442599    
   1240000   1.8051541      0.0023014095   1000000       -0.00057824526  0.004736234    0.0027462397   18.804986     -1.3613203      17.458704    
   1241000   1.8151918     -0.00037038306  1000000        9.6945032e-05  0.0012831805  -0.0024912747   18.799649     -1.3760286      17.453019    
   1242000   1.8045948     -0.0040779334   1000000       -0.0047802124  -0.002190675   -0.0052629127   18.794729     -1.3740514      17.462017    
   1243000   1.8125926     -0.0017172373   1000000       -0.0022842488  -0.0034966118   0.00062914892  18.796489     -1.3742596      17.45199     
   1244000   1.812656      -0.00030810712  1000000        0.00018432159  0.0014428034  -0.0025514464   18.786653     -1.3807057      17.448504    
   1245000   1.8048967      0.00037372359  1000000        0.00013554264  0.00065080212  0.00033482602  18.786488     -1.3819193      17.461191    
   1246000   1.8218153     -0.00023761723  1000000       -0.0035422457  -9.4156723e-05  0.0029235507   18.799303     -1.3826414      17.449352    
   1247000   1.7967742     -0.0030896703   1000000       -0.0042852285  -0.0013694694  -0.0036143129   18.784575     -1.3793915      17.468934    
   1248000   1.8188357      5.3083517e-05  1000000       -0.002272484    0.0021490006   0.00028273387  18.811853     -1.3776756      17.461405    
   1249000   1.8092502      0.0057181481   1000000        0.0037912506   0.0065740159   0.0067891779   18.798771     -1.3707527      17.455778    
   1250000   1.8137183      0.0020920889   1000000        0.0018676571   0.0048369373  -0.00042832788  18.795387     -1.3795894      17.454528    
   1251000   1.8201857     -0.00073037661  1000000       -0.0020514459  -0.00020811281  6.8428854e-05  18.800793     -1.3835745      17.454219    
   1252000   1.8118372      0.0025478162   1000000        0.0041666252   0.0019938127   0.0014830107   18.808635     -1.3740654      17.465074    
   1253000   1.8098826      0.0042981553   1000000        0.0017800682   0.0047839449   0.006330453    18.790125     -1.3766163      17.452046    
   1254000   1.8257565      0.0039483573   1000000        0.0012414442   0.0042348305   0.0063687973   18.801604     -1.3791948      17.442295    
   1255000   1.8030337      1.3179053e-05  1000000       -0.00029042849 -0.0013074584   0.001637424    18.780779     -1.3777316      17.454089    
   1256000   1.8065578     -0.00013844353  1000000        0.00093182953 -0.0028007282   0.0014535681   18.787053     -1.3764216      17.453767    
   1257000   1.8178492      0.0009274541   1000000        0.0026710563   0.0014321357  -0.0013208297   18.797409     -1.3795652      17.45033     
   1258000   1.8188416      0.004228032    1000000        0.0033954648   0.0039136701   0.0053749611   18.799014     -1.3720412      17.442923    
   1259000   1.8094171     -0.0013639164   1000000        0.00023314824 -0.0025779768  -0.0017469207   18.789304     -1.3619246      17.437232    
   1260000   1.8029667     -0.001239068    1000000       -0.0028725318  -0.00040066359 -0.00044400873  18.789932     -1.3728755      17.458486    
   1261000   1.803435       0.0016451872   1000000        0.0020632719   0.00061244132  0.0022598482   18.785694     -1.3805614      17.461231    
   1262000   1.8128237     -0.0022939744   1000000       -0.0020434229  -0.0033642166  -0.0014742837   18.796466     -1.383155       17.460515    
   1263000   1.8104673     -0.0016221731   1000000       -0.0022535523   0.0012238155  -0.0038367825   18.806939     -1.3824618      17.473829    
   1264000   1.8169016      0.0016906464   1000000       -0.000622582    0.0026069971   0.0030875241   18.801444     -1.3758333      17.452055    
   1265000   1.8280066      0.00070779104  1000000       -0.00034157718  0.0016588922   0.00080605806  18.79928      -1.3843416      17.441742    
   1266000   1.8091049      0.0021844457   1000000        0.0012672909   0.0034619038   0.0018241425   18.78211      -1.3776982      17.44628     
   1267000   1.8063367     -0.0013393649   1000000       -0.0022127638  -0.0028592128   0.0010538818   18.790279     -1.3734672      17.45437     
   1268000   1.8112686     -0.0014459961   1000000       -0.0026610523  -0.0011779886  -0.00049894733  18.784991     -1.3802315      17.448449    
   1269000   1.820229      -0.00087261926  1000000        0.0009654518  -0.0012493686  -0.002333941    18.799048     -1.3770816      17.445916    
   1270000   1.8191541     -0.00017175157  1000000        0.00022124351 -0.0011666702   0.00043017194  18.814437     -1.3823012      17.468137    
   1271000   1.8095246     -0.00011001568  1000000       -0.0013713332   0.00076031061  0.00028097553  18.804411     -1.3839007      17.474154    
   1272000   1.8069405     -0.0014060234   1000000       -0.0016864927  -0.0021373211  -0.00039425628  18.793775     -1.3869882      17.470481    
   1273000   1.8133282      0.0014696102   1000000       -0.0013927138   0.00086436309  0.0049371811   18.7973       -1.3953718      17.472809    
   1274000   1.8169989     -6.9426016e-05  1000000       -0.0002985646   0.00052177305 -0.00043148649  18.808907     -1.3885098      17.472048    
   1275000   1.818781       0.00039924553  1000000        0.0021471823   0.0020633357  -0.0030127814   18.801073     -1.3784926      17.451524    
   1276000   1.8126573      0.00030496956  1000000        0.00096587451 -0.0027428417   0.0026918759   18.803956     -1.3823884      17.467487    
   1277000   1.8181219     -0.0028061183   1000000       -0.0017846271  -0.0048717719  -0.0017619558   18.805543     -1.378245       17.456735    
   1278000   1.821948       0.0019854645   1000000        0.00090796033  0.0020833922   0.0029650412   18.806391     -1.3807725      17.454372    
   1279000   1.8147324      0.00096056863  1000000       -0.0015338607   0.0015838419   0.0028317247   18.795947     -1.3882012      17.462179    
   1280000   1.8071604     -0.00053447546  1000000       -2.6525302e-05 -0.0015499877  -2.6913347e-05  18.799498     -1.3807995      17.469686    
   1281000   1.8127428     -0.00066419695  1000000       -5.8738385e-05 -0.001457414   -0.00047643841  18.785622     -1.3790062      17.445644    
   1282000   1.8093132      0.0014457317   1000000        0.0021787109   0.0010729075   0.0010855769   18.791747     -1.3817094      17.459616    
   1283000   1.8146723      0.0010825467   1000000        0.0026053492  -0.0023958083   0.0030380991   18.790996     -1.3812329      17.45035     
   1284000   1.8214044      0.0011350299   1000000        0.0019325423   0.00063737368  0.00083517373  18.786912     -1.3869032      17.441839    
   1285000   1.818404      -0.00055486158  1000000       -0.0010992878   4.3803696e-05 -0.0006091006   18.797495     -1.3805965      17.450616    
   1286000   1.8062866     -0.0010792466   1000000       -0.003166344   -0.00084238304  0.00077098709  18.789908     -1.3756256      17.456233    
   1287000   1.8202491     -0.0011492275   1000000       -0.0038087246   4.2441025e-05  0.00031860098  18.80166      -1.3712552      17.442672    
   1288000   1.8166435      0.0020644158   1000000        0.00013262661  0.0033243557   0.0027362652   18.804824     -1.3770313      17.457019    
   1289000   1.8201079      0.00065960202  1000000        0.0012011212   0.0016075375  -0.00082985267  18.804258     -1.3744768      17.448703    
   1290000   1.8245972     -0.00063778912  1000000        0.00099536536 -0.00076973394 -0.0021389988   18.830193     -1.3754603      17.468888    
   1291000   1.8061233     -0.0028096999   1000000       -0.0030767206  -0.0011143434  -0.0042380359   18.824261     -1.3701657      17.485371    
   1292000   1.8128597     -0.0012565169   1000000       -0.0035137521  -0.0012770921   0.0010212936   18.816917     -1.3704341      17.468191    
   1293000   1.8380688      0.00051460505  1000000        0.00067276647  0.0011326876  -0.00026163889  18.84355      -1.3727521      17.45933     
   1294000   1.8268197      0.00022630609  1000000       -0.00089637832  0.00059089968  0.00098439693  18.848055     -1.3713089      17.479264    
   1295000   1.8416054      0.00059674427  1000000        0.002838126    0.00039693838 -0.0014448316   18.856725     -1.3724312      17.46688     
   1296000   1.8063293     -0.0021832531   1000000       -0.0057951711  -0.00038557325 -0.00036901503  18.823848     -1.3777667      17.49225     
   1297000   1.8253299      0.0030120146   1000000        0.0029570098   0.0018845399   0.0041944941   18.829946     -1.3695279      17.46161     
   1298000   1.832811      -0.00050299132  1000000       -0.001534637   -0.0026976895   0.0027233525   18.836373     -1.37758        17.464868    
   1299000   1.834486       0.0013629698   1000000        0.0035608945  -0.0013293296   0.0018573446   18.824802     -1.3866755      17.459879    
   1300000   1.8143433     -0.0011674093   1000000        0.0004457856  -0.0015660661  -0.0023819474   18.806376     -1.3766308      17.461621    
   1301000   1.8051944     -0.0012175342   1000000       -0.00038144756 -0.0015445102  -0.0017266447   18.798358     -1.3806109      17.471306    
   1302000   1.8071234     -0.0021240267   1000000       -0.0019110096  -0.0030236912  -0.0014373792   18.803562     -1.3843092      17.477316    
   1303000   1.8248571     -0.0011464125   1000000       -0.0049955039   0.0025227409  -0.00096647459  18.818384     -1.3795696      17.460798    
   1304000   1.8188584     -0.0023467437   1000000       -0.0026065586  -0.001547269   -0.0028864035   18.81478      -1.385661       17.472283    
   1305000   1.8425199      0.0012899787   1000000        0.0018583718  -0.0010620072   0.0030735715   18.823781     -1.39569        17.455823    
   1306000   1.8164099     -0.0023949347   1000000       -0.0032038266  -0.0013723853  -0.0026085923   18.803338     -1.3916818      17.470535    
   1307000   1.8250513      0.002118808    1000000        0.0051369922   0.0023288625  -0.0011094307   18.805733     -1.3931584      17.461445    
   1308000   1.8182958      0.00050252234  1000000        0.0016217081  -0.0010198545   0.00090571334  18.815315     -1.3849731      17.472975    
   1309000   1.8221645     -0.0027572718   1000000       -0.0034096512  -0.0049378363   7.5672042e-05  18.817611     -1.3920939      17.476588    
   1310000   1.8189991      0.0016184773   1000000       -0.00062273316  0.0033450689   0.002133096    18.816063     -1.3897018      17.477396    
   1311000   1.8148667     -0.00048213474  1000000       -0.00091293546 -0.00015929412 -0.00037417465  18.816098     -1.3818363      17.475764    
   1312000   1.8157576     -0.0027576697   1000000       -0.0012308053  -0.0028459747  -0.004196229    18.821474     -1.3744915      17.472459    
   1313000   1.83555       -0.00029322746  1000000       -0.002418224   -2.4671505e-05  0.0015632132   18.815294     -1.3819663      17.444066    
   1314000   1.8275652     -0.0013573406   1000000       -0.0017967165   0.00070871318 -0.0029840186   18.815877     -1.3827514      17.457411    
   1315000   1.8325166      0.0019827916   1000000        0.0025419978   0.0027603874   0.0006459896   18.827864     -1.3872532      17.466473    
   1316000   1.8301182      0.0019341281   1000000        0.0028238586   0.0018400429   0.0011384827   18.819035     -1.3937601      17.467749    
   1317000   1.830702       0.00016454859  1000000        0.002555127   -8.4283069e-05 -0.0019771982   18.814257     -1.4010651      17.4694      
   1318000   1.844428       0.00087893209  1000000       -0.00043331431  0.00025073781  0.0028193728   18.824046     -1.3967231      17.454259    
   1319000   1.8279855      0.0014053387   1000000        0.0015522755   0.0030650762  -0.00040133556  18.819659     -1.3926007      17.470412    
   1320000   1.8339428     -7.5365237e-06  1000000        0.0014185303   0.00027247906 -0.0017136189   18.817852     -1.4004089      17.467478    
   1321000   1.8165017      0.00179473     1000000        0.0025535665   0.0016057813   0.0012248422   18.801073     -1.3936043      17.470055    
   1322000   1.8144527     -0.0020613354   1000000       -0.0013565338  -0.0016903541  -0.0031371182   18.788168     -1.3939486      17.460567    
   1323000   1.8255867      0.001747711    1000000        0.0012080677   0.0024427885   0.0015922767   18.799133     -1.397964       17.458848    
   1324000   1.8212131      0.0026064685   1000000        0.0021275248   0.0016861349   0.0040057458   18.788584     -1.3980949      17.454989    
   1325000   1.8188346     -0.00022671035  1000000       -0.0011077009   0.0021362868  -0.001708717    18.793167     -1.3958578      17.460903    
   1326000   1.8180064     -0.00013688991  1000000       -0.00052732582  0.0006441954  -0.0005275393   18.785551     -1.3888571      17.447529    
   1327000   1.8134338     -0.00059719356  1000000       -0.00093198891  0.00064596128 -0.0015055531   18.796218     -1.3839777      17.460174    
   1328000   1.8097353     -0.0018957923   1000000       -6.1747615e-05 -0.0046650523  -0.00096057712  18.80578      -1.3761983      17.467504    
   1329000   1.8173453     -0.001532234    1000000       -0.0015935212  -0.0019703254  -0.0010328554   18.79492      -1.3776055      17.446637    
   1330000   1.8066139     -0.00054158414  1000000        0.0028855512  -0.0021174103  -0.0023928933   18.782166     -1.3831898      17.455565    
   1331000   1.8043802     -0.0020677576   1000000       -0.0012099088  -0.0026259914  -0.0023673726   18.783431     -1.3892551      17.466245    
   1332000   1.8090135      0.00063407369  1000000        0.00086274001  0.0010773279  -3.7846862e-05  18.781559     -1.3901875      17.458355    
   1333000   1.8026336      0.00070790533  1000000       -0.00030336392  0.00046061686  0.0019664631   18.773355     -1.3870111      17.456544    
   1334000   1.8120823     -0.0014991309   1000000       -0.0015864087  -0.00065368898 -0.0022572949   18.778533     -1.3936944      17.454234    
   1335000   1.7935996      0.00026649069  1000000        0.00144838     0.00028666531 -0.00093557321  18.759113     -1.3927554      17.461597    
   1336000   1.8177474     -0.00013932539  1000000       -0.00064402989  0.00093720481 -0.0007111511   18.764637     -1.3991334      17.437279    
   1337000   1.8059001      0.0040560865   1000000        0.0056358185   0.0038206772   0.0027117637   18.781039     -1.3948745      17.467193    
   1338000   1.8221744      0.0026043843   1000000        0.0040619515   0.0002220762   0.0035291251   18.788495     -1.3920575      17.447421    
   1339000   1.8143039      0.00072061353  1000000        0.0019366267   0.0013255416  -0.0011003277   18.784487     -1.4043698      17.467531    
   1340000   1.8104017      0.00039871846  1000000       -0.0014154757   0.0012348573   0.0013767738   18.789703     -1.3875625      17.461793    
   1341000   1.8187719     -0.0011761873   1000000        0.0020062463  -0.0028814707  -0.0026533376   18.796091     -1.3870897      17.455152    
   1342000   1.8148499      0.0055250143   1000000        0.0046589337   0.0050630355   0.0068530737   18.806828     -1.3788191      17.463502    
   1343000   1.8191711      0.0016355269   1000000        0.0017580579   0.0004430403   0.0027054825   18.807892     -1.3824885      17.461753    
   1344000   1.8161367     -0.0011892037   1000000       -8.5072269e-05 -0.0025786879  -0.00090385102  18.808352     -1.380974       17.465251    
   1345000   1.8254627     -5.9086761e-05  1000000       -0.0025524203  -0.0011973916   0.0035725516   18.810702     -1.3832019      17.45584     
   1346000   1.8150655      0.0028721661   1000000        0.0017570743   0.0025908913   0.0042685328   18.800107     -1.3767603      17.454399    
   1347000   1.8178499      0.0010094353   1000000        0.00022515633  0.00051605701  0.0022870924   18.79371      -1.3791319      17.446197    
   1348000   1.8160225      0.00057705003  1000000        0.00016687201  3.0859974e-05  0.0015334181   18.802921     -1.3758428      17.45486     
   1349000   1.8075983      0.0020051076   1000000        0.0028301003   0.0026255264   0.00055969603  18.791964     -1.373113       17.453808    
   1350000   1.8115319      0.00022483107  1000000        0.0026194055  -0.00092366911 -0.0010212432   18.798645     -1.3766936      17.45817     
   1351000   1.8141797     -0.00087815534  1000000        0.0010101411  -0.00048254662 -0.0031620605   18.807157     -1.377343       17.46336     
   1352000   1.8137051     -0.00053530693  1000000       -0.00029171584 -0.00063625329 -0.00067795167  18.798207     -1.3773838      17.455163    
   1353000   1.8147598      0.0019018387   1000000        0.0015024819   0.0019467079   0.0022563264   18.805878     -1.3763468      17.460214    
   1354000   1.8191654      0.0020620157   1000000        0.0049305628   0.00095075087  0.00030473349  18.796093     -1.3834535      17.450928    
   1355000   1.80701        0.00051724927  1000000       -0.00021145029  0.0042982412  -0.0025350431   18.789879     -1.3844197      17.463912    
   1356000   1.8014648     -0.00011531264  1000000        0.00037782845  0.00040775645 -0.0011315228   18.783088     -1.3841647      17.465184    
   1357000   1.8002292     -0.0006980199   1000000       -0.0017293028  -7.1828544e-05 -0.00029292836  18.773021     -1.3874835      17.460289    
   1358000   1.8045996      0.00082412596  1000000        0.000619426   -0.00087238101  0.0027253329   18.796874     -1.380277       17.47038     
   1359000   1.8053581      0.00048545288  1000000        0.0020036606  -0.0016831074   0.0011358054   18.803174     -1.3803602      17.475626    
   1360000   1.8135035      0.0010754648   1000000        0.00080486499  0.0013204212   0.0011011083   18.806156     -1.3795205      17.465551    
   1361000   1.812352      -0.0022530578   1000000       -0.001722889   -4.7237568e-05 -0.0049890468   18.803683     -1.3872376      17.472522    
   1362000   1.8180122     -0.0034614005   1000000       -0.0056752697  -0.0021479369  -0.0025609948   18.802172     -1.3894991      17.464783    
   1363000   1.8168891     -0.0021135731   1000000       -0.00075232026 -0.0022081439  -0.0033802552   18.801591     -1.3914416      17.467829    
   1364000   1.8172501      0.002954778    1000000        0.0043480618   0.00023486955  0.0042814028   18.800088     -1.3894621      17.463805    
   1365000   1.8233521      4.1827912e-05  1000000        0.00026227684 -0.00034670088  0.00020990777  18.811885     -1.3813768      17.458364    
   1366000   1.8320127     -0.0019754052   1000000       -0.0067495826  -0.00018779963  0.0010111668   18.804072     -1.3913805      17.447564    
   1367000   1.8323176      0.00014211352  1000000        0.0017522233  -0.00013585449 -0.0011900283   18.816194     -1.3968295      17.464678    
   1368000   1.8225719      0.0023009981   1000000        0.0039648323   0.00053050434  0.0024076578   18.804128     -1.3945381      17.464939    
   1369000   1.8269788      0.00078221111  1000000       -0.00033226055  0.00096830153  0.0017105924   18.817163     -1.3959814      17.472807    
   1370000   1.831877      -0.00010240547  1000000       -0.00027086776  0.00093007447 -0.00096642311  18.815647     -1.3946134      17.462576    
   1371000   1.8199941     -0.0031425277   1000000       -0.0030324631  -0.0020450882  -0.0043500318   18.802863     -1.3948642      17.467866    
   1372000   1.8163691     -0.0040205005   1000000       -0.0044255953  -0.0040489978  -0.0035869084   18.805093     -1.3910469      17.471716    
   1373000   1.8267237     -0.0015372271   1000000       -0.0016626883  -0.0013233164  -0.0016256767   18.814969     -1.3867031      17.461717    
   1374000   1.8288226      0.0015644669   1000000        0.0024702891   0.00024182109  0.0019812906   18.808643     -1.3935802      17.45912     
   1375000   1.830791       0.0014532521   1000000        0.00065700213  0.0016668507   0.0020359035   18.814694     -1.3898324      17.45847     
   1376000   1.8386426     -0.0023326782   1000000       -0.0032594654  -0.0019771314  -0.0017614377   18.80963      -1.404332       17.456129    
   1377000   1.8418159      0.0012603539   1000000        0.001867922    0.00095789199  0.00095524762  18.8062       -1.4047357      17.448343    
   1378000   1.8229151     -0.0014033537   1000000       -0.0019167691  -0.0029469489   0.00065365696  18.780218     -1.4073687      17.453344    
   1379000   1.8299176      0.00077463151  1000000       -0.00019393979  0.00091959497  0.0015982393   18.790588     -1.4068158      17.452658    
   1380000   1.8230334      0.0019394342   1000000       -0.00095714614  0.0012160715   0.0055593772   18.799085     -1.3885513      17.453216    
   1381000   1.8187591     -0.0016947331   1000000       -0.0014646413  -0.0027460346  -0.00087352348  18.799147     -1.3924956      17.463634    
   1382000   1.8248733     -0.0039028616   1000000       -0.0019353539  -0.0056516416  -0.0041215894   18.808299     -1.3834478      17.454567    
   1383000   1.8152301      0.0018036724   1000000       -9.3970221e-05  0.0027080048   0.0027969825   18.803403     -1.3862797      17.466967    
   1384000   1.82216        0.0017978169   1000000        0.00070663743  0.0023114321   0.002375381    18.806609     -1.3790982      17.452597    
   1385000   1.8258605      0.00075951477  1000000       -0.0036924077   0.0035168007   0.0024541513   18.801477     -1.3787514      17.441568    
   1386000   1.8177943      0.0022612555   1000000        0.0022832045   0.0014725312   0.0030280308   18.799387     -1.3817465      17.454572    
   1387000   1.815867       0.00010894744  1000000        0.0027540509  -0.0017802981  -0.0006469105   18.798546     -1.3873699      17.462245    
   1388000   1.81082       -0.00088712317  1000000       -0.0013614886  -0.0030469185   0.0017470376   18.789369     -1.3792226      17.452491    
   1389000   1.8085977     -0.0034083407   1000000       -0.0046898912  -0.0031767478  -0.0023583829   18.786686     -1.3866782      17.460597    
   1390000   1.8106371     -0.0015155615   1000000       -0.00056895486 -0.0024438292  -0.0015339004   18.792492     -1.3913851      17.468051    
   1391000   1.8167231      0.00038028653  1000000        0.0018076674   0.0001078475  -0.00077465531  18.785046     -1.3874611      17.447553    
   1392000   1.8119082      0.00085045059  1000000       -0.0008058525   0.001690196    0.0016670083   18.793233     -1.3835072      17.459007    
   1393000   1.8199957     -0.001252647    1000000        0.00092639631 -0.0018515824  -0.0028327549   18.800207     -1.3869081      17.457251    
   1394000   1.8157393      0.00070513221  1000000        0.0034665011   0.001113338   -0.0024644425   18.791534     -1.3837352      17.45179     
   1395000   1.8164572     -0.00053203759  1000000       -0.0022100184   0.00093905115 -0.00032514554  18.784294     -1.3974051      17.457143    
   1396000   1.8243494     -0.0024823582   1000000       -0.0047809297  -0.0019906397  -0.00067550526  18.797083     -1.3955792      17.456269    
   1397000   1.8232156      0.0012082462   1000000        0.00069013446  0.0025968638   0.00033774045  18.79471      -1.3955083      17.455525    
   1398000   1.8248277      0.0019086422   1000000        0.0013498239   0.0023915924   0.0019845103   18.794584     -1.4027419      17.460215    
   1399000   1.8302477      0.0034386453   1000000        0.002004175    0.004054018    0.0042577427   18.784278     -1.4100126      17.44905     
   1400000   1.8169601     -0.00020065189  1000000        0.00046067052 -0.00085240269 -0.00021022352  18.770311     -1.4005932      17.445594    
   1401000   1.819213       0.0010749653   1000000        0.00025804386  0.00037764539  0.0025892067   18.777603     -1.3934688      17.442382    
   1402000   1.8069353      0.00059926349  1000000        0.0028369161  -0.0019281308   0.00088900521  18.781918     -1.3885943      17.460238    
   1403000   1.8121746      0.00023228     1000000        0.00083055351 -0.00097807924  0.00084436573  18.789817     -1.391198       17.462882    
   1404000   1.8133201     -0.0013677757   1000000       -0.0022309653   0.00014323183 -0.0020155935   18.787242     -1.3943964      17.461787    
   1405000   1.8255709      0.0026559701   1000000        0.0036470672   0.00035556805  0.0039652751   18.793471     -1.3944788      17.449724    
   1406000   1.8349534      0.0016555374   1000000        0.0029642033   0.0010952001   0.0009072088   18.796928     -1.3856575      17.430287    
   1407000   1.8242236     -0.0010684037   1000000        0.00060672226 -0.0016864075  -0.0021255257   18.797068     -1.3850299      17.445893    
   1408000   1.8101764      0.0010165468   1000000        0.0030244374  -0.0022832309   0.0023084337   18.787911     -1.3817125      17.454488    
   1409000   1.815795       0.0019524034   1000000        0.0036343258   4.7600553e-05  0.002175284    18.799601     -1.389609       17.465647    
   1410000   1.8205154      0.00098170992  1000000       -0.00034374321  0.0027460302   0.0005428428   18.806137     -1.3949887      17.470483    
   1411000   1.8322276      0.0027683701   1000000        0.0016209263   0.0025066889   0.004177495    18.808831     -1.3884471      17.449068    
   1412000   1.8042657      0.0019301653   1000000        0.0017329491   0.0035374387   0.00052010811  18.801232     -1.3809819      17.475944    
   1413000   1.8131365     -0.0048941298   1000000       -0.0025615618  -0.0047097188  -0.007411109    18.814671     -1.3803497      17.475446    
   1414000   1.8166766     -0.0033639737   1000000       -0.0029189005  -0.0043327172  -0.0028403035   18.821595     -1.3830594      17.479769    
   1415000   1.8173375     -0.001740052    1000000       -0.002251325    0.0016175467  -0.0045863777   18.823035     -1.3861975      17.483356    
   1416000   1.8254198      0.00028043667  1000000        3.7350475e-05  0.00050593188  0.00029802767  18.82383      -1.3924837      17.478315    
   1417000   1.8239563      0.00021911676  1000000        0.0022882969  -0.0020518676   0.00042092098  18.826229     -1.3980635      17.488489    
   1418000   1.8244158     -0.0020554717   1000000       -0.0037761251  -0.001433108   -0.00095718191  18.817877     -1.3931142      17.474498    
   1419000   1.8379538     -0.0027678099   1000000       -0.0045887916  -0.0021835853  -0.0015310529   18.825887     -1.3950487      17.464136    
   1420000   1.8176502     -0.0023602889   1000000       -0.0048668386  -0.0041387821   0.0019247541   18.82392      -1.3885882      17.486163    
   1421000   1.8191209     -0.0023898706   1000000       -0.0011276949  -0.00438345    -0.001658467    18.816407     -1.3894287      17.477284    
   1422000   1.8306453      0.00064965236  1000000       -0.00075890582  0.0015704238   0.0011374391   18.832712     -1.388171       17.475046    
   1423000   1.8353458      0.0017635028   1000000       -0.00073913583  0.0058065239   0.00022312022  18.834028     -1.3957975      17.476938    
   1424000   1.8164366      0.0041608199   1000000        0.0046848259   0.0036542419   0.0041433919   18.823011     -1.3855342      17.48402     
   1425000   1.8229762      0.00098394311  1000000        0.0014981774  -0.0015759592   0.0030296111   18.814893     -1.3926504      17.473209    
   1426000   1.8279858     -0.0022302203   1000000        0.00048100114 -0.0037741003  -0.0033975617   18.814235     -1.3968993      17.469287    
   1427000   1.8232669      0.0034262583   1000000        0.0050257476   0.0028208414   0.0024321858   18.804364     -1.3946234      17.464217    
   1428000   1.8188672     -0.00028833284  1000000        0.0010757272   5.9899742e-06 -0.0019467157   18.802811     -1.4042097      17.478849    
   1429000   1.8200182     -0.00016908164  1000000        0.0011346631  -4.04163e-05   -0.0016014917   18.797545     -1.4018192      17.469466    
   1430000   1.8230617      0.0023516403   1000000        0.00062730064  0.0019499022   0.004477718    18.79746      -1.3943062      17.457304    
   1431000   1.8228367     -0.00019891047  1000000        6.8633338e-06  0.0014691878  -0.0020727826   18.796564     -1.3989457      17.461384    
   1432000   1.8150469      0.0013024613   1000000        0.0044808803  -0.0012219247   0.00064842823  18.790617     -1.3950607      17.463237    
   1433000   1.8167691     -0.0015575899   1000000       -5.1174328e-05 -0.0018119058  -0.0028096895   18.793463     -1.3985732      17.467012    
   1434000   1.8247579     -0.004666907    1000000       -0.00093175235 -0.0077928153  -0.0052761534   18.801875     -1.3986012      17.46347     
   1435000   1.812355       0.00061111355  1000000        0.00026080028  0.00019510627  0.0013774341   18.789921     -1.3997975      17.471316    
   1436000   1.8287022      0.00017517979  1000000        0.00095729246 -0.001343515    0.00091176189  18.800192     -1.4070274      17.464297    
   1437000   1.8171568     -0.00019060739  1000000        0.0024705974  -0.0018196028  -0.0012228167   18.79682      -1.4022088      17.473423    
   1438000   1.8149997     -0.0015694007   1000000       -0.00099256113 -0.0035939667  -0.00012167423  18.802008     -1.4012804      17.480918    
   1439000   1.818197      -0.0038114996   1000000       -0.0017920367  -0.0033225471  -0.0063199151   18.812257     -1.3994844      17.484576    
   1440000   1.8268102     -0.0013819448   1000000       -0.0014444546  -0.0011087387  -0.0015926412   18.815262     -1.3911861      17.466364    
   1441000   1.8120283     -0.00055023451  1000000       -0.0019622692   0.00089631313 -0.00058474747  18.813968     -1.3966719      17.492727    
   1442000   1.8224367     -0.00057404112  1000000       -0.0008001212   0.0005511706  -0.0014731727   18.811919     -1.3931805      17.471575    
   1443000   1.8261033      5.6673156e-07  1000000       -0.0014909367   0.0023579566  -0.00086531977  18.81253      -1.3981396      17.471645    
   1444000   1.8274226      0.0015375322   1000000        0.0029203303   0.0024810814  -0.00078881497  18.805073     -1.4068483      17.470918    
   1445000   1.8260754      0.0024335342   1000000        0.0057700009   0.0012633166   0.00026728497  18.801021     -1.4157186      17.477757    
   1446000   1.81466        0.00082955163  1000000        0.00030499664  0.00050221945  0.0016814388   18.803819     -1.4002755      17.482234    
   1447000   1.8077462     -0.00039655795  1000000       -0.000735324   -0.0023282189   0.0018738691   18.793144     -1.400819       17.482473    
   1448000   1.8039619      0.0014288039   1000000        0.0029072327   0.0011078054   0.00027137357  18.794983     -1.3916115      17.480781    
   1449000   1.8052166     -0.00087465937  1000000        0.0012929178   0.00057264354 -0.0044895394   18.787227     -1.3908925      17.470424    
   1450000   1.8175076      0.0015327069   1000000        0.0017522461   0.0020659892   0.00077988542  18.797878     -1.4021949      17.473942    
   1451000   1.8244047      0.00035237222  1000000       -0.0023926505   0.00080167548  0.0026480917   18.797769     -1.3999773      17.46127     
   1452000   1.824339       0.0017774219   1000000        0.00068879462  0.0065440377  -0.0019005666   18.782405     -1.4086168      17.454644    
   1453000   1.8231322     -0.00051703211  1000000       -0.0012102221   0.0010699443  -0.0014108185   18.779868     -1.404508       17.449808    
   1454000   1.8189302      0.00061212075  1000000        0.001623858   -0.0022875644   0.0025000687   18.780499     -1.4143574      17.466591    
   1455000   1.8206805      0.0042080842   1000000        0.0055971435   0.0034877845   0.0035393246   18.792948     -1.4080675      17.470125    
   1456000   1.8232559     -0.0018550914   1000000       -0.0023933405  -0.0016487344  -0.0015231992   18.795343     -1.4119751      17.472565    
   1457000   1.8084171     -0.0044029051   1000000       -0.0050766939  -0.003574233   -0.0045577884   18.77446      -1.4118492      17.473812    
   1458000   1.8181369     -0.00097742807  1000000        0.0017118686  -0.0032924715  -0.0013516814   18.768547     -1.417736       17.459208    
   1459000   1.82234        0.00038584204  1000000        0.0019418413  -0.0018134633   0.0010291482   18.759582     -1.4232068      17.449409    
   1460000   1.8152782     -0.0020976987   1000000       -0.0047806334   0.00025758512 -0.0017700477   18.758543     -1.4210943      17.45685     
   1461000   1.8230027     -0.00058266083  1000000       -0.0012543295  -0.0011058754   0.00061222238  18.766736     -1.4265158      17.458878    
   1462000   1.8102746     -0.0022314347   1000000       -0.0013673087  -0.0017948497  -0.0035321458   18.759377     -1.4253261      17.469421    
   1463000   1.8109392     -0.0038883713   1000000       -0.0048351269  -0.0047543194  -0.0020756676   18.751034     -1.4244613      17.459216    
   1464000   1.8074054     -0.0025560401   1000000       -0.0033729538  -0.00080617541 -0.0034889909   18.756503     -1.4214651      17.466989    
   1465000   1.8199095     -0.0021492559   1000000       -0.0021710725  -0.0049312997   0.0006546044   18.76598      -1.4332875      17.469533    
   1466000   1.8394501      0.0011799302   1000000       -0.00064497491  0.0039313199   0.00025344569  18.789217     -1.4305758      17.460749    
   1467000   1.83624        0.004673855    1000000        0.008518438    0.0024192344   0.0030838926   18.794524     -1.4306936      17.470989    
   1468000   1.8272553      0.00096354929  1000000        0.0015125569  -0.00031157997  0.0016896709   18.776727     -1.4210826      17.457057    
   1469000   1.8191752     -0.00027715897  1000000        0.0013790375  -0.0036283754   0.0014178609   18.765663     -1.4252385      17.462269    
   1470000   1.8116995     -0.003567467    1000000       -0.0019755712  -0.0034320458  -0.0052947841   18.78009      -1.408752       17.471422    
   1471000   1.8113065     -0.0031617756   1000000       -0.0027471516  -0.0027340674  -0.0040041078   18.779955     -1.4050042      17.468129    
   1472000   1.8045459      0.003758655    1000000        0.0026585029   0.0039095884   0.0047078737   18.748701     -1.4111369      17.453148    
   1473000   1.8116397     -0.00016028097  1000000        7.6037144e-05 -0.0012936506   0.00073677051  18.755138     -1.4259724      17.46378     
   1474000   1.8088504     -0.0029279148   1000000        6.0515202e-05 -0.0047631875  -0.004081072    18.745669     -1.4228691      17.455392    
   1475000   1.8149363      0.0010588102   1000000        0.00071495777  0.00044858741  0.0020128853   18.757375     -1.420408       17.455508    
   1476000   1.8068631      0.0020988247   1000000        0.0025074866   0.0044159304  -0.00062694271  18.749352     -1.4170833      17.45627     
   1477000   1.8235994      0.002642059    1000000        0.0026888338   0.0021385658   0.0030987775   18.762305     -1.4210582      17.448095    
   1478000   1.8196578     -5.6432943e-05  1000000        0.0019900298  -0.0025147151   0.00035538644  18.759075     -1.4280058      17.457724    
   1479000   1.8137754     -0.00042888042  1000000       -0.0012159376   0.0016590009  -0.0017297046   18.751644     -1.4271238      17.458234    
   1480000   1.8162068      0.00084581179  1000000       -0.0021044956   0.0023960009   0.00224593     18.765254     -1.417439       17.458512    
   1481000   1.8260749     -0.0013173445   1000000       -0.001842926    0.0018331879  -0.0039422955   18.770431     -1.4269611      17.45841     
   1482000   1.832693      -0.00039963622  1000000        0.00048884828 -0.0026563788   0.00096862186  18.781315     -1.4307265      17.463133    
   1483000   1.824738      -0.00043155785  1000000        0.0018657471  -0.0024821195  -0.0006783012   18.777336     -1.4226104      17.46297     
   1484000   1.8136698     -9.4190424e-05  1000000        0.0022584482  -0.0028921057   0.00035108616  18.771419     -1.4036322      17.454676    
   1485000   1.8058621     -0.00059368798  1000000       -0.00073129241 -0.0015790256   0.00052925407  18.77247      -1.3991224      17.462928    
   1486000   1.8280585     -0.0028774836   1000000       -0.0026027438  -0.0027484298  -0.0032812771   18.805261     -1.4036042      17.466908    
   1487000   1.8266693      0.00031795638  1000000        0.0016170659  -0.0007741194   0.00011092265  18.80022      -1.4079877      17.468334    
   1488000   1.8176327      0.0010962326   1000000        0.00085329145  0.00069184204  0.0017435642   18.800485     -1.3937857      17.467951    
   1489000   1.8192129     -0.0016553922   1000000       -0.0015038807   0.0010108969  -0.0044731929   18.789306     -1.4040651      17.464682    
   1490000   1.8247325     -0.0047632323   1000000       -0.005154852   -0.0058163343  -0.0033185107   18.781415     -1.415076       17.459522    
   1491000   1.8211768      0.00059816278  1000000        0.0010134915   0.00026342981  0.00051756703  18.791003     -1.4173392      17.476707    
   1492000   1.8252937      0.0035067641   1000000        0.0032386363   0.0022822302   0.0049994257   18.772724     -1.4193338      17.454248    
   1493000   1.8287802      0.001006364    1000000        0.0028817339  -0.00034122329  0.00047858144  18.781337     -1.4176927      17.45599     
   1494000   1.8230851      0.0012955264   1000000        0.0046195369   0.0016072216  -0.0023401793   18.768705     -1.4161715      17.45038     
   1495000   1.8146713      0.0004024254   1000000       -0.0020113796   0.00064612276  0.002572533    18.768623     -1.4147294      17.461475    
   1496000   1.8183745      0.00062836044  1000000        0.0016955381  -0.0027587786   0.0029483219   18.782527     -1.4145372      17.469632    
   1497000   1.8381163      0.00031816337  1000000        0.0001466922  -0.00054991074  0.0013577086   18.799005     -1.4128821      17.454844    
   1498000   1.8353139     -0.0003859535   1000000        0.002337974   -0.0037125908   0.00021675637  18.804822     -1.4110031      17.462986    
   1499000   1.8356915      0.00098197988  1000000        0.0022184894  -0.0021913123   0.0029187625   18.792423     -1.4116831      17.4507      
   1500000   1.8226563      0.00031550508  1000000        0.00044012992 -0.00074687398  0.0012532593   18.786556     -1.4089836      17.461686    
   1501000   1.8160323      0.0010177182   1000000       -0.00093507186  0.0014471325   0.0025410939   18.800935     -1.4047932      17.481809    
   1502000   1.8147779     -0.00039107346  1000000        0.0017273443  -0.0020651407  -0.00083542402  18.787491     -1.4012457      17.466699    
   1503000   1.8172376      0.00025196674  1000000        0.0012351451  -0.0017082557   0.0012290109   18.782799     -1.4072427      17.464315    
   1504000   1.8220742      0.0024445052   1000000        0.0023672644   0.0013520351   0.0036142163   18.780187     -1.4225053      17.469711    
   1505000   1.8170797      0.00025644319  1000000       -9.8574573e-05 -0.001791947    0.0026598512   18.770212     -1.4296682      17.474391    
   1506000   1.8164494     -0.00077727069  1000000        0.00046758931 -0.0010006848  -0.0017987166   18.763811     -1.4168418      17.456108    
   1507000   1.8075564     -0.00034017237  1000000        0.00012395833  0.0023270295  -0.0034715049   18.76473      -1.4059947      17.45952     
   1508000   1.8171285      0.00051517553  1000000       -0.0014424251   0.0023161335   0.00067181815  18.771741     -1.4112629      17.457441    
   1509000   1.8015319      0.0019075926   1000000       -0.00092996357  0.0017326926   0.0049200488   18.764128     -1.4065331      17.468492    
   1510000   1.8026312      0.0030188307   1000000        0.0032614352   0.0025614332   0.0032336236   18.756396     -1.4017058      17.454284    
   1511000   1.8247364     -0.00058162988  1000000       -0.0029451847   4.7256347e-05  0.0011530387   18.772933     -1.4202131      17.456172    
   1512000   1.8148262      0.0010140582   1000000        0.0017330914   0.00095737875  0.00035170444  18.76061      -1.418715       17.457215    
   1513000   1.8243877      0.0035279598   1000000        0.0031382241   0.0048565668   0.0025890885   18.775031     -1.4122999      17.45088     
   1514000   1.8178605      0.0030214145   1000000        0.0016440651   0.001777021    0.0056431573   18.769135     -1.4080359      17.45051     
   1515000   1.8188064      0.002888462    1000000        0.0032515144   0.00052048939  0.0048933821   18.77004      -1.399574       17.441534    
   1516000   1.816186       0.0011197121   1000000        0.0017825531   0.0012624707   0.00031411263  18.769631     -1.3997389      17.445221    
   1517000   1.8145843      0.00086717726  1000000       -0.001782529    0.0019007418   0.0024833189   18.767037     -1.4096584      17.454949    
   1518000   1.8130842     -0.00014164388  1000000       -0.0017681376   0.002069744   -0.00072653804  18.766054     -1.4092115      17.455769    
   1519000   1.8108436      0.00069416834  1000000        0.0014507667  -0.00034464948  0.00097638783  18.755241     -1.421512       17.460617    
   1520000   1.8169115      0.0027482499   1000000        0.0030912057   0.0058746163  -0.00072107235  18.762286     -1.4270082      17.464057    
   1521000   1.809542       0.0026356574   1000000        0.00144143     0.0046979684   0.0017675739   18.766679     -1.4119194      17.464415    
   1522000   1.821334      -0.00011647747  1000000       -0.0002753178  -0.00062808242  0.0005539678   18.78685      -1.4097529      17.464732    
   1523000   1.816532      -0.00077444931  1000000       -0.0025050382   0.00036591975 -0.00018422945  18.786969     -1.4130476      17.475349    
   1524000   1.8163883      0.0038979091   1000000        0.0053290768   0.0003729024   0.0059917479   18.788961     -1.4023945      17.466903    
   1525000   1.8275246     -0.00043872497  1000000        0.0023604236  -0.0023920809  -0.0012845176   18.779372     -1.4130143      17.451229    
   1526000   1.8207873     -0.00072299121  1000000       -0.0031548193   0.00079186698  0.00019397868  18.779009     -1.4185225      17.466481    
   1527000   1.8283198      0.00073653062  1000000        0.00054654444  0.00095146627  0.00071158116  18.783872     -1.4217491      17.463272    
   1528000   1.8245737     -0.0010029356   1000000       -0.0023752042   0.0032401583  -0.0038737608   18.777509     -1.4236913      17.46447     
   1529000   1.8320696     -5.1506504e-05  1000000       -0.0026101379   0.00093838263  0.0015172357   18.779543     -1.4277336      17.459303    
   1530000   1.8365057     -0.00073412939  1000000       -0.0010682556   0.00070550454 -0.0018396371   18.768285     -1.4337225      17.44738     
   1531000   1.8113864      0.0044432307   1000000        0.0066593266   0.0031288992   0.0035414664   18.758789     -1.4200174      17.461856    
   1532000   1.8135479     -0.0004816223   1000000        0.00022146285 -0.0018458192   0.00017948943  18.758431     -1.4136044      17.451843    
   1533000   1.8070209     -0.0023099186   1000000        0.00069220899 -0.0040395498  -0.0035824149   18.747163     -1.4266437      17.463404    
   1534000   1.8145939     -0.0011677908   1000000        0.00014603932  0.00024086926 -0.0038902809   18.744691     -1.4258802      17.44881     
   1535000   1.8079559      0.00031850985  1000000        0.00058808875  0.00030872035  5.8720436e-05  18.74836      -1.4188828      17.455438    
   1536000   1.8088574      0.00067409752  1000000        0.00089274678  0.00043889376  0.00069065201  18.753135     -1.4166145      17.456593    
   1537000   1.806448      -9.0853591e-05  1000000       -0.0023015334   8.4919736e-05  0.0019440529   18.741866     -1.4187315      17.451055    
   1538000   1.8070429      0.00073473946  1000000        0.0010501596   0.001882599   -0.00072854028  18.751571     -1.4213299      17.462465    
   1539000   1.797506       0.0014816885   1000000       -0.00048124544  0.0028245479   0.002101763    18.750239     -1.4166983      17.470807    
   1540000   1.8042366     -0.0017378744   1000000       -0.0027978271  -0.0021701396  -0.0002456566   18.750945     -1.425208       17.469927    
   1541000   1.815943       0.0013550843   1000000        0.0023670028  -0.00040933992  0.0021075901   18.765887     -1.4201744      17.462277    
   1542000   1.8180572     -0.0019780142   1000000       -0.00065135421 -0.0037455642  -0.0015371242   18.754654     -1.4200824      17.44778     
   1543000   1.8277241      0.0051554116   1000000        0.0071676323   0.0040421929   0.0042564095   18.772852     -1.4085741      17.43997     
   1544000   1.8207024      0.0048540569   1000000        0.0065306131   0.000600198    0.0074313595   18.768263     -1.4024911      17.43983     
   1545000   1.7986868     -0.0037010918   1000000       -0.0037089003  -0.0058534144  -0.0015409607   18.766794     -1.4123313      17.481223    
   1546000   1.816285       0.000348322    1000000        0.0010562367  -0.0019720135   0.0019607428   18.765786     -1.4151171      17.456605    
   1547000   1.8192476     -0.0040985488   1000000       -0.0074272464  -0.0028657728  -0.0020026272   18.762343     -1.4233558      17.456958    
   1548000   1.815685      -0.0021010383   1000000       -0.0018666108  -0.00124636    -0.0031901441   18.763999     -1.4167082      17.457309    
   1549000   1.8159589     -0.00094179706  1000000       -0.0002539125  -0.00073135712 -0.0018401216   18.772866     -1.4207588      17.469816    
   1550000   1.8227365     -0.0017727466   1000000        0.00023010411 -0.0014279747  -0.0041203692   18.775611     -1.4223571      17.463993    
   1551000   1.8079971     -0.00023167203  1000000        0.0023763497  -3.5388652e-05 -0.0030359771   18.76969      -1.4188022      17.476625    
   1552000   1.8240591     -0.0014046477   1000000       -0.00031709286 -0.002002325   -0.0018945253   18.772059     -1.4200484      17.456149    
   1553000   1.8063849     -9.1164246e-05  1000000       -0.0016321635   0.00089922328  0.00045944745  18.761822     -1.4193654      17.471739    
   1554000   1.8134764     -0.00031559644  1000000       -0.0016150424  -0.0016460046   0.0023142576   18.771181     -1.4213064      17.472402    
   1555000   1.8185847      0.00023438195  1000000        0.0012724797  -0.0029560054   0.0023866716   18.761765     -1.4129933      17.447011    
   1556000   1.824672       0.00072751302  1000000        0.0014869013   0.00076311246 -6.7474698e-05  18.770335     -1.4213938      17.454852    
   1557000   1.8277655      0.0012175943   1000000        0.00076516172 -1.9660992e-05  0.0029072822   18.76998      -1.4219861      17.450449    
   1558000   1.8134448      0.00084861917  1000000        0.0027980595  -0.0024981033   0.0022459013   18.762811     -1.423041       17.465814    
   1559000   1.8240871     -0.000840793    1000000       -0.002290236   -0.0017222275   0.0014900845   18.742776     -1.422304       17.429079    
   1560000   1.8318668      0.00047245139  1000000        0.00034148937  0.0033923368  -0.002316472    18.754521     -1.4216128      17.428464    
   1561000   1.8129383      0.0014004859   1000000        0.00044362146  0.0020381371   0.0017196991   18.739504     -1.4202151      17.440441    
   1562000   1.805266       0.00040147564  1000000        0.0002469267   4.5067064e-05  0.00091243316  18.745764     -1.4160439      17.454038    
   1563000   1.8212409      0.00099744639  1000000        0.0021808883  -0.00083423653  0.0016456874   18.766533     -1.4281688      17.462971    
   1564000   1.8159749     -0.0010266039   1000000        0.0018240302  -0.0032097552  -0.0016940867   18.764935     -1.4251194      17.466222    
   1565000   1.8253653      0.00072321197  1000000        0.0007329889   0.00012682366  0.0013098234   18.767515     -1.4227164      17.452314    
   1566000   1.8296363     -0.00040232085  1000000       -0.002475021    1.2555924e-05  0.0012555025   18.769716     -1.4267976      17.45219     
   1567000   1.8153697      0.00323342     1000000        0.001615454    0.0040555026   0.0040293034   18.756033     -1.4263186      17.459427    
   1568000   1.807589      -0.00033143167  1000000       -0.00019288379  0.0014626962  -0.0022641075   18.748717     -1.4281459      17.465609    
   1569000   1.8125593      0.001906878    1000000        0.0040855076   0.0012244317   0.00041069473  18.729694     -1.4201891      17.431173    
   1570000   1.7943693      0.0017906483   1000000        0.00030977012  0.00056603937  0.0044961354   18.737649     -1.4118658      17.458089    
   1571000   1.8054292      0.0011613795   1000000        0.0022118635   0.00087043358  0.00040184132  18.739543     -1.4223571      17.453885    
   1572000   1.7963803      0.0016611407   1000000        0.00065862917  0.0029868939   0.0013378989   18.738467     -1.413933       17.457958    
   1573000   1.8109829      0.0029638435   1000000        0.0017055776   0.0034133026   0.0037726503   18.748847     -1.4207399      17.453242    
   1574000   1.8152873     -0.00049839143  1000000       -0.00223838     0.0012229318  -0.00047972604  18.758348     -1.4256332      17.46118     
   1575000   1.8139906     -0.0029142941   1000000       -0.0032047722  -0.0019284951  -0.003609615    18.764952     -1.4217139      17.465809    
   1576000   1.8219923     -0.0029635732   1000000       -0.0038818925  -0.0023453448  -0.0026634822   18.764077     -1.4237793      17.454998    
   1577000   1.8118206     -0.0006674233   1000000        0.00071987801 -0.0024814694  -0.00024067848  18.761839     -1.4240381      17.468276    
   1578000   1.8165225      0.0010794274   1000000        0.0026906227  -0.00056504343  0.001112703    18.760946     -1.4227153      17.459008    
   1579000   1.8149622      0.0030175775   1000000        0.0042039772   0.0025239079   0.0023248473   18.763372     -1.4205769      17.461635    
   1580000   1.826885      -0.00076692387  1000000        0.0020878204  -0.0032268958  -0.0011616962   18.755925     -1.4261437      17.441872    
   1581000   1.8142695     -0.0013267869   1000000        0.0025221338  -0.0041940666  -0.0023084279   18.767341     -1.4216288      17.467695    
   1582000   1.8167723     -0.0019285262   1000000       -0.0019060091  -0.0029338446  -0.00094572489  18.772592     -1.4162754      17.463839    
   1583000   1.8344706      0.0011779916   1000000       -0.00042179542  0.0022702549   0.0016855154   18.793712     -1.4153426      17.45748     
   1584000   1.8218194      0.003652194    1000000        0.001678074    0.0047730488   0.0045054592   18.787023     -1.4141886      17.468612    
   1585000   1.8248648     -0.00078368622  1000000       -0.0017255114   0.0019346514  -0.0025601986   18.777833     -1.4231268      17.463793    
   1586000   1.8186387     -0.0026416341   1000000       -0.0014661948  -0.0032927824  -0.0031659252   18.776992     -1.4190207      17.468184    
   1587000   1.823235      -0.0022353468   1000000       -0.0022445229  -0.0033613469  -0.0011001707   18.777906     -1.4149401      17.458124    
   1588000   1.8225168     -0.0021881585   1000000        0.00033507072 -0.0020687413  -0.004830805    18.784317     -1.4303445      17.481017    
   1589000   1.8369354      0.00023384886  1000000        0.003545164   -0.001160268   -0.0016833494   18.793476     -1.4227431      17.460947    
   1590000   1.8205246     -0.00064883154  1000000        0.0012384142  -0.0035068652   0.00032195636  18.789221     -1.420475       17.479039    
   1591000   1.8246522      0.0012238529   1000000       -0.00028680949  0.0030636563   0.00089471176  18.785541     -1.4121132      17.460806    
   1592000   1.8292277      0.0023066194   1000000        0.0038855621   0.0013078055   0.0017264905   18.790816     -1.4076338      17.454739    
   1593000   1.83111       -0.0016340299   1000000       -0.0020043789   0.0010936479  -0.0039913586   18.785079     -1.4133634      17.451909    
   1594000   1.8208268     -0.0038004492   1000000       -0.0077916766  -0.00090952416 -0.0027001467   18.774229     -1.4172683      17.460387    
   1595000   1.8126469      0.00067341315  1000000        0.00081566401  0.0008084617   0.00039611373  18.76769      -1.3995927      17.448441    
   1596000   1.820247       0.0017752397   1000000        6.0803825e-05  0.0026179021   0.0026470131   18.766221     -1.4210952      17.457076    
   1597000   1.8088416      0.0013784183   1000000        0.0024102328  -0.00065301175  0.0023780338   18.752539     -1.4205408      17.459947    
   1598000   1.8137903      0.0016354121   1000000        0.0048989825  -0.0005701043   0.00057735804  18.755693     -1.417688       17.452825    
   1599000   1.8233597     -0.0022588576   1000000       -0.0026282407  -0.0017757033  -0.0023726289   18.752188     -1.4260791      17.443358    
   1600000   1.8166067     -0.0019781007   1000000       -0.0038300995   0.00010525555 -0.0022094581   18.747209     -1.4260143      17.448443    
   1601000   1.8184973     -0.0012887499   1000000       -0.0023064167  -0.00024522053 -0.0013146127   18.746798     -1.425997       17.445179    
   1602000   1.809085      -0.0024211859   1000000       -0.0034460918  -0.0047572649   0.00093979916  18.745764     -1.4255289      17.457794    
   1603000   1.8152201     -0.00083478422  1000000       -0.0011933604  -0.00045890876 -0.00085208346  18.748663     -1.4277282      17.453691    
   1604000   1.8240775     -0.0012514794   1000000       -0.0021626618  -0.0017824085   0.00019063217  18.745972     -1.4384064      17.448392    
   1605000   1.8130325      0.00085430759  1000000       -0.00076385362  0.0002504289   0.0030763475   18.74925      -1.4319426      17.461773    
   1606000   1.8218206      0.00094517805  1000000        0.0031157053   0.001682792   -0.0019629631   18.756811     -1.4306088      17.45482     
   1607000   1.8234559      0.00033149157  1000000        0.0027389915  -7.0597941e-05 -0.0016739188   18.736124     -1.4415483      17.442619    
   1608000   1.8234877     -7.4092328e-05  1000000       -0.00061358625 -0.00274735     0.0031386592   18.752144     -1.421542       17.438585    
   1609000   1.822656       0.0010886106   1000000       -0.0014461523   0.0026323104   0.0020796737   18.754819     -1.429106       17.450072    
   1610000   1.8174161     -0.00079892437  1000000       -0.0029934174   0.00034428586  0.00025235841  18.751309     -1.4255388      17.450854    
   1611000   1.8142946      0.0013134041   1000000        0.0013376702   0.00087134824  0.0017311938   18.758961     -1.4240511      17.4617      
   1612000   1.8155372      9.1154994e-05  1000000        0.00044148568  0.0018752174  -0.0020432381   18.762702     -1.4261374      17.465663    
   1613000   1.8142677     -0.00093606721  1000000        8.3644801e-05 -0.002534929   -0.00035691745  18.763868     -1.4263999      17.468996    
   1614000   1.8086472     -0.0021681113   1000000       -0.00057403832 -0.0045580162  -0.0013722794   18.755666     -1.4219346      17.464759    
   1615000   1.8153104     -0.0032230952   1000000       -0.0032783575  -0.0025905717  -0.0038003565   18.757876     -1.4291714      17.464211    
   1616000   1.8141522      0.0010221537   1000000        0.00094201115  0.0019248003   0.00019964957  18.759503     -1.4278077      17.466212    
   1617000   1.8124107     -0.0032717825   1000000       -0.0041666667  -0.0034873679  -0.0021613128   18.762337     -1.4203936      17.464244    
   1618000   1.8322972     -0.0019532096   1000000       -0.0014416562  -0.0021395456  -0.0022784271   18.774067     -1.4201048      17.445857    
   1619000   1.8269874      0.00071310261  1000000        0.0046030406  -0.00066258442 -0.0018011483   18.776296     -1.4217924      17.457738    
   1620000   1.8222957      0.0010372449   1000000        0.00084449495  0.0018347544   0.00043248521  18.765749     -1.4255645      17.458       
   1621000   1.8141401     -0.00016913066  1000000        0.0026383539  -0.0015092837  -0.0016364621   18.750462     -1.4238745      17.453256    
   1622000   1.8125316     -0.00092722718  1000000        0.0034665291  -0.0055187108  -0.00072949983  18.753349     -1.4284848      17.463166    
   1623000   1.819157      -0.003694997    1000000       -0.0028787672  -0.0068011195  -0.0014051042   18.752577     -1.4260067      17.449978    
   1624000   1.8104098     -0.0018338079   1000000       -0.0043682323  -0.00055183181 -0.00058135966  18.755053     -1.4230821      17.46265     
   1625000   1.8206544      0.00058724778  1000000        0.0013438879  -0.00088722593  0.0013050814   18.76795      -1.4227912      17.45989     
   1626000   1.8208074      0.0028964066   1000000        0.0028339152   0.0052020684   0.0006532363   18.751782     -1.4294221      17.450123    
   1627000   1.811315       0.0032862633   1000000        0.0020419941   0.0061452456   0.0016715504   18.743267     -1.4198736      17.446297    
   1628000   1.8157005      0.00019028643  1000000       -2.7483126e-05  0.0026827078  -0.0020843654   18.766444     -1.4204461      17.463469    
   1629000   1.8104183     -0.00035585544  1000000        0.001870559   -0.0019178098  -0.0010203156   18.767067     -1.4178913      17.46946     
   1630000   1.811049      -0.0016339633   1000000       -0.002433425   -0.0016070993  -0.00086136565  18.759665     -1.4250659      17.468287    
   1631000   1.822261      -0.0029850792   1000000        0.00015405561 -0.005104938   -0.0040043553   18.75693      -1.4341042      17.457772    
   1632000   1.8113439      0.0030412664   1000000        0.0038274117   0.0055262192  -0.00022983157  18.74322      -1.4279739      17.454307    
   1633000   1.8151013      0.0035842049   1000000        0.0037541156   0.002905134    0.0040933651   18.734756     -1.439971       17.452204    
   1634000   1.7994964      0.0034340683   1000000        0.0042301767   0.0025308553   0.0035411731   18.71374      -1.4368256      17.45145     
   1635000   1.80471        0.0034166514   1000000        0.0054859766   0.0020055869   0.0027583909   18.723059     -1.4244804      17.440603    
   1636000   1.806171       0.00038699885  1000000        0.0018483321   0.00054229105 -0.0012296266   18.727054     -1.4357432      17.453669    
   1637000   1.8007594      0.00026678335  1000000       -0.0018483987   0.0027348797  -8.6130998e-05  18.715358     -1.4314219      17.445769    
   1638000   1.8111965     -9.9732222e-05  1000000       -0.00049481925  0.0027591181  -0.0025634955   18.723043     -1.4387646      17.445143    
   1639000   1.7964073     -0.0028048559   1000000       -0.0025580455  -0.0011028078  -0.0047537144   18.727271     -1.4311501      17.463939    
   1640000   1.8115768     -0.0011185216   1000000       -0.0021215394  -0.00035741653 -0.00087660892  18.736624     -1.4367526      17.45614     
   1641000   1.7997394      4.4961204e-05  1000000        8.041868e-05   0.000665413   -0.00061094807  18.718006     -1.4317655      17.45029     
   1642000   1.7956919      0.00097328541  1000000       -6.0602838e-05  0.0017184418   0.0012620173   18.714064     -1.4304189      17.451074    
   1643000   1.796367       0.0018143152   1000000        0.00065179691  0.0030403692   0.0017507796   18.70944      -1.4390599      17.454077    
   1644000   1.79799        0.00087457651  1000000        0.001353557   -0.00013129583  0.0014014684   18.71854      -1.434131       17.455814    
   1645000   1.8014616     -0.0021296446   1000000       -0.0034764607  -0.0034670389   0.00055456592  18.707306     -1.4376234      17.442865    
   1646000   1.8070032     -0.0010483017   1000000       -0.00046464587 -0.0018883006  -0.00079195856  18.723879     -1.4342487      17.447752    
   1647000   1.8116759      0.00014671494  1000000       -0.00030943423  0.0017458222  -0.0009962431   18.726664     -1.4357026      17.444982    
   1648000   1.8142162      0.0010884072   1000000       -0.0009259626   0.0038068461   0.00038433798  18.722696     -1.4426654      17.444167    
   1649000   1.8059978     -0.00036531357  1000000        0.0020376647  -0.0045999084   0.001466303    18.736899     -1.4340539      17.462085    
   1650000   1.8138119     -0.0023263799   1000000       -0.0044003379  -0.001980508   -0.00059829371  18.730564     -1.4253432      17.435319    
   1651000   1.8080218      0.0028522768   1000000        0.0046527494   0.0041661675  -0.00026208663  18.732681     -1.4294558      17.450233    
   1652000   1.8075241      0.0016271935   1000000       -0.0011227864   0.0037529288   0.002251438    18.744696     -1.426246       17.459785    
   1653000   1.8179154     -0.001893968    1000000       -0.0023995948  -0.00021001274 -0.0030722964   18.765079     -1.4263406      17.464676    
   1654000   1.8059161     -0.0011919581   1000000       -0.0015932831  -0.0023551792   0.00037258814  18.748249     -1.4248963      17.4644      
   1655000   1.8163085     -0.00089298232  1000000        0.00054195254 -0.00098635559 -0.0022345439   18.759499     -1.433237       17.468403    
   1656000   1.820446       0.0011103717   1000000        0.0015826118   0.0038530408  -0.0021045374   18.762977     -1.4248474      17.457286    
   1657000   1.8165413      0.00075803106  1000000        0.00051344996  0.0014057609   0.00035488227  18.761182     -1.4259169      17.462416    
   1658000   1.8129753      0.001336183    1000000        0.000144516    0.0028748943   0.00098913858  18.752285     -1.4263969      17.459348    
   1659000   1.8150004     -0.00010651305  1000000       -0.0010862958   3.1089309e-05  0.00073566733  18.748594     -1.4302386      17.456462    
   1660000   1.8075624     -0.00023904185  1000000        6.0397766e-05 -0.00056877833 -0.000208745    18.752745     -1.4234403      17.464971    
   1661000   1.8156683     -0.00073145944  1000000       -1.1103665e-05  7.5449121e-05 -0.0022587238   18.769943     -1.4209985      17.467569    
   1662000   1.8226549      0.00049922502  1000000       -0.00046608912  0.00051601726  0.0014477469   18.785066     -1.4209105      17.472124    
   1663000   1.82502        0.00095038869  1000000        0.0025553181  -0.00035923564  0.0006550836   18.786357     -1.4190513      17.468009    
   1664000   1.8204478     -0.0018676652   1000000       -0.0013919802  -0.002208814   -0.0020022014   18.770319     -1.4179008      17.457678    
   1665000   1.8258527     -0.0012888805   1000000        0.0011594333  -0.0044737394  -0.00055233534  18.767987     -1.420965       17.450303    
   1666000   1.8184012      0.00033329529  1000000        0.0030338836  -0.00042431703 -0.0016096806   18.766343     -1.4154924      17.454363    
   1667000   1.8097532     -0.00068493329  1000000       -0.00055251692  0.00055000571 -0.0020522887   18.758768     -1.4223643      17.466631    
   1668000   1.8188543     -0.0015951638   1000000       -0.0023452871   0.00073870628 -0.0031789107   18.773007     -1.4251306      17.469986    
   1669000   1.816847      -0.0015463575   1000000       -0.0023080976  -0.0026038386   0.00027286375  18.773857     -1.4293425      17.478059    
   1670000   1.8208375     -0.0024346491   1000000       -0.0024027216  -0.00050953596 -0.0043916897   18.780624     -1.4240243      17.473522    
   1671000   1.8267611     -0.0012413834   1000000       -0.0023245557   0.00016473413 -0.0015643285   18.779224     -1.4278228      17.467035    
   1672000   1.8283753     -0.00028364254  1000000        0.0024787695  -0.0030592636  -0.00027043361  18.780734     -1.4266351      17.464937    
   1673000   1.8247127     -0.0030772962   1000000       -0.0025487467  -0.001913248   -0.004769894    18.780947     -1.4247227      17.468731    
   1674000   1.8168245     -0.0024304454   1000000       -0.001768705   -0.0022896558  -0.0032329754   18.777664     -1.4221825      17.47474     
   1675000   1.8130595     -6.2062751e-05  1000000       -0.00022030372  0.0013322689  -0.0012981534   18.768798     -1.4104111      17.459749    
   1676000   1.8212477      8.5287984e-05  1000000        0.00013051276  0.00042603659 -0.0003006854   18.761435     -1.4187515      17.448445    
   1677000   1.8154814      0.0005495046   1000000        0.00042947372 -0.00074265912  0.0019616992   18.751537     -1.4200893      17.448534    
   1678000   1.8211088      0.00017584058  1000000        0.002657285   -0.00063669372 -0.0014930695   18.765908     -1.41996        17.454334    
   1679000   1.8158985      0.0010178877   1000000        0.00018527589  0.002189964    0.00067842319  18.758938     -1.4185992      17.453819    
   1680000   1.8094201     -0.0009905648   1000000       -0.00057688948  0.0012842296  -0.0036790346   18.755776     -1.4150268      17.456802    
   1681000   1.8004334     -0.0010211772   1000000        0.0013386264  -0.0010888453  -0.0033133125   18.743512     -1.4152909      17.458281    
   1682000   1.8121501      0.00037807326  1000000        0.0028612938  -0.0036776424   0.0019505684   18.762568     -1.4175275      17.462       
   1683000   1.8061135      0.0025931618   1000000        0.0031314361   0.001957632    0.0026904172   18.758472     -1.4172121      17.466643    
   1684000   1.8105756     -0.00062479455  1000000        0.0018772259  -0.001150323   -0.0026012866   18.758987     -1.4161519      17.459405    
   1685000   1.8233956      0.0031350491   1000000        0.0057016443   0.0050094465  -0.0013059435   18.76143      -1.4160777      17.442545    
   1686000   1.8264247      0.0012591227   1000000        0.0033619996   0.00010654196  0.00030882648  18.764167     -1.4277755      17.452436    
   1687000   1.832217      -0.0005176126   1000000       -0.00038480652 -0.00044773102 -0.00072030027  18.771551     -1.4380055      17.461362    
   1688000   1.8209908      0.0032793271   1000000        0.0015143379   0.0032033951   0.0051202484   18.769752     -1.4301999      17.468596    
   1689000   1.8233998      0.0017631456   1000000       -0.0008442035   0.0023953231   0.0037383171   18.767323     -1.4281997      17.460553    
   1690000   1.8198551     -0.0023338944   1000000       -0.0012394802  -0.00035238505 -0.005409818    18.7787       -1.4272499      17.476297    
   1691000   1.8293034     -0.0020541293   1000000       -0.0032541106  -1.12363e-05   -0.0028970409   18.777297     -1.4292875      17.46276     
   1692000   1.8303451      0.00036410801  1000000       -0.0012339602  -0.0011712333   0.0034975175   18.772594     -1.4380826      17.46529     
   1693000   1.819416      -0.0007827607   1000000       -0.0008123216  -0.00072965177 -0.00080630871  18.768544     -1.4372894      17.476839    
   1694000   1.8214886      0.00028006094  1000000       -0.0018596106   0.00067163246  0.002028161    18.767426     -1.4318698      17.467193    
   1695000   1.8144058     -0.0010006743   1000000       -0.00030021496  9.7362613e-05 -0.0027991706   18.769683     -1.4354003      17.483604    
   1696000   1.8233625      0.0017685155   1000000        0.0011824495   0.0031741068   0.00094899025  18.76687      -1.4361106      17.468067    
   1697000   1.8228373     -0.00053181593  1000000       -0.0020282241  -0.0023772602   0.0028100365   18.766319     -1.4280858      17.460279    
   1698000   1.8179257      0.00023751335  1000000       -0.001168347    0.00091110851  0.00096977855  18.75174      -1.4161492      17.441131    
   1699000   1.8323405      0.00073314559  1000000       -0.0029518573   0.0022727963   0.0028784978   18.76159      -1.4275945      17.440805    
   1700000   1.822172      -0.00084629074  1000000       -0.0019742623  -0.00019153512 -0.0003730748   18.758931     -1.4325016      17.458305    
   1701000   1.8358855      0.0020879161   1000000        0.0015796958   0.00033460222  0.0043494503   18.768059     -1.4451399      17.459502    
   1702000   1.8253244      0.0061121924   1000000        0.0049861697   0.0062079116   0.0071424959   18.75084      -1.44073        17.453714    
   1703000   1.8256316      0.0039232351   1000000        0.0029966179   0.0044516451   0.0043214422   18.747668     -1.441377       17.450728    
   1704000   1.8217674      0.0021311323   1000000        0.0037561068   0.00092283888  0.0017144514   18.742264     -1.4446244      17.454367    
   1705000   1.8148197     -0.0028910703   1000000       -0.0040813449  -0.0042406125  -0.00035125356  18.743902     -1.4363985      17.458201    
   1706000   1.8165238     -0.00026815849  1000000       -0.0023234003  -0.0005458955   0.0020648204   18.752628     -1.4404175      17.46839     
   1707000   1.8254767      0.0033668304   1000000        0.0029350795   0.0019778605   0.0051875511   18.750559     -1.4369038      17.449378    
   1708000   1.8246531     -0.00089125774  1000000       -0.0029909674  -0.00012142612  0.00043862035  18.758012     -1.4473903      17.468553    
   1709000   1.811033      -0.00011953914  1000000       -0.00099563142  0.0011463007  -0.00050928667  18.75192      -1.4377888      17.473289    
   1710000   1.8174879     -0.0010783328   1000000       -0.00242801    -0.0020290567   0.0012220683   18.752922     -1.4387969      17.465617    
   1711000   1.8069254      0.0019294099   1000000        0.0020373901   0.002018335    0.0017325046   18.737141     -1.4383458      17.465228    
   1712000   1.8061641     -0.00022935289  1000000       -0.0013273276  -0.00012891596  0.00076818488  18.729799     -1.4271951      17.447877    
   1713000   1.8038364      0.00051334883  1000000        0.0023285348   0.0011590691  -0.0019475575   18.729412     -1.4260801      17.449866    
   1714000   1.8169307     -0.0015227055   1000000       -0.00054187369  0.00061040361 -0.0046366464   18.736166     -1.4285248      17.439425    
   1715000   1.815914      -0.00066956548  1000000        0.00075182449 -0.0031843205   0.00042379958  18.734216     -1.4319777      17.442453    
   1716000   1.8195814     -0.0013767412   1000000       -0.002913398   -0.00052176283 -0.00069506292  18.744565     -1.432519       17.447842    
   1717000   1.8145713     -0.0013370636   1000000       -0.0017973909  -0.0029284147   0.00071461474  18.740107     -1.4294002      17.44778     
   1718000   1.8065636      0.0034551308   1000000        0.0042845436   0.00037912705  0.0057017218   18.731993     -1.4168532      17.439129    
   1719000   1.8104797      0.0017653121   1000000        0.0031782341   0.0038943107  -0.0017766084   18.742045     -1.4231195      17.449575    
   1720000   1.8101167     -0.00010143772  1000000        0.00090811813  0.0019393885  -0.0031518198   18.732297     -1.4270664      17.444318    
   1721000   1.8195607     -0.00084213283  1000000        0.00026163424 -0.00038322646 -0.0024048063   18.729528     -1.4348384      17.435156    
   1722000   1.816721       0.0016787867   1000000        0.0023786042   0.00085753446  0.0018002216   18.736332     -1.4339611      17.445342    
   1723000   1.808606      -0.0027288778   1000000       -0.0036382257  -0.0037952697  -0.00075313791  18.72097      -1.4331296      17.44132     
   1724000   1.7965585     -0.0039517896   1000000       -0.0035011946  -0.0044561419  -0.0038980322   18.714898     -1.4334206      17.45361     
   1725000   1.7868655      0.0018959298   1000000        0.00096135357  0.0022956303   0.0024308056   18.711244     -1.4264766      17.45755     
   1726000   1.8020174      0.0011039212   1000000        0.0017573851   0.0015010042   5.3374124e-05  18.727892     -1.4274926      17.452487    
   1727000   1.7968921      0.00053502432  1000000        8.517734e-05   0.0015960497  -7.6154042e-05  18.728671     -1.4277653      17.461226    
   1728000   1.8110867      0.0035372403   1000000       -0.00016322157  0.0068333013   0.0039416413   18.736616     -1.4242286      17.444344    
   1729000   1.8174604      0.0030349885   1000000        0.0033257548   0.00010143869  0.0056777718   18.750916     -1.4229871      17.447842    
   1730000   1.8221188     -0.0018356871   1000000        0.00075022213 -0.0041851027  -0.0020721808   18.755787     -1.4340509      17.456789    
   1731000   1.8293999      0.00058887075  1000000        0.0015642345   0.0015312458  -0.001328868    18.760334     -1.4387256      17.455091    
   1732000   1.8125124      0.00098370373  1000000        0.0017091555   0.001156818    8.5137624e-05  18.752214     -1.4317792      17.465354    
   1733000   1.818632      -0.00049921624  1000000       -0.0016320888   0.00031614755 -0.00018170744  18.754086     -1.4356953      17.461964    
   1734000   1.806686       1.8755727e-05  1000000       -0.00070669882  0.0023193768  -0.0015564108   18.74405      -1.4359287      17.470078    
   1735000   1.8304768      0.0016256793   1000000        0.0026035114   0.00051586784  0.0017576585   18.743386     -1.4485348      17.446337    
   1736000   1.8060514     -0.0025337042   1000000       -0.0046295133  -0.0028314234  -0.00014017593  18.721365     -1.4425313      17.454948    
   1737000   1.8161271      0.0018024472   1000000       -0.00086690069  0.0028457125   0.0034285299   18.730113     -1.4472497      17.453302    
   1738000   1.8138983      0.00034297254  1000000        8.9519475e-05  0.00035323816  0.00058615998  18.73961      -1.4367576      17.45565     
   1739000   1.7975542      0.0015078383   1000000        0.0020565356   0.00085419136  0.0016127879   18.728301     -1.4343227      17.466421    
   1740000   1.8083749     -0.0012904119   1000000       -0.0021302977  -5.002754e-06  -0.0017359354   18.726355     -1.4429246      17.456846    
   1741000   1.8082677      0.00064767442  1000000        0.0020626538   0.00079054256 -0.00091017315  18.733527     -1.430367       17.451622    
   1742000   1.8057085     -0.0020321977   1000000       -0.0008928534  -0.0014785966  -0.0037251431   18.734889     -1.4332164      17.459672    
   1743000   1.7964303     -0.00039331538  1000000        0.0022287909  -0.0013819973  -0.0020267397   18.733656     -1.4303456      17.469485    
   1744000   1.8021925     -0.0013022899   1000000       -0.00052302865 -0.004602398    0.0012185569   18.719017     -1.4389219      17.454779    
   1745000   1.8025292     -0.0013225658   1000000        0.0021970852  -0.0053224608  -0.00084232172  18.73426      -1.4317401      17.462335    
   1746000   1.8045618     -0.00023862313  1000000        0.0019586496  -0.0025140962  -0.00016042272  18.743422     -1.4263901      17.463098    
   1747000   1.8125689      0.0025682114   1000000        0.0029793407   0.0032618893   0.0014634043   18.753111     -1.4253546      17.459742    
   1748000   1.8172554     -0.0019902578   1000000       -0.0028607761  -0.00050356192 -0.0026064355   18.754139     -1.4369317      17.465317    
   1749000   1.812491      -0.0012869508   1000000       -0.0038133169   4.6280533e-05 -9.3816035e-05  18.735557     -1.4422308      17.459181    
   1750000   1.808366      -0.0022597218   1000000        0.0003446221  -0.0032924655  -0.0038313219   18.728134     -1.4458795      17.461594    
   1751000   1.8041593      0.0011803216   1000000        0.00069625212  0.0008879597   0.001956753    18.719888     -1.4366818      17.45046     
   1752000   1.7927681     -0.00061941483  1000000       -0.0031656058   0.0013547683  -4.740698e-05   18.719685     -1.4318347      17.462495    
   1753000   1.7912262     -0.00082859435  1000000       -0.00023425656  0.00060701187 -0.0028585384   18.721815     -1.4215405      17.456644    
   1754000   1.796313       0.0012564475   1000000        0.0022267263   0.00068346067  0.00085915562  18.716228     -1.4177412      17.439628    
   1755000   1.8034861      0.0016218067   1000000        0.0014323363   0.0025022026   0.00093088132  18.725197     -1.4228414      17.442938    
   1756000   1.8053864      0.0025987077   1000000        0.0031308375   0.002887246    0.0017780395   18.729891     -1.4221907      17.444131    
   1757000   1.8021693     -0.00054616296  1000000       -0.00089075536  0.00073690413 -0.0014846377   18.73151      -1.4276265      17.456011    
   1758000   1.8127152      0.0011352177   1000000        7.6538652e-05  0.0003898091   0.0029393053   18.740899     -1.428535       17.45049     
   1759000   1.810587      -0.0011166535   1000000       -0.00039732418 -1.289843e-05  -0.0029397379   18.739691     -1.4388361      17.462776    
   1760000   1.8002167     -0.0029043542   1000000       -0.0046054856  -0.0013642034  -0.0027433737   18.740924     -1.4270968      17.467825    
   1761000   1.8264996     -8.2788009e-05  1000000       -0.0006449155   0.0021614929  -0.0017649414   18.76182      -1.4348058      17.457007    
   1762000   1.8097869     -0.0026211356   1000000       -0.0033964393  -0.002130234   -0.0023367337   18.739596     -1.43694        17.461985    
   1763000   1.801755       0.0014933938   1000000       -0.00035694033  0.0013523162   0.0034848056   18.732571     -1.4311916      17.461259    
   1764000   1.8095244      0.0013552407   1000000        0.0021919515   0.00057986781  0.0012939027   18.736596     -1.4375001      17.459939    
   1765000   1.8121781     -0.00089096979  1000000       -0.00090855993  0.0012446986  -0.0030090481   18.74658      -1.4370414      17.465483    
   1766000   1.8017082      0.00076225349  1000000        0.0010440735   0.0026818255  -0.0014391385   18.725374     -1.426004       17.448944    
   1767000   1.7832926     -0.00075333942  1000000       -0.0001280883  -0.00014998079 -0.0019819492   18.697936     -1.4292718      17.452396    
   1768000   1.7914683      1.7593127e-05  1000000       -0.00054909526 -0.0010421597   0.0016440343   18.696333     -1.4392479      17.448507    
   1769000   1.7901397     -0.0011956215   1000000       -0.00075652778 -0.0055233607   0.0026930239   18.696219     -1.440571       17.451708    
   1770000   1.7933524     -0.00065433178  1000000       -0.00024900052 -0.0023477733   0.00063377847  18.710733     -1.4307878      17.45162     
   1771000   1.7943157      0.0024371932   1000000        0.0023333966   0.00094742893  0.004030754    18.709455     -1.437194       17.455304    
   1772000   1.7878142     -0.0035066672   1000000       -0.0045872535  -0.0022712721  -0.0036614762   18.707998     -1.4254432      17.451848    
   1773000   1.7952554     -0.001194657    1000000       -0.0010221716  -0.0026240595   6.2260105e-05  18.705101     -1.4281159      17.440462    
   1774000   1.8046821     -0.00016607508  1000000       -0.00050527545 -0.00073620644  0.00074325665  18.72027      -1.4275826      17.440959    
   1775000   1.8118959     -0.00063700052  1000000       -0.0018783038  -0.0018057488   0.001773051    18.732264     -1.4337462      17.448296    
   1776000   1.8068013     -0.0011320629   1000000       -0.0012683147  -0.0018523888  -0.00027548528  18.736511     -1.4332594      17.459697    
   1777000   1.8203048      0.0012964741   1000000        0.00095891303  0.0014937128   0.0014367966   18.755835     -1.4312368      17.456745    
   1778000   1.8048864     -0.00056239966  1000000        0.0023503365  -0.0029214904  -0.001116045    18.725457     -1.4295467      17.447803    
   1779000   1.797905       0.00057322827  1000000       -9.2702902e-05  0.0017690295   4.3358209e-05  18.727245     -1.4242434      17.454759    
   1780000   1.8080228      0.00040202998  1000000        0.00090111161 -0.0020840929   0.0023890713   18.728262     -1.4254891      17.441846    
   1781000   1.8100792      0.00012037184  1000000        0.00054676375  0.00039909541 -0.00058474364  18.720152     -1.4326217      17.437784    
   1782000   1.8027452     -0.00038030372  1000000       -0.003275913    0.0014721041   0.00066289774  18.720918     -1.4278231      17.444752    
   1783000   1.7922944     -0.0021839273   1000000       -0.0019873877  -0.0040611768  -0.00050321756  18.713123     -1.4228743      17.447684    
   1784000   1.796115      -0.00091992047  1000000        0.00041693343 -0.0022578022  -0.00091889262  18.715024     -1.4234441      17.444424    
   1785000   1.8033324     -0.00022851332  1000000       -0.00102613     0.0012349184  -0.00089432841  18.715024     -1.4286238      17.438778    
   1786000   1.800812      -0.0027966291   1000000       -0.0019649501  -0.0035725913  -0.0028523458   18.718337     -1.426886       17.444134    
   1787000   1.8033408     -0.0039685609   1000000       -0.0021556543  -0.0041711519  -0.0055788764   18.712761     -1.4273438      17.435222    
   1788000   1.8049618      0.00056469053  1000000        0.0016847795  -0.00054818612  0.00055747827  18.719872     -1.4268645      17.439423    
   1789000   1.8069421     -0.0015270937   1000000       -0.0017871781  -0.00065226507 -0.002141838    18.727268     -1.4390202      17.456005    
   1790000   1.7999804      0.0024696524   1000000        0.0042231795   0.0020026674   0.0011831104   18.733209     -1.430708       17.464075    
   1791000   1.7983554     -0.00036967353  1000000       -0.0013088404  -0.00067621482  0.00087603462  18.721115     -1.4338056      17.457515    
   1792000   1.8082283     -0.0022481622   1000000        0.00054486026 -0.0040116498  -0.0032776972   18.730918     -1.4470712      17.465776    
   1793000   1.8192531      0.0043076218   1000000        0.0056298278   0.0028626584   0.0044303793   18.723216     -1.452398       17.446864    
   1794000   1.7964368      0.0019264819   1000000        0.0017180767   0.0033684618   0.00069290732  18.710308     -1.4534697      17.469251    
   1795000   1.8029762      0.0003975121   1000000        0.00047335224  0.0014401316  -0.00072094751  18.718039     -1.4359039      17.449607    
   1796000   1.8060707     -0.00045271441  1000000       -0.0023711332  -0.00086030839  0.0018732984   18.726075     -1.4448786      17.461976    
   1797000   1.8064721      0.0025438241   1000000        0.00025418633  0.0059143452   0.0014629406   18.741993     -1.4434311      17.475845    
   1798000   1.822245       0.0028962635   1000000        0.0010284734   0.0053291649   0.0023311521   18.735708     -1.4458747      17.448346    
   1799000   1.8160309     -0.0014681963   1000000       -0.0002473979  -0.00057906261 -0.0035781285   18.740792     -1.450345       17.467221    
   1800000   1.825864      -0.001813732    1000000       -0.003724851   -0.00040404002 -0.001312305    18.744782     -1.4483443      17.454461    
   1801000   1.8203079     -0.0041778895   1000000       -0.0048691158  -0.0036543124  -0.0040102403   18.747911     -1.453402       17.470981    
   1802000   1.8152389     -0.0019394233   1000000       -0.0032534152   0.00029298811 -0.0028578429   18.749271     -1.4505883      17.477131    
   1803000   1.807911       0.00034530925  1000000        0.00013430395  0.0022365066  -0.0013348827   18.750386     -1.4421707      17.480819    
   1804000   1.8167676     -0.0001959968   1000000       -0.00039052122 -0.0016134673   0.0014159982   18.755296     -1.4468923      17.477167    
   1805000   1.8245021      0.0019709048   1000000        0.0022581038  -0.00030560107  0.0039602118   18.744665     -1.4457454      17.453787    
   1806000   1.8299166      0.00086478583  1000000        0.0003248673   0.0020422423   0.00022724792  18.748194     -1.4464637      17.449913    
   1807000   1.8133231      0.0020828697   1000000       -0.00031889738  0.0046188891   0.0019486175   18.729386     -1.4392279      17.448759    
   1808000   1.8088181      0.00060720009  1000000        7.5282274e-05  0.00044465147  0.0013016665   18.744967     -1.4366401      17.468509    
   1809000   1.8127921      0.00056427645  1000000        0.0011160666  -0.002732317    0.0033090797   18.73467      -1.433031       17.448642    
   1810000   1.8121648     -0.00021212881  1000000        0.00052380024  1.6127633e-05 -0.0011763143   18.746083     -1.4405867      17.468552    
   1811000   1.8108468     -0.00094993568  1000000       -0.00066689596 -0.0018772916  -0.00030561944  18.737421     -1.4385631      17.459844    
   1812000   1.8235074      0.00017833689  1000000       -0.0010010064   0.00094069838  0.00059531864  18.747932     -1.4308657      17.443667    
   1813000   1.8057284      0.00024481027  1000000       -0.00079343381  0.0026990675  -0.0011712029   18.745749     -1.4356524      17.472938    
   1814000   1.8095261     -0.0021535246   1000000       -0.003924868    0.00014932718 -0.0026850331   18.737764     -1.4374705      17.461075    
   1815000   1.8187405      0.00069188247  1000000       -1.0811936e-05  0.00030430869  0.0017821507   18.744407     -1.4366302      17.453056    
   1816000   1.8222172      0.00024848208  1000000        0.00049204114  0.001155425   -0.00090201988  18.744625     -1.4360549      17.447484    
   1817000   1.8014116      0.00087924554  1000000        0.0023245262  -0.00059014121  0.00090335169  18.726797     -1.4409307      17.465739    
   1818000   1.811312       0.0019412452   1000000        0.0026708428   0.0016453171   0.0015075756   18.733495     -1.4514394      17.468096    
   1819000   1.8180334     -0.00026955749  1000000        0.0004826973  -0.0010369707  -0.00025439911  18.743653     -1.450773       17.467506    
   1820000   1.8179262      0.00024303811  1000000        0.003134503   -0.0015825934  -0.00082279524  18.740403     -1.4668653      17.480509    
   1821000   1.8177315     -0.0012173498   1000000        0.00040365734 -0.0036164402  -0.00043926642  18.733398     -1.4603403      17.467271    
   1822000   1.8278386     -0.0004096725   1000000        0.00034618937  0.0028282968  -0.0044035037   18.74104      -1.4668766      17.466289    
   1823000   1.8242982      0.0046951656   1000000        0.004979881    0.0048419212   0.0042636945   18.743716     -1.4525545      17.459954    
   1824000   1.814198       0.0070000334   1000000        0.0063878288   0.0064617117   0.0081505598   18.727013     -1.4577017      17.463547    
   1825000   1.8172844      0.004015879    1000000        0.0039269763   0.0047256286   0.0033950323   18.727662     -1.4524549      17.45432     
   1826000   1.8160056      0.0042451063   1000000        0.0062613737   0.0033831232   0.0030908219   18.726294     -1.4528451      17.45526     
   1827000   1.7980422      1.8651925e-05  1000000       -0.002985757   -0.00014050038  0.0031822132   18.723675     -1.4527324      17.479472    
   1828000   1.8170236     -0.0029724351   1000000       -0.0055356173  -0.0015062441  -0.0018754441   18.737537     -1.4547511      17.466882    
   1829000   1.8293201      0.00025027461  1000000       -0.00034190591  0.0016139207  -0.00052119091  18.75657      -1.4548896      17.467611    
   1830000   1.8254145      0.00092379368  1000000       -0.0016899948   0.0029061972   0.0015551786   18.732876     -1.4526312      17.447516    
   1831000   1.8039365      0.0001269024   1000000       -0.0036102133   0.0017486648   0.0022422557   18.72566      -1.4507241      17.470608    
   1832000   1.8118452     -0.00086686157  1000000       -0.00080704528 -0.0013923227  -0.00040121676  18.727965     -1.4385658      17.448893    
   1833000   1.8043646     -0.0014065356   1000000       -0.0014964318  -0.0012289838  -0.0014941913   18.703523     -1.4431785      17.440283    
   1834000   1.8000772     -0.0014604193   1000000        0.0028241805  -0.0034591655  -0.0037462729   18.704604     -1.4495538      17.45417     
   1835000   1.8048289     -0.00055447009  1000000        0.00033092773 -0.003355542    0.001361204    18.70875      -1.4527069      17.454342    
   1836000   1.8152765     -0.00060939981  1000000       -0.0026806483  -0.00036509348  0.0012175423   18.726397     -1.4570135      17.460625    
   1837000   1.8129944     -0.00060074345  1000000       -0.0020778574   0.0011200177  -0.00084439065  18.725762     -1.4566395      17.463039    
   1838000   1.8128079      0.00078726696  1000000       -0.001526618    0.0035546077   0.00033381126  18.727746     -1.4553215      17.463985    
   1839000   1.8102609      4.3152739e-05  1000000        0.00062047745 -0.0016710325   0.0011800132   18.722875     -1.4500749      17.457687    
   1840000   1.8141856     -0.0019518695   1000000       -0.0030023233  -0.0026953072  -0.0001579781   18.726333     -1.4596359      17.46482     
   1841000   1.81924       -0.0046679646   1000000       -0.0070776701  -0.0042736506  -0.0026525731   18.734451     -1.4569681      17.462689    
   1842000   1.8237285      0.00076068056  1000000        0.00086402754  0.0013770142   4.0999952e-05  18.733958     -1.4632078      17.461703    
   1843000   1.8270445     -0.0019219103   1000000       -0.002674301    0.0011913665  -0.0042827964   18.747379     -1.4654763      17.472419    
   1844000   1.8327237     -0.00097389028  1000000       -0.0025512457  -0.00065583577  0.00028541066  18.747165     -1.4581697      17.45638     
   1845000   1.8169448      0.0020810805   1000000        0.0025271749   0.0015021029   0.0022139636   18.734712     -1.4533007      17.462725    
   1846000   1.802508      -0.0025649793   1000000       -0.0013034418  -0.0045128882  -0.001878608    18.718072     -1.4494687      17.463908    
   1847000   1.8119263     -0.0039550904   1000000       -0.0038152244  -0.0029314449  -0.0051186018   18.725085     -1.4596384      17.466963    
   1848000   1.8192714     -0.0025199138   1000000       -0.0032256048  -0.0023168575  -0.002017279    18.73273      -1.4645342      17.468487    
   1849000   1.8358994     -0.00032065147  1000000        0.00092875287  0.00010619833 -0.0019969056   18.738732     -1.4771113      17.462126    
   1850000   1.8338805     -0.00029747852  1000000        0.00078401661  0.00085514716 -0.0025315993   18.740512     -1.4726202      17.462443    
   1851000   1.829745       0.0022672758   1000000        0.0015962667   0.0032005975   0.0020049632   18.746219     -1.4752846      17.477017    
   1852000   1.8218966      0.0028644729   1000000        0.0023786988   0.0052525566   0.00096216349  18.741397     -1.4670378      17.47572     
   1853000   1.8228971     -0.0005957401   1000000       -8.7413216e-05  0.00073316159 -0.0024329687   18.724037     -1.4666549      17.456477    
   1854000   1.8072578      0.00083132203  1000000        0.002263667   -0.00031188896  0.000542188    18.717405     -1.4596297      17.466277    
   1855000   1.8128621     -0.0022494108   1000000        0.00026239193 -0.0013234755  -0.0056871488   18.710617     -1.4542315      17.445685    
   1856000   1.8077832      0.0002791632   1000000        0.0046638897  -0.0039140064   8.7606328e-05  18.713349     -1.4623481      17.464151    
   1857000   1.8193782     -0.00048681351  1000000       -0.00045673339 -0.0016896585   0.0006859514   18.708986     -1.4663355      17.446384    
   1858000   1.8194395      0.00011016761  1000000        0.00036544509 -0.00024628075  0.00021133848  18.717698     -1.4509029      17.439572    
   1859000   1.810797       0.0019224312   1000000        0.0037652506   0.0012291188   0.00077292433  18.722668     -1.4425092      17.449112    
   1860000   1.8106385     -0.00031599047  1000000       -0.00066369114 -0.0038333476   0.0035490673   18.728143     -1.4431567      17.455471    
   1861000   1.8090977     -0.00040338605  1000000        0.00012422867 -0.0015554595   0.00022107267  18.715242     -1.4548054      17.45653     
   1862000   1.8054274      0.00080560537  1000000        0.00089309216  0.0025104839  -0.00098675998  18.707506     -1.4513537      17.450848    
   1863000   1.8007858      0.00046881218  1000000       -0.00097377603  0.001784127    0.00059608553  18.718045     -1.4472743      17.464269    
   1864000   1.8124563      0.00051786686  1000000       -0.00025447454 -0.00032630129  0.0021343764   18.722166     -1.4528315      17.456442    
   1865000   1.8114256      0.0027347351   1000000        0.0030656018   0.0031757317   0.0019628718   18.718154     -1.450814       17.451959    
   1866000   1.8013433     -0.0011341662   1000000       -0.0011501672  -0.0017716919  -0.00048063945  18.715913     -1.4440041      17.458031    
   1867000   1.8107964      0.0018420686   1000000        0.0068605976   0.0010554552  -0.002389847    18.73652      -1.4517381      17.472193    
   1868000   1.8244421     -0.0012586368   1000000        0.00068202093 -0.0034992905  -0.00095864082  18.741199     -1.4496103      17.454277    
   1869000   1.8175149     -7.9066563e-05  1000000        0.0014443609  -0.00074475497 -0.00093680566  18.733082     -1.4466522      17.453591    
   1870000   1.8043617      0.0035164672   1000000        0.0030362294   0.0034413729   0.0040717992   18.733323     -1.4472801      17.47419     
   1871000   1.8042977      6.5571259e-05  1000000       -0.0033237818   0.00078910423  0.0027313914   18.730297     -1.4403048      17.464284    
   1872000   1.8085074      0.001378917    1000000       -0.00047662445  0.0016200876   0.002993288    18.728851     -1.4477659      17.463985    
   1873000   1.823419       0.0012665918   1000000       -0.0023757452   0.0028175627   0.0033579579   18.737503     -1.4481886      17.450693    
   1874000   1.8196653     -0.0013244076   1000000        0.0011688392  -0.0030750798  -0.0020669821   18.730932     -1.4482333      17.449798    
   1875000   1.8158195     -0.00052601878  1000000        2.1560489e-05 -0.0010070635  -0.00059255329  18.746541     -1.4431424      17.466084    
   1876000   1.826249      -0.0010741045   1000000        0.0017948043  -0.0037495898  -0.0012675279   18.749899     -1.4453534      17.456009    
   1877000   1.8102234      0.0032356951   1000000        0.0050386826   0.0015310324   0.0031373702   18.739353     -1.438071       17.462219    
   1878000   1.8188773      0.00012095324  1000000        0.00045737837 -0.0020378855   0.0019433668   18.728659     -1.4434177      17.443891    
   1879000   1.8059222      0.0015162753   1000000        0.0018559629   0.00065349072  0.0020393723   18.72353      -1.4455832      17.460359    
   1880000   1.8062995     -0.00063138286  1000000        0.002497623   -0.00020862365 -0.0041831479   18.718131     -1.4400228      17.448833    
   1881000   1.7995306     -0.00010100464  1000000        0.0039360484  -0.0031049911  -0.0011340713   18.711684     -1.4541102      17.466627    
   1882000   1.7915031     -0.0021571242   1000000       -0.0019679754  -0.0044625869  -4.0810172e-05  18.701942     -1.4442725      17.459088    
   1883000   1.7998219      0.0026540596   1000000        0.0018940333   0.0016847395   0.0043834061   18.698589     -1.443396       17.442381    
   1884000   1.8061054      0.0034075655   1000000        0.00079481622  0.0057747025   0.0036531778   18.717907     -1.4426811      17.451559    
   1885000   1.8002926      0.002560674    1000000        0.00052357468  0.0052330417   0.0019254058   18.733072     -1.4320565      17.464819    
   1886000   1.8107288      0.0017602776   1000000        0.0020536089   0.001568866    0.001658358    18.727273     -1.4348304      17.44614     
   1887000   1.8006183      0.0014197905   1000000        0.003127642   -0.0010221591   0.0021538886   18.72145      -1.4404871      17.461138    
   1888000   1.8008626      0.00059743977  1000000       -0.00042864915  0.0033698653  -0.0011488968   18.725285     -1.4417459      17.465866    
   1889000   1.8073237      0.00037906007  1000000       -0.0035449882   0.0033548385   0.0013273299   18.720064     -1.4448797      17.454088    
   1890000   1.812339      -0.0011272737   1000000       -0.0016710624  -0.0026724431   0.00096168432  18.740475     -1.4373994      17.459495    
   1891000   1.8042332     -0.00086846038  1000000        0.0013323418  -0.0016709438  -0.0022667791   18.733675     -1.4360803      17.463535    
   1892000   1.8120797      0.00070272722  1000000        0.0022260993   0.0010359129  -0.0011538305   18.734205     -1.4389792      17.455194    
   1893000   1.8001189      0.002280301    1000000        0.0039660624   0.0013788439   0.0014959966   18.725424     -1.4381747      17.463549    
   1894000   1.8111159     -0.00057537295  1000000       -0.0009690371   9.3279613e-05 -0.00085036137  18.739245     -1.4392193      17.46192     
   1895000   1.7920848     -0.0023006853   1000000       -0.00068561044 -0.0041152976  -0.0021011479   18.724039     -1.4276165      17.463656    
   1896000   1.7956817     -0.0017858493   1000000       -0.0021624642  -0.00032842299 -0.0028666608   18.727495     -1.4343816      17.468482    
   1897000   1.8145573     -0.00087427029  1000000       -0.0031104085  -0.0012544093   0.001742007    18.73066      -1.436177       17.44513     
   1898000   1.8140814      0.000692335    1000000       -0.00038429316 -0.0014050812   0.0038663793   18.733058     -1.4367679      17.448834    
   1899000   1.805694      -0.002009679    1000000       -0.0013935315  -0.0020653415  -0.0025701641   18.740997     -1.4429809      17.475566    
   1900000   1.8067903      0.00020904634  1000000        0.00021267623  0.00061184043 -0.00019737764  18.737274     -1.4319722      17.45919     
   1901000   1.808168       0.0030825442   1000000        0.0029709555   0.0038032857   0.0024733915   18.739848     -1.4308279      17.458553    
   1902000   1.8110946     -0.0013735375   1000000       -0.0018568487  -0.00070581597 -0.0015579479   18.745372     -1.4320088      17.460868    
   1903000   1.8178831     -0.0028096957   1000000       -5.4105912e-05 -0.0043513872  -0.0040235939   18.743036     -1.4424908      17.458831    
   1904000   1.810118      -0.0003686571   1000000       -0.0014124707   0.0013098245  -0.0010033251   18.738954     -1.4414664      17.465373    
   1905000   1.8107921      0.00059039315  1000000       -0.0013340661   0.0021191691   0.00098607646  18.733072     -1.4393114      17.456325    
   1906000   1.8078982      0.00012232395  1000000        0.0025272257   0.00031002167 -0.0024702755   18.733751     -1.4355628      17.457596    
   1907000   1.814453       0.0012772983   1000000        0.0008886424   0.00228793     0.00065532254  18.731432     -1.4447542      17.454636    
   1908000   1.8172999     -0.00092691512  1000000       -0.0023269579  -0.0023566832   0.0019028958   18.739072     -1.4487249      17.461977    
   1909000   1.8135709      0.0023098195   1000000        0.00098152832  0.0027534867   0.0031944435   18.727072     -1.4454412      17.452286    
   1910000   1.8142293     -0.0012157254   1000000        0.0016213502  -0.0015901186  -0.0036784077   18.720128     -1.4531622      17.452076    
   1911000   1.8128063      0.0015776099   1000000        0.0011973445   0.0032425488   0.00029293652  18.724928     -1.4497081      17.455556    
   1912000   1.7957757      0.0017485602   1000000        0.0012341941  -0.00029960352  0.00431109     18.70347      -1.4503025      17.460237    
   1913000   1.7912214     -0.00011053951  1000000        7.16853e-05    6.5329096e-05 -0.00046863293  18.690171     -1.447401       17.450868    
   1914000   1.8058238     -0.0010508442   1000000        0.00074729016 -0.0034671237  -0.00043269902  18.706565     -1.4542986      17.452257    
   1915000   1.8090679     -0.00029829937  1000000        0.00067379308 -0.0048129502   0.003244259    18.725205     -1.4542978      17.46603     
   1916000   1.8134674     -0.001336412    1000000       -0.00075176461 -0.0037076427   0.0004501712   18.729272     -1.4553276      17.464528    
   1917000   1.8080827     -0.00093977255  1000000        0.0028810198  -0.0045288893  -0.0011714481   18.736727     -1.446648       17.47138     
   1918000   1.8147847     -0.00051625656  1000000        0.00012305257  0.0010658034  -0.0027376257   18.732746     -1.4411172      17.451816    
   1919000   1.800378       0.0038864423   1000000        0.0023097851   0.0043732298   0.0049763119   18.717211     -1.4329338      17.449707    
   1920000   1.8043281      0.001950528    1000000        0.0037347661   0.00077681843  0.0013399996   18.728724     -1.4387669      17.461128    
   1921000   1.7958949     -0.00076862719  1000000       -0.0019068885  -4.8284518e-06 -0.00039416464  18.713959     -1.4412281      17.461473    
   1922000   1.8044939     -0.0012724682   1000000       -0.00093454541  0.00019839978 -0.003081259    18.719808     -1.445246       17.458442    
   1923000   1.804572      -0.0025594235   1000000       -0.0018451369  -0.0024277158  -0.0034054178   18.716223     -1.4494499      17.458944    
   1924000   1.8076049      0.0001277087   1000000        0.0021431676  -0.00054816925 -0.0012118722   18.714449     -1.4499272      17.453097    
   1925000   1.7985823     -2.4663601e-05  1000000       -0.0017722601   0.0025152849  -0.00081701564  18.716734     -1.4401466      17.459136    
   1926000   1.8040847      0.00049306172  1000000       -0.00050229184  0.0027782169  -0.00079673986  18.724279     -1.4489668      17.467247    
   1927000   1.8089435      0.00041500824  1000000        0.00020372292 -0.0010445941   0.002085896    18.73516      -1.4475551      17.469429    
   1928000   1.8081931     -0.0013390073   1000000       -0.0002817668  -0.0037913354   5.6080164e-05  18.725083     -1.4484235      17.461346    
   1929000   1.7971725      4.2323426e-05  1000000        0.0020309002  -0.00030113885 -0.0016027911   18.729983     -1.4443136      17.478666    
   1930000   1.8084429     -0.00099241787  1000000       -0.00011637412 -0.0021341525  -0.000726727    18.728664     -1.4441397      17.460269    
   1931000   1.8016021     -0.0018750171   1000000       -0.0011691667  -0.0011414525  -0.0033144321   18.718081     -1.4456284      17.461435    
   1932000   1.8075956     -0.00024884353  1000000       -0.00034618481  0.0016975102  -0.002097856    18.722719     -1.4474621      17.458917    
   1933000   1.8069743      0.001091726    1000000        0.001444128    0.00067101378  0.0011600363   18.728711     -1.4414404      17.459819    
   1934000   1.816152      -0.0016292678   1000000       -0.00089818858 -0.0013302898  -0.0026593251   18.728826     -1.4381307      17.442859    
   1935000   1.7939021      0.0021231565   1000000        0.0032677413   0.0023292115   0.00077251684  18.719271     -1.4295929      17.458139    
   1936000   1.7992285     -0.0010170689   1000000       -0.0022771357   0.00042039816 -0.0011944692   18.728087     -1.4247223      17.454095    
   1937000   1.8066375      0.00035279141  1000000       -0.0019079151   0.0029158141   5.0475223e-05  18.724686     -1.4350056      17.449864    
   1938000   1.8110574      0.0025752223   1000000        0.0024809088   0.0029049993   0.0023397587   18.724048     -1.4389865      17.446578    
   1939000   1.8112266      0.0015879687   1000000        0.00022739307 -0.0010673425   0.0056038555   18.738379     -1.429417       17.451086    
   1940000   1.8111322     -0.0011626847   1000000       -0.0031806916  -0.00365209     0.0033447275   18.744875     -1.4354579      17.463764    
   1941000   1.8172506     -0.00019247454  1000000        0.00074336101  0.00039838548 -0.0017191701   18.734039     -1.4359538      17.444247    
   1942000   1.8209621     -0.001098404    1000000       -0.00046424906 -0.00095931217 -0.0018716507   18.740899     -1.4465456      17.456131    
   1943000   1.8255134     -0.00031426846  1000000        0.0017134544  -0.00043805892 -0.0022182008   18.736154     -1.4468419      17.444856    
   1944000   1.8321872     -0.00030870573  1000000        0.0019506912  -0.0024806084  -0.00039619996  18.737182     -1.4531209      17.442153    
   1945000   1.8210601      0.0020149469   1000000        0.0026707819   0.0018538248   0.0015202339   18.741482     -1.4470999      17.457122    
   1946000   1.8185922      0.0016462667   1000000        0.0031198342   0.0006204816   0.0011984842   18.731113     -1.4506278      17.453982    
   1947000   1.8128909      0.0032459548   1000000        0.0034589283  -0.00013414382  0.0064130801   18.729569     -1.4470132      17.457376    
   1948000   1.8158972     -0.00084206324  1000000        0.0006206654  -0.003306341    0.00015948586  18.733737     -1.4477724      17.457794    
   1949000   1.8053715     -0.00083890382  1000000       -0.0033738584   0.00030888865  0.00054825825  18.732028     -1.4481014      17.472201    
   1950000   1.8200352      0.0014475314   1000000        6.7791438e-05  0.0022220961   0.0020527065   18.728884     -1.4458565      17.444818    
   1951000   1.8065334      0.00075113356  1000000       -0.00088815777  0.0021298378   0.0010117206   18.715682     -1.4454764      17.451487    
   1952000   1.8084103      0.00024095538  1000000        0.0014193581  -6.8213068e-05 -0.00062827888  18.721204     -1.4518639      17.460581    
   1953000   1.8133836     -0.0011786129   1000000        0.00033461789  0.00084882032 -0.0047192769   18.726782     -1.458814       17.465651    
   1954000   1.8182158      0.0004088841   1000000        0.00025406823  0.0013316161  -0.00035903206  18.722211     -1.450901       17.445918    
   1955000   1.8116189      0.00046208519  1000000        0.00043296609  0.0013367201  -0.00038343066  18.725393     -1.4487602      17.456854    
   1956000   1.8124874     -0.001570858    1000000       -0.0014467428  -0.003006308   -0.00025952326  18.714005     -1.4506605      17.446064    
   1957000   1.8077814     -0.00011940359  1000000       -0.00063648729 -0.00066423579  0.0009425123   18.715673     -1.4535345      17.457664    
   1958000   1.8150391      0.00026922975  1000000       -0.00066895421  0.00098154612  0.00049509733  18.716537     -1.4587892      17.452898    
   1959000   1.8188538     -0.0018370331   1000000        0.0021474932  -0.0070627693  -0.00059582325  18.719642     -1.4591388      17.45063     
   1960000   1.8248976     -0.00054394642  1000000       -0.00022162121 -0.002229192    0.0008189739   18.731316     -1.4592808      17.45338     
   1961000   1.8119328      0.00014234083  1000000       -0.002111484   -0.0007025581   0.0032410646   18.715258     -1.4508403      17.448329    
   1962000   1.8131818      0.0021285728   1000000        0.00082670192  0.0017080852   0.0038509312   18.7183       -1.4512155      17.449873    
   1963000   1.7990264      0.001125093    1000000        0.00080221653  0.00029687561  0.0022761868   18.72541      -1.4352755      17.462274    
   1964000   1.8136638     -0.00081810068  1000000        0.00024253782 -0.0021534699  -0.00054336993  18.723096     -1.4487396      17.45147     
   1965000   1.8227185     -0.0010761977   1000000        0.0022892128  -0.0024981473  -0.0030196587   18.726367     -1.4518843      17.444304    
   1966000   1.8132047      0.001038845    1000000        0.00283737    -0.00013152348  0.00041068839  18.720846     -1.445095       17.446264    
   1967000   1.8034914      0.0030406629   1000000        0.0030261967   0.0030310001   0.0030647918   18.715593     -1.4381901      17.448675    
   1968000   1.8060618     -0.0017749524   1000000       -0.00058565715 -0.002516718   -0.002222482    18.714567     -1.4369562      17.44256     
   1969000   1.7998351     -0.0013841754   1000000       -0.0015449185  -0.00024122802 -0.0023663797   18.704233     -1.4497363      17.454345    
   1970000   1.800117       0.00013859953  1000000       -0.00043209127  0.0010609323  -0.00021304241  18.703618     -1.4457811      17.449352    
   1971000   1.7960655      0.001717925    1000000       -0.00025534359  0.0042746381   0.0011344803   18.698867     -1.4472902      17.452187    
   1972000   1.7917757     -0.004549475    1000000       -0.0054799633  -0.0037447979  -0.0044236639   18.692822     -1.4399161      17.445203    
   1973000   1.7871325      0.0010881814   1000000        0.00096517429  0.00029758616  0.0020017838   18.682004     -1.4390097      17.440443    
   1974000   1.7929985      0.00070010491  1000000       -0.00032056417  0.0014828694   0.00093800953  18.705221     -1.4355324      17.451384    
   1975000   1.7963137      0.00046227716  1000000        0.0016164905   0.00015921128 -0.00038887029  18.703192     -1.4346237      17.443474    
   1976000   1.7964719     -0.0042193827   1000000       -0.0032464716  -0.0053096175  -0.0041020589   18.710734     -1.4448613      17.461016    
   1977000   1.8032842     -0.0030906945   1000000       -0.0022977992  -0.0046927259  -0.0022815585   18.706492     -1.4409262      17.442621    
   1978000   1.7946627     -0.0002624476   1000000       -0.0034088061  -0.0010217113   0.0036431746   18.70174      -1.437858       17.447732    
   1979000   1.7960023     -0.00079334273  1000000       -0.0016320825   0.0010625794  -0.0018105251   18.713289     -1.43502        17.454434    
   1980000   1.7979323      0.00063307312  1000000       -0.0012604611   0.003561322   -0.00040164155  18.71159      -1.4344298      17.44925     
   1981000   1.8083944     -0.00013424648  1000000       -0.0011945881   0.0013406117  -0.00054876307  18.723116     -1.4364806      17.447134    
   1982000   1.8132336     -0.0021555546   1000000       -0.00027398394 -0.0043950053  -0.0017976745   18.726835     -1.4440372      17.451152    
   1983000   1.808038      -0.00065867559  1000000       -0.0012406729  -0.0013752494   0.00063989556  18.723003     -1.4425048      17.45358     
   1984000   1.813291       0.0027870871   1000000        0.0037547142   0.0035840482   0.0010224989   18.738904     -1.4409977      17.460095    
   1985000   1.814532       0.0010641154   1000000        0.0016703059   0.0018128512  -0.00029081087  18.735824     -1.450157       17.464312    
   1986000   1.8200607      0.0053645808   1000000        0.0032546852   0.00628889     0.0065501672   18.713052     -1.4474293      17.43052     
   1987000   1.8110147     -0.00027809424  1000000       -0.0019000867  -1.4129713e-05  0.0010799337   18.728682     -1.4393387      17.451628    
   1988000   1.8052884     -0.0025338832   1000000       -0.0049046534  -0.0015154088  -0.0011815875   18.708455     -1.4353887      17.43604     
   1989000   1.8139973     -0.0023958571   1000000       -0.0035672413  -0.0011007997  -0.0025195303   18.717555     -1.4397185      17.436407    
   1990000   1.8123191     -0.0029157205   1000000       -0.0026198699  -0.0008858005  -0.0052414912   18.726172     -1.446766       17.454589    
   1991000   1.8211976      0.0017452331   1000000        0.0021957004   0.0048601987  -0.0018201998   18.721045     -1.4561605      17.445539    
   1992000   1.8126635     -0.00034866456  1000000       -0.001141707    0.00063268425 -0.00053697098  18.724879     -1.4499718      17.455985    
   1993000   1.813793      -0.0020752384   1000000        0.0015653444  -0.0030290768  -0.0047619828   18.718941     -1.4509206      17.449302    
   1994000   1.8055405      0.0022995996   1000000        0.0042284418   0.0019438903   0.00072646661  18.70253      -1.4493549      17.443703    
   1995000   1.8082091      0.0022217461   1000000        0.004087504    0.00031990996  0.0022578244   18.716495     -1.4473213      17.451632    
   1996000   1.8032887      0.0030555686   1000000        0.0054502752   0.0011018355   0.0026145951   18.715164     -1.4453879      17.455747    
   1997000   1.8109626      0.00089055186  1000000       -0.002721596    0.0022448051   0.0031484465   18.717488     -1.4516543      17.452828    
   1998000   1.7972978      0.00019470074  1000000       -0.00067988818  0.0014306349  -0.00016664454  18.711974     -1.4433002      17.459456    
   1999000   1.8134259      0.00099083589  1000000        0.0014197474  -0.00041663253  0.0019693927   18.716176     -1.4568515      17.453018    
   2000000   1.8078855      0.0034082243   1000000        0.0004778075   0.0036890524   0.0060578131   18.713509     -1.4623929      17.464202    
Loop time of 9667.78 on 1 procs for 2000000 steps with 21000 atoms

Performance: 1787.381 tau/day, 206.873 timesteps/s, 4.344 Matom-step/s
56.9% CPU use with 1 MPI tasks x no OpenMP threads

MPI task timing breakdown:
Section |  min time  |  avg time  |  max time  |%varavg| %total
---------------------------------------------------------------
Pair    | 4201.5     | 4201.5     | 4201.5     |   0.0 | 43.46
Bond    | 230.24     | 230.24     | 230.24     |   0.0 |  2.38
Neigh   | 1091.3     | 1091.3     | 1091.3     |   0.0 | 11.29
Comm    | 47.28      | 47.28      | 47.28      |   0.0 |  0.49
Output  | 24.906     | 24.906     | 24.906     |   0.0 |  0.26
Modify  | 4033.6     | 4033.6     | 4033.6     |   0.0 | 41.72
Other   |            | 38.94      |            |       |  0.40

Nlocal:          21000 ave       21000 max       21000 min
Histogram: 1 0 0 0 0 0 0 0 0 0
Nghost:           9328 ave        9328 max        9328 min
Histogram: 1 0 0 0 0 0 0 0 0 0
Neighs:         248084 ave      248084 max      248084 min
Histogram: 1 0 0 0 0 0 0 0 0 0

Total # of neighbors = 248084
Ave neighs/atom = 11.813524
Ave special neighs/atom = 1.9790476
Neighbor list builds = 14691
Dangerous builds = 0

Total wall time: 2:42:16
